$
$ Database for Ni-Ti from C.-S. Oh et al., 1995
$
$ C.-S. Oh, J.-H. Shim, D.N. Lee, J. Korean Inst. Met. Mater., 33, 129-36(1995).
$
$ Dataset created 2011.03.20 by Bengt Hallstedt.
$ 2021.02.02: Modified for use with GES6.
$
$ Taken from the SGTE binary collection for the LB volumes.
$
$ NITI_B2 modelled as a separate phase using an asymmetric model.
$
$ I do not have access to the paper to compare with. The phase diagram seems
$ reasonably reproduced.
$
$ This system has a rich life at high temperature. There is an inverse bcc
$ phase with a min at 3130 K and x(Ti)=0.27 and a max at 3921 K and there is
$ an inverse fcc with a min at 3329 K and x(Ti)=0.65. There is also an inverse
$ miscibility gap (mostly covered by bcc and fcc) with a min around 3500 K and
$ x(Ti) about 0.25.
$
$ ------------------------------------------------------------------------------
 TEMP-LIM 298.15 6000.00 !
$
$ELEMENT NAME  REF. STATE               ATOMIC MASS H298-H0    S298    !
$
 ELEMENT VA   VACUUM                      0.0          0.0      0.0    ! 
 ELEMENT NI   FCC_A1                     58.69      4787.0     29.7955 ! 
 ELEMENT TI   HCP_A3                     47.88      4824.      30.72   ! 
$ ------------------------------------------------------------------------------
$ Phase definitions
$
 PHASE LIQUID:L % 1 1 !
 CONST LIQUID:L : NI TI : !
$
$ Fcc (cF4, Fm-3m) and MeX (cF8, Fm-3m)
$
 PHASE FCC_A1 %A 2 1 1 !
 CONST FCC_A1 : NI% TI : VA : !
$
$ Bcc (cI2, Im-3m)
$
 PHASE BCC_A2 %B 2 1 3 !
 CONST BCC_A2 : NI TI% : VA : !
$
$ Hcp (hP2, P6_3/mmc) and Me2X (NiAs-type, hP4, P6_3/mmc, B8_1)
$
 PHASE HCP_A3 %A 2 1 0.5 !
 CONST HCP_A3 : NI TI% : VA : !
$
$ Prototype Ni3Ti (hP16, P6_3/mmc)
$
 PHASE NI3TI_D024 % 2 0.75 0.25 !
 CONST NI3TI_D024 : NI : TI : !
$
$ Prototype CsCl (cP2, Pm-3m)
$
 PHASE NITI_B2 %B 3 0.5 0.5 3 !
 CONST NITI_B2 : NI% VA : NI TI% : VA : !
$
$ Prototype NiTi2 (cF96, Fd-3m)
$
 PHASE NITI2 % 2 0.33333 0.66667 !
 CONST NITI2 : NI : TI : !
$ ------------------------------------------------------------------------------
$ Defaults
$
 DEFINE-SYSTEM-DEFAULT ELEMENT 2 !
 DEFAULT-COM DEFINE_SYSTEM_ELEMENT VA !
 TYPE-DEF % SEQ * !
 TYPE-DEF A GES AMEND_PHASE_DESCRIPTION @ MAGNETIC -3 0.28 !
 TYPE-DEF B GES AMEND_PHASE_DESCRIPTION @ MAGNETIC -1 0.4 !
 FUNCTION ZERO      298.15  0;                                         6000 N !
 FUNCTION UN_ASS    298.15  0;                                         6000 N !
 FUNCTION R         298.15  +8.31451;                                  6000 N !
$ ------------------------------------------------------------------------------
$ Element data
$ ------------------------------------------------------------------------------
$ Ni
$
$ FCC_A1 and LIQUID modified in unary 5.0 (slight change in upper T interval)
$ BCT_A5 added in unary 5.0
$
 PAR  G(FCC_A1,NI:VA),,                 +GHSERNI;                3000 N 91Din !
 PAR  TC(FCC_A1,NI:VA),,                  633.00;                3000 N 91Din !
 PAR  BM(FCC_A1,NI:VA),,                    0.52;                3000 N 91Din !
 PAR  G(BCC_A2,NI:VA),,                 +GHSERNI
             +8715.084-3.556*T;                                  3000 N 91Din !
 PAR  TC(BCC_A2,NI:VA),,                  575.00;                3000 N 91Din !
 PAR  BM(BCC_A2,NI:VA),,                    0.85;                3000 N 91Din !
 PAR  G(HCP_A3,NI:VA),,                 +GHSERNI+1046+1.255*T;   3000 N 91Din !
 PAR  TC(HCP_A3,NI:VA),,                  633.00;                3000 N 91Din !
 PAR  BM(HCP_A3,NI:VA),,                    0.52;                3000 N 91Din !
$PAR  G(BCT_A5,NI),,                    +GHSERNI+10023-4.556*T;  3000 N 99Gho !
$PAR  G(CBCC_A12,NI:VA),,               +GHSERNI+3556;           3000 N 91Din !
$PAR  G(CUB_A13,NI:VA),,                +GHSERNI+2092;           3000 N 91Din !
 PAR  G(LIQUID,NI),,                    +GLIQNI;                 3000 N 91Din !
$
 PAR  G(NITI_B2,NI:NI:VA),,             +GBCCNI;,,                    N 95Oh !
 PAR  G(NITI_B2,VA:NI:VA),,             +0.5*GLIQNI+10000;,,          N 95Oh !
$
 FUNCTION GHSERNI   298.15  -5179.159+117.854*T-22.096*T*LN(T)-0.0048407*T**2;
      1728.00  Y  -27840.62+279.134977*T-43.1*T*LN(T)+1.12754E+31*T**(-9);
      3000.00  N !
 FUNCTION GLIQNI    298.15  +16414.686-9.397*T+GHSERNI-3.82318E-21*T**7;
      1728.00  Y  -9549.817+268.597977*T-43.1*T*LN(T);
      3000.00  N !
 FUNCTION GBCCNI    298.15  +GHSERNI+8715.084-3.556*T;                 3000 N !
 FUNCTION GHCPNI    298.15  +GHSERNI+1046+1.255*T;                     3000 N !
$ ------------------------------------------------------------------------------
$ Ti
$
$ BCT_A5 added in unary 3.0
$
 PAR  G(HCP_A3,TI:VA),,                 +GHSERTI;                4000 N 91Din !
 PAR  G(BCC_A2,TI:VA),,                 +GBCCTI;                 4000 N 91Din !
 PAR  G(FCC_A1,TI:VA),,                 +GHSERTI+6000-0.1*T;     4000 N 91Din !
$PAR  G(DIAMOND_A4,TI),,                +GHSERTI+25000;          4000 N 91Din !
$PAR  G(BCT_A5,TI),,                    +GHSERTI+4602.2;         3000 N SGCOST !
$PAR  G(CBCC_A12,TI:VA),,               +GHSERTI+4602.2;         4000 N 91Din !
$PAR  G(CUB_A13,TI:VA),,                +GHSERTI+7531.2;         4000 N 91Din !
 PAR  G(LIQUID,TI),,                    +GLIQTI;                 4000 N 91Din !
$
 PAR  G(NITI_B2,VA:TI:VA),,             +0.5*GLIQTI+100000;,,         N 95Oh !
$
 FUNCTION GHSERTI   298.15  -8059.921+133.615208*T-23.9933*T*LN(T)
       -0.004777975*T**2+1.06716E-07*T**3+72636*T**(-1);
       900.00  Y  -7811.815+132.988068*T-23.9887*T*LN(T)
       -0.0042033*T**2-9.0876E-08*T**3+42680*T**(-1);
      1155.00  Y  +908.837+66.976538*T-14.9466*T*LN(T)
       -0.0081465*T**2+2.02715E-07*T**3-1477660*T**(-1);
      1941.00  Y  -124526.786+638.806871*T-87.2182461*T*LN(T)
       +0.008204849*T**2-3.04747E-07*T**3+36699805*T**(-1);
      4000.00  N !
 FUNCTION GBCCTI    298.15  -1272.064+134.71418*T-25.5768*T*LN(T)
       -6.63845E-04*T**2-2.78803E-07*T**3+7208*T**(-1);
      1155.00  Y  +6667.385+105.366379*T-22.3771*T*LN(T)
       +0.00121707*T**2-8.4534E-07*T**3-2002750*T**(-1);
      1941.00  Y  +26483.26-182.426471*T+19.0900905*T*LN(T)
       -0.02200832*T**2+1.228863E-06*T**3+1400501*T**(-1);
      4000.00  N !
 FUNCTION GLIQTI    298.15  +12194.415-6.980938*T+GHSERTI;
      1300.00  Y  +369519.198-2554.0225*T+342.059267*T*LN(T)
       -0.163409355*T**2+1.2457117E-05*T**3-67034516*T**(-1);
      1941.00  Y  -19887.066+298.7367*T-46.29*T*LN(T);
      4000.00  N !
 FUNCTION GFCCTI    298.15  +GHSERTI+6000-0.1*T;                       6000 N !
$ ------------------------------------------------------------------------------
$ Binary system
$
$ C.-S. Oh, J.-H. Shim, D.N. Lee, J. Korean Inst. Met. Mater., 33, 129-36(1995).
$
$ Checked at 6000 K.
$
$ Taken from the SGTE binary collection for the LB volumes.
$
$ NITI_B2 modelled as a separate phase using an asymmetric model.
$
$ I do not have access to the paper to compare with. The phase diagram seems
$ reasonably reproduced.
$
$ This system has a rich life at high temperature. There is an inverse bcc
$ phase with a min at 3130 K and x(Ti)=0.27 and a max at 3921 K and there is
$ an inverse fcc with a min at 3329 K and x(Ti)=0.65. There is also an inverse
$ miscibility gap (mostly covered by bcc and fcc) with a min around 3500 K and
$ x(Ti) about 0.25.
$
 PAR  L(LIQUID,NI,TI;0),,               -163609.1+50.34822*T;,,       N 95Oh !
 PAR  L(LIQUID,NI,TI;1),,               -70684.3+32.16068*T;,,        N 95Oh !
 PAR  L(LIQUID,NI,TI;2),,               +8512.3;,,                    N 95Oh !
$
 PAR  L(FCC_A1,NI,TI:VA;0),,            -105520.9+14.08255*T;,,       N 95Oh !
 PAR  L(FCC_A1,NI,TI:VA;1),,            -99282.7+56.85055*T;,,        N 95Oh !
 PAR  TC(FCC_A1,NI,TI:VA;0),,           -9549.1;,,                    N 95Oh !
 PAR  TC(FCC_A1,NI,TI:VA;1),,           +6612.8;,,                    N 95Oh !
$
 PAR  L(BCC_A2,NI,TI:VA;0),,            -102941.6+22.32312*T;,,       N 95Oh !
 PAR  L(BCC_A2,NI,TI:VA;1),,            -25412.5-3.30245*T;,,         N 95Oh !
$
 PAR  L(HCP_A3,NI,TI:VA;0),,            -20164.3;,,                   N 95Oh !
$
 PAR  G(NI3TI_D024,NI:TI),,             -41329.1+132.01864*T
             -23.57*T*LN(T)-0.00206*T**2+61750*T**(-1);,,             N 95Oh !
$
 PAR  G(NITI_B2,NI:TI:VA),,             -38083.5+137.58462*T
             -24.82*T*LN(T)-0.001065*T**2+55005*T**(-1);,,            N 95Oh !
 PAR  L(NITI_B2,NI,VA:TI:VA;0),,        -82694.3;,,                   N 95Oh !
 PAR  L(NITI_B2,NI,VA:TI:VA;1),,        -75000;,,                     N 95Oh !
 PAR  L(NITI_B2,NI:NI,TI:VA;0),,        -40073+14.97265*T;,,          N 95Oh !
$
 PAR  G(NITI2,NI:TI),,                  -35030.9+135.59271*T
             -24.09*T*LN(T)-0.003*T**2+55615*T**(-1);,,               N 95Oh !
$ ------------------------------------------------------------------------------
$
 ASSESSED_SYSTEM
  NI-TI(TDB -* +LIQUID +FCC_A1 +BCC_A2 +NITI_B2 +HCP_A3 +NI3TI_D024 +NITI2 
  ;P3 TMM:300/3000 STP:.51/1000/1 ) !
$
$
 LIST-OF-REFERENCE
 NUMBER  SOURCE
  Null   'Unknown source'
  REFLAV 'Laves phase convention: G(LAVES,X:X)=+3*GHSERXX+15000'
  SGCOST 'COST 507 database, SGTE unary database V.3.0, 1996; Al, B, Nd, Ti, Zn'
  91Din  'A.T. Dinsdale, Calphad, 15, 317-425(1991).'
  95Oh   'C.-S. Oh, J.-H. Shim, D.N. Lee,
          J. Korean Inst. Met. Mater., 33, 129-36(1995); Ni-Ti'
  99Gho  'G. Ghosh, Metall. Mater. Trans. A, 30A, 1481-94(1999),
          SGTE unary database V.5.0, 2009; Ni'
!
