$
$ Database for Mg-B from Z.-K. Liu et al. 2001 (included in LB Vol. 2)
$
$ Z.-K. Liu, Y. Zhong, D.G. Schlom, X.X. Xi, Q. Li, Calphad, 25, 299-303(2001).
$
$ Dataset created 2014.01.18 by Bengt Hallstedt.
$ 2021.01.24: Modified for use with GES6.
$
$ B solubility in hcp-Mg not modelled.
$
$ ------------------------------------------------------------------------------
 TEMP-LIM 298.15 6000.00 !
$
$ELEMENT NAME  REF. STATE               ATOMIC MASS H298-H0    S298    !
$
 ELEMENT VA   VACUUM                      0.0          0.0      0.0    ! 
 ELEMENT B    BETA_RHOMBO_B              10.81      1222.0      5.9    ! 
 ELEMENT MG   HCP_A3                     24.305     4998.      32.671  !
$ ------------------------------------------------------------------------------
$ Species
$
 SPECIE  B2                                 B2 !
 SPECIE  MG2                                MG2 !
$ ------------------------------------------------------------------------------
$ Phase definitions
$
 PHASE LIQUID:L % 1 1 !
 CONST LIQUID:L : B MG : !
$
$ Fcc (cF4, Fm-3m) and MeX (cF8, Fm-3m)
$
 PHASE FCC_A1 %A 2 1 1 !
 CONST FCC_A1 : MG : VA : !
$
$ Bcc (cI2, Im-3m)
$
 PHASE BCC_A2 %B 2 1 3 !
 CONST BCC_A2 : MG : VA : !
$
$ Hcp (hP2, P6_3/mmc) and Me2X (NiAs-type, hP4, P6_3/mmc, B8_1)
$
 PHASE HCP_A3 %A 2 1 0.5 !
 CONST HCP_A3 : MG% : VA : !
$
$ Prototype beta-B (hR105, R-3m)
$
 PHASE BETA_RHOMBO_B % 1 1 !
 CONST BETA_RHOMBO_B : B : !
$
$ Prototype AlB2 (hP3, P6/mmm)
$
 PHASE MB2_C32 % 2 1 2 !
 CONST MB2_C32 : MG : B : !
$
$ Prototype MgB4 (oP20, Pnma)
$
 PHASE MGB4 % 2 1 4 !
 CONST MGB4 : MG : B : !
$
$ Prototype MgB7 (oI64, Imma)
$
 PHASE MGB7 % 2 1 7 !
 CONST MGB7 : MG : B : !
$
 PHASE GAS:G % 1 1 !
 CONST GAS:G : B B2 MG MG2 : !
$ ------------------------------------------------------------------------------
$ Defaults
$
 DEFINE-SYSTEM-DEFAULT ELEMENT 2 !
 DEFAULT-COM DEFINE_SYSTEM_ELEMENT VA !
 TYPE-DEF % SEQ * !
 TYPE-DEF A GES AMEND_PHASE_DESCRIPTION @ MAGNETIC -3 0.28 !
 TYPE-DEF B GES AMEND_PHASE_DESCRIPTION @ MAGNETIC -1 0.4 !
 FUNCTION ZERO      298.15  0;                                         6000 N !
 FUNCTION UN_ASS    298.15  0;                                         6000 N !
 FUNCTION R         298.15  +8.31451;                                  6000 N !
 FUNCTION RTLNP     298.15  +8.31451*T*LN(1E-05*P);                    6000 N !
$ ------------------------------------------------------------------------------
$ Element data
$ ------------------------------------------------------------------------------
$ B
$
$ FCC_A1, HCP_A3, DIAMOND_A4 and GRAPHITE added in unary 3.0
$ BCC_A2 added in unary 4.1
$ GRAPHITE revised in unary 4.4 (using the value from COST 507)
$ FCC_A1, BCC_A2 and HCP_A3 removed in unary 5.0
$ ALPHA_RHOMBO_B added in unary 5.0
$
$ FCC_A1, BCC_A2 and HCP_A3 still in SGSOL 5.0
$ The value for FCC_A1 in COST (and SGTE) is possibly incorrect.
$
 PAR  G(BETA_RHOMBO_B,B),,              +GHSERBB;,,                   N 91Din !
$PAR  G(ALPHA_RHOMBO_B,B),,             +GALPBB;,,                    N 09SGUN !
$PAR  G(FCC_A1,B:VA),,                  +GHSERBB+43514-12.217*T;,,    N SGCOST !
$PAR  G(FCC_A1,B:VA),,                  +GHSERBB+50208-13.472*T;,,    N 94Hal !
$PAR  G(BCC_A2,B:VA),,                  +GHSERBB+43514-12.217*T;,,    N 94Hal !
$PAR  G(HCP_A3,B:VA),,                  +GHSERBB+50208-9.706*T;,,     N SGCOST !
$PAR  G(GRAPHITE,B),,                   +GHSERBB+10000-2*T;,,         N SGCOST !
$PAR  G(GRAPHITE,B),,                   +GHSERBB+5000;,,              N 96SGUN !
$PAR  G(DIAMOND_A4,B),,                 +GHSERBB+10;,,                N 99SGUN !
$PAR  G(DIAMOND_A4,B),,                 +GHSERBB+20;,,                N COST !
$PAR  G(DIAMOND_A4,B),,                 +GHSERBB;,,                   N 96SGUN !
 PAR  G(LIQUID,B),,                     +GLIQBB;,,                    N 91Din !
$
 PAR  G(GAS,B),,                        +F1389T+RTLNP;,,              N 97SUB !
 PAR  G(GAS,B2),,                       +F1921T+RTLNP;,,              N 97SUB !
$
 FUNCTION GHSERBB   298.15  -7735.284+107.111864*T-15.6641*T*LN(T)
       -0.006864515*T**2+6.18878E-07*T**3+370843*T**(-1);
      1100.00  Y  -16649.474+184.801744*T-26.6047*T*LN(T)
       -7.9809E-04*T**2-2.556E-08*T**3+1748270*T**(-1);
      2348.00  Y  -36667.582+231.336244*T-31.5957527*T*LN(T)
       -0.00159488*T**2+1.34719E-07*T**3+11205883*T**(-1);
      3000.00  Y  -21530.653+222.396264*T-31.4*T*LN(T);
      6000.00  N !
 FUNCTION GALPBB    298.15  -6076.24+86.648762*T-12.942464*T*LN(T)
       -7.089468E-3*T**2+0.659896E-6*T**3-45*T**(-1);
      1400.00  Y  +28477.506-106.789208*T+12.1072478*T*LN(T)
       -13.316875E-3*T**2+0.706895E-6*T**3-8002403*T**(-1);
      3000.00  Y  -25699.64+225.127135*T-31.4*T*LN(T);
      6000.00  N !
 FUNCTION GLIQBB    298.15  +48458.559-20.268025*T+GHSERBB;
       500.00  Y  +41119.703+82.101722*T-14.9827763*T*LN(T)
       -0.007095669*T**2+5.07347E-07*T**3+335484*T**(-1);
      2348.00  Y  +28842.012+200.94731*T-31.4*T*LN(T);
      3000.00  Y  +50372.665-21.448954*T+GHSERBB;
      6000.00  N !
 FUNCTION GFCCBB    298.15  +GHSERBB+43514-12.217*T;                   6000 N !
$ B(g)
 FUNCTION F1389T    298.15 +558741.08-13.3403636*T-20.91611*T*LN(T)
       +7.20885E-05*T**2-5.63569667E-09*T**3+4306.9065*T**(-1);
      4800.00  Y  +593321.479-80.4363028*T-13.38924*T*LN(T)
       -5.13201E-04*T**2-2.51243833E-09*T**3-26985320*T**(-1);
     10000.00  N !
$ B2(g)
 FUNCTION F1921T    298.15 +829926.969-93.2007048*T-13.63395*T*LN(T)
       -0.033960835*T**2+7.30767333E-06*T**3-67153.4*T**(-1);
       600.00  Y  +815354.412+137.902601*T-49.68482*T*LN(T)
       +0.00543292*T**2-7.11178167E-07*T**3+1030739.5*T**(-1);
      1400.00  Y  +823475.255+55.7356689*T-37.91694*T*LN(T)
       -0.001645613*T**2+5.37223333E-08*T**3+105366.3*T**(-1);
      6000.00  N !
$ ------------------------------------------------------------------------------
$ Mg
$
 PAR  G(FCC_A1,MG:VA),,                 +GHSERMG+2600-0.9*T;     3000 N 91Din !
 PAR  G(BCC_A2,MG:VA),,                 +GHSERMG+3100-2.1*T;     3000 N 91Din !
 PAR  G(HCP_A3,MG:VA),,                 +GHSERMG;                3000 N 91Din !
$PAR  G(CBCC_A12,MG:VA),,               +GHSERMG
$            +4602.4-3.011*T;                                    3000 N 91Din !
$PAR  G(CUB_A13,MG:VA),,                +GHSERMG+5000-3*T;       3000 N 91Din !
 PAR  G(LIQUID,MG),,                    +GLIQMG;                 3000 N 91Din !
$
 PAR  G(GAS,MG),,                       +F12309T+RTLNP;,,             N 97SUB !
 PAR  G(GAS,MG2),,                      +F12397T+RTLNP;,,             N 97SUB !
$
 FUNCTION GHSERMG   298.15  -8367.34+143.675547*T-26.1849782*T*LN(T)
       +4.858E-04*T**2-1.393669E-06*T**3+78950*T**(-1);
       923.00  Y  -14130.185+204.716215*T-34.3088*T*LN(T)+1.038192E+28*T**(-9);
      3000.00  N !
 FUNCTION GLIQMG    298.15  +8202.243-8.83693*T+GHSERMG-8.0176E-20*T**7;
       923.00  Y  -5439.869+195.324057*T-34.3088*T*LN(T);
      3000.00  N !
$ Mg(g)
 FUNCTION F12309T   298.15  +140825.883-8.26177982*T-20.96302*T*LN(T)
       +1.331861E-04*T**2-1.51554617E-08*T**3+5221.91*T**(-1);
      2900.00  Y  +141959.02+20.1923541*T-25.1271*T*LN(T)
       +0.002179723*T**2-1.502275E-07*T**3-3744678*T**(-1);
      5400.00  Y  +458455.469-794.05688*T+70.54811*T*LN(T)
       -0.010649025*T**2+1.716475E-07*T**3-1.996814E+08*T**(-1);
      9200.00  Y  -315972.848+423.179252*T-63.73726*T*LN(T)
       -2.847232E-04*T**2+2.15099667E-08*T**3+6.39436E+08*T**(-1);
     10000.00  N !
$ Mg2(g)
 FUNCTION F12397T   298.15  +281408.793-104.38489*T-20.63169*T*LN(T)
       -6.14869E-05*T**2+4.25457833E-09*T**3-156733.25*T**(-1);
      3000.00  N !
$ ------------------------------------------------------------------------------
$ Binary system
$
$ From Z.-K. Liu et al. 2001 (included in LB Vol. 2)
$
$ Z.-K. Liu, Y. Zhong, D.G. Schlom, X.X. Xi, Q. Li, Calphad, 25, 299-303(2001).
$
$ Checked against LB and paper. Checked at 6000 K.
$
$ B solubility in hcp-Mg not modelled.
$
 PAR  L(LIQUID,B,MG;0),,                +ZERO;,,                      N 01Liu !
$
 PAR  G(MB2_C32,MG:B),,                 +GHSERMG+2*GHSERBB
             -72075-1.029*T;,,                                        N 01Liu !
 PAR  G(MGB4,MG:B),,                    +GHSERMG+4*GHSERBB
             -92145-3.275*T;,,                                        N 01Liu !
 PAR  G(MGB7,MG:B),,                    +GHSERMG+7*GHSERBB
             -123000+0.8*T;,,                                         N 01Liu !
$ ------------------------------------------------------------------------------
$
 ASSESSED_SYSTEM
   B-MG(TDB -* +GAS +LIQUID +HCP_A3 +BETA_RHOMB +MGB7 +MGB4
     +MB2_C32 ;P3 TMM:500/4500 *) !
$
$
 LIST-OF-REFERENCE
 NUMBER  SOURCE
  Null   'Unknown source'
  REFLAV 'Laves phase convention: G(LAVES,X:X)=+3*GHSERXX+15000'
  COST   'COST 507 database'
  SGCOST 'COST 507 database, SGTE unary database V.3.0, 1996; Al, B, Nd, Ti, Zn'
  91Din  'A.T. Dinsdale, Calphad, 15, 317-425(1991).'
  94Hal  'B. Hallemans, P. Wollants, J.R. Roos,
          Z. Metallkd., 85, 676-82(1994), SGTE unary database V.4.1, 1999; B'
  96SGUN 'SGTE unary database V.3.0, 1996.'
  97SUB  'SGTE substance database, version 1997'
  99SGUN 'SGTE unary database V.4.1, 1999.'
  01Liu  'Z.-K. Liu, Y. Zhong, D.G. Schlom, X.X. Xi, Q. Li,
          Calphad, 25, 299-303(2001); Mg-B'
  09SGUN 'SGTE unary database V.5.0, 2009.'
!
