$
$ Database for Er-Mg from G. Cacciamani et al. 2002
$
$ G. Cacciamani, A. Saccone, S. De Negri, R. Ferro,
$ J. Phase Equilib., 23, 38-50(2002).
$
$ Dataset created 2018.07.01 by Bengt Hallstedt.
$ 2020.12.26: Modified for use with GES6.
$
$ There is an inverse miscibility gap with a minimum at 4123 K and x(Mg)=0.76.
$
$ ------------------------------------------------------------------------------
 TEMP-LIM 298.15 6000.00 !
$
$ELEMENT NAME  REF. STATE               ATOMIC MASS H298-H0    S298    !
$
 ELEMENT VA   VACUUM                      0.0          0.0      0.0    ! 
 ELEMENT ER   HCP_A3                    167.26      7392.2912  73.17816! 
 ELEMENT MG   HCP_A3                     24.305     4998.      32.671  !
$ ------------------------------------------------------------------------------
$ Phase definitions
$
 PHASE LIQUID:L % 1 1 !
 CONST LIQUID:L : ER MG : !
$
$ Fcc (cF4, Fm-3m) and MeX (cF8, Fm-3m)
$
 PHASE FCC_A1 %A 2 1 1 !
 CONST FCC_A1 : ER MG : VA : !
$
$ Bcc (cI2, Im-3m)
$
 PHASE BCC_A2 %B 2 1 3 !
 CONST BCC_A2 : ER MG : VA : !
$
$ Disordered part of B2_BCC, identical to BCC_A2
$
 PHASE A2_BCC %B 2 1 3 !
 CONST A2_BCC : ER MG : VA : !
$
$ Prototype CsCl (cP2, Pm-3m)
$
 PHASE B2_BCC %BO 3 0.5 0.5 3 !
 CONST B2_BCC : ER% MG : ER MG% : VA : !
$
$ Hcp (hP2, P6_3/mmc) and Me2X (NiAs-type, hP4, P6_3/mmc, B8_1)
$
 PHASE HCP_A3 %A 2 1 0.5 !
 CONST HCP_A3 : ER% MG% : VA : !
$
$ Prototype MgZn2 (hP12, P6_3/mmc)
$
 PHASE C14_LAVES % 2 2 1 !
 CONST C14_LAVES : ER MG% : ER% MG : !
$
$ Prototype alpha-Mn (cI58, I-43m)
$
 PHASE ER5MG24_A12 % 3 5 12 12 !
 CONST ER5MG24_A12 : ER% MG : MG : MG : !
$ ------------------------------------------------------------------------------
$ Defaults
$
 DEFINE-SYSTEM-DEFAULT ELEMENT 2 !
 DEFAULT-COM DEFINE_SYSTEM_ELEMENT VA !
 DEFAULT-COM REJECT_PHASE BCC_A2 !
 TYPE-DEF % SEQ * !
 TYPE-DEF A GES AMEND_PHASE_DESCRIPTION @ MAGNETIC -3 0.28 !
 TYPE-DEF B GES AMEND_PHASE_DESCRIPTION @ MAGNETIC -1 0.4 !
 TYPE-DEF O GES AMEND_PHASE_DESCRIPTION B2_BCC DIS_PART A2_BCC !
 FUNCTION ZERO      298.15  0;                                         6000 N !
 FUNCTION UN_ASS    298.15  0;                                         6000 N !
 FUNCTION R         298.15  +8.31451;                                  6000 N !
$ ------------------------------------------------------------------------------
$ Element data
$ ------------------------------------------------------------------------------
$ Er
$
$ BCC_A2 added in unary 4.4
$
$ FCC_A1 from 02Cac not included in unary (but it should be)
$
 PAR  G(HCP_A3,ER:VA),,                 +GHSERER;                3200 N 91Din !
 PAR  G(FCC_A1,ER:VA),,                 +GHSERER
             +1950-0.831451*T;                                   3200 N 02Cac !
 PAR  G(BCC_A2,ER:VA),,                 +GHSERER
             +4600-2.494353*T;                                   3200 N 00Nor1 !
 PAR  G(A2_BCC,ER:VA),,                 +GHSERER
             +4600-2.494353*T;                                   3200 N 00Nor1 !
 PAR  G(LIQUID,ER),,                    +GLIQER;                 3200 N 91Din !
$
 PAR  G(C14_LAVES,ER:ER),,              +3*GHSERER+15000;,,           N REFLAV !
$
 FUNCTION GHSERER   298.15  -8489.136+116.698964*T-28.3846744*T*LN(T)
       +9.95792E-04*T**2-9.52557E-07*T**3+9581*T**(-1);
      1802.00  Y  -445688.206+2233.10212*T-298.135131*T*LN(T)
       +0.065950553*T**2-3.041405E-06*T**3+1.23973199E+08*T**(-1);
      3200.00  N !
 FUNCTION GLIQER    298.15  +19382.102-10.241846*T+GHSERER;
       500.00  Y  +17912.678+0.355564*T-12.0761776*T*LN(T)
       -0.014414687*T**2+1.316517E-06*T**3-528122*T**(-1);
      1802.00  Y  +747.131+187.623024*T-38.702*T*LN(T);
      3200.00  N !
$ ------------------------------------------------------------------------------
$ Mg
$
 PAR  G(HCP_A3,MG:VA),,                 +GHSERMG;                3000 N 91Din !
 PAR  G(FCC_A1,MG:VA),,                 +GHSERMG+2600-0.9*T;     3000 N 91Din !
 PAR  G(BCC_A2,MG:VA),,                 +GHSERMG+3100-2.1*T;     3000 N 91Din !
 PAR  G(A2_BCC,MG:VA),,                 +GHSERMG+3100-2.1*T;     3000 N 91Din !
 PAR  G(LIQUID,MG),,                    +GLIQMG;                 3000 N 91Din !
$
 PAR  G(C14_LAVES,MG:MG),,              +3*GHSERMG+15000;,,           N REFLAV !
 PAR  G(ER5MG24_A12,MG:MG:MG),,         +29*GHSERMG
             +133469.6-87.319*T;,,                                    N 02Cac !
$
 FUNCTION GHSERMG   298.15  -8367.34+143.675547*T-26.1849782*T*LN(T)
       +4.858E-04*T**2-1.393669E-06*T**3+78950*T**(-1);
       923.00  Y  -14130.185+204.716215*T-34.3088*T*LN(T)+1.038192E+28*T**(-9);
      3000.00  N !
 FUNCTION GLIQMG    298.15  +8202.243-8.83693*T+GHSERMG-8.0176E-20*T**7;
       923.00  Y  -5439.869+195.324057*T-34.3088*T*LN(T);
      3000.00  N !
$ ------------------------------------------------------------------------------
$ Binary system
$
$ G. Cacciamani, A. Saccone, S. De Negri, R. Ferro,
$ J. Phase Equilib., 23, 38-50(2002).
$
$ Checked against paper. Checked at 6000 K.
$
$ There is an inverse miscibility gap with a minimum at 4123 K and x(Mg)=0.76.
$
 PAR  L(LIQUID,ER,MG;0),,               -40308.8+15.7946*T;,,         N 02Cac !
$ Original parameter in paper below
$PAR  L(LIQUID,ER,MG;1),,               -38228-20.0235*T;,,           N 02Cac !
 PAR  L(LIQUID,ER,MG;1),,               +38228-20.0235*T;,,           N 02Cac !
$
 PAR  L(BCC_A2,ER,MG:VA;0),,            -40411+20.557*T;,,            N 02Cac !
 PAR  L(BCC_A2,ER,MG:VA;1),,            +1969;,,                      N 02Cac !
$
 PAR  L(A2_BCC,ER,MG:VA;0),,            -40411+20.557*T;,,            N 02Cac !
 PAR  L(A2_BCC,ER,MG:VA;1),,            +1969;,,                      N 02Cac !
$
 PAR  G(B2_BCC,ER:MG:VA),,              -28325+29.312*T;,,            N 02Cac !
 PAR  G(B2_BCC,MG:ER:VA),,              -28325+29.312*T;,,            N 02Cac !
 PAR  L(B2_BCC,ER,MG:ER:VA;0),,         +25443.4;,,                   N 02Cac !
 PAR  L(B2_BCC,ER:ER,MG:VA;0),,         +25443.4;,,                   N 02Cac !
 PAR  L(B2_BCC,ER,MG:MG:VA;0),,         +3320.88;,,                   N 02Cac !
 PAR  L(B2_BCC,MG:ER,MG:VA;0),,         +3320.88;,,                   N 02Cac !
$
 PAR  L(HCP_A3,ER,MG:VA;0),,            -20671.3+7.23489*T;,,         N 02Cac !
 PAR  L(HCP_A3,ER,MG:VA;1),,            +10794.9;,,                   N 02Cac !
$
 PAR  G(C14_LAVES,ER:MG),,              +2*GHSERER+GHSERMG
             +94500-36.35*T;,,                                        N 02Cac !
 PAR  G(C14_LAVES,MG:ER),,              +2*GHSERMG+GHSERER
             -64500+36.35*T;,,                                        N 02Cac !
$
 PAR  G(ER5MG24_A12,ER:MG:MG),,         +5*GHSERER+24*GHSERMG
             -377000+201.5*T;,,                                       N 02Cac !
$
$ Metastable
$
 PAR  L(FCC_A1,ER,MG:VA;0),,            +29097;,,                     N 02Cac !
$ ------------------------------------------------------------------------------
$
$
 LIST-OF-REFERENCE
 NUMBER  SOURCE
  Null   'Unknown source'
  Same   'Same or similar interaction as in the corresponding stable phase'
  REFLAV 'Laves phase convention: G(LAVES,X:X)=+3*GHSERXX+15000'
  COST   'COST 507 database'
  91Din  'A.T. Dinsdale, Calphad, 15, 317-425(1991).'
  00Nor1 'S. Norgren, J. Phase Equilib., 21, 148-56(2000),
          SGTE unary database V.4.4, 2001; Er, Ho'
  02Cac  'G. Cacciamani, A. Saccone, S. De Negri, R. Ferro,
          J. Phase Equilib., 23, 38-50(2002); Er, Er-Mg'
!
