$
$ Database for Cd-Y from M. Kurata and Y. Sakamura 2001 (included in LB vol. 5)
$
$ M. Kurata, Y. Sakamura, J. Phase Equilib., 22, 232-40(2001).
$
$ Dataset created 2015.04.04 by Bengt Hallstedt.
$ 2020.12.25: Modified for use with GES6.
$
$ The entropy parameters are too large.
$
$ This dataset reproduces the results from lb5-v2.tdb exactly, but differs
$ from the printed LB by about 2 K for most invariants and 10 K for the
$ CdY + hcp-Y eutectic. Possibly an old description of pure Y was used
$ for the printed LB. In the paper the eutectic is 12 K higher than in the
$ present dataset and 22 K higher than in the printed LB.
$
$ There is an inverse miscibility gap with a minimum at 4656 K and x(Y)=0.50.
$
$ ------------------------------------------------------------------------------
 TEMP-LIM 298.15 6000.00 !
$
$ELEMENT NAME  REF. STATE               ATOMIC MASS H298-H0    S298    !
$
 ELEMENT VA   VACUUM                      0.0          0.0      0.0    ! 
 ELEMENT CD   HCP_A3                    112.41      6247.      51.80   ! 
 ELEMENT Y    HCP_A3                     88.9059    5983.457   44.7875 ! 
$ ------------------------------------------------------------------------------
$ Phase definitions
$
 PHASE LIQUID:L % 1 1 !
 CONST LIQUID:L : CD Y : !
$
$ Fcc (cF4, Fm-3m) and MeX (cF8, Fm-3m)
$
 PHASE FCC_A1 %A 2 1 1 !
 CONST FCC_A1 : CD Y : VA : !
$
$ Bcc (cI2, Im-3m)
$
 PHASE BCC_A2 %B 2 1 3 !
 CONST BCC_A2 : CD Y% : VA : !
$
$ Hcp (hP2, P6_3/mmc) and Me2X (NiAs-type, hP4, P6_3/mmc, B8_1)
$
 PHASE HCP_A3 %A 2 1 0.5 !
 CONST HCP_A3 : CD% Y% : VA : !
$
$ Prototype Cd6Y (cI184, Im-3)
$
 PHASE CD6Y % 2 6 1 !
 CONST CD6Y : CD : Y : !
$
$ Prototype Gd13Zn58 (hP142, P6_3/mmc)
$
 PHASE CD58Y13 % 2 58 13 !
 CONST CD58Y13 : CD : Y : !
$
$ Prototype Cd45Sm11 (cF448, F-43m)
$
 PHASE CD45Y11 % 2 45 11 !
 CONST CD45Y11 : CD : Y : !
$
$ Prototype Cd3Er (oC16, Cmcm)
$
 PHASE CD3Y % 2 3 1 !
 CONST CD3Y : CD : Y : !
$
$ Prototype Cd2Ce (hP3, P-3m1)
$
 PHASE CD2Y % 2 2 1 !
 CONST CD2Y : CD : Y : !
$
$ Prototype CsCl (cP2, Pm-3m)
$
 PHASE CDY_B2 % 2 1 1 !
 CONST CDY_B2 : CD : Y : !
$ ------------------------------------------------------------------------------
$ Defaults
$
 DEFINE-SYSTEM-DEFAULT ELEMENT 2 !
 DEFAULT-COM DEFINE_SYSTEM_ELEMENT VA !
 TYPE-DEF % SEQ * !
 TYPE-DEF A GES AMEND_PHASE_DESCRIPTION @ MAGNETIC -3 0.28 !
 TYPE-DEF B GES AMEND_PHASE_DESCRIPTION @ MAGNETIC -1 0.4 !
 FUNCTION ZERO      298.15  0;                                         6000 N !
 FUNCTION UN_ASS    298.15  0;                                         6000 N !
 FUNCTION R         298.15  +8.31451;                                  6000 N !
$ ------------------------------------------------------------------------------
$ Element data
$ ------------------------------------------------------------------------------
$ Cd
$
$ FCC_A1 and TETRAGONAL_A6 added in unary 3.0
$ BCT_A5 and RHOMBO_A10 added in unary 4.1
$ BCC_A2 added in unary 5.0
$
 PAR  G(HCP_A3,CD:VA),,                 +GHSERCD;                1600 N 91Din !
 PAR  G(FCC_A1,CD:VA),,                 +GHSERCD+892.3-0.92*T;   1600 N 93Zak !
 PAR  G(BCC_A2,CD:VA),,                 +GHSERCD+1000;           1600 N 04Che1 !
$PAR  G(TETRAGONAL_A6,CD),,             +GHSERCD+892.3-0.92*T;   1600 N 93Zak !
$PAR  G(BCT_A5,CD),,                    +GHSERCD+5000;           1600 N 95Yan !
$PAR  G(RHOMBO_A10,CD),,                +GHSERCD+800-0.62*T;     1600 N 95Yan !
 PAR  G(LIQUID,CD),,                    +GLIQCD;                 1600 N 91Din !
$
 FUNCTION GHSERCD   298.15  -7083.469+99.506198*T-22.0442408*T*LN(T)
       -0.006273908*T**2-6966*T**(-1);
       594.22  Y  -20064.971+256.812233*T-45.1611543*T*LN(T)
       +0.008832011*T**2-8.99604E-07*T**3+1241290*T**(-1);
      1500.00  Y  -9027.489+148.20548*T-29.7064*T*LN(T);
      1600.00  N !
 FUNCTION GLIQCD    298.15  +6128.444-10.296916*T+GHSERCD;
       400.00  Y  +21716.884-371.046869*T+53.1313898*T*LN(T)
       -0.115159917*T**2+2.8899781E-05*T**3-1271815*T**(-1);
       594.22  Y  -3252.303+138.251107*T-29.7064*T*LN(T);
      1500.00  Y  +5775.186-9.954373*T+GHSERCD;
      1600.00  N !
 FUNCTION GBCCCD    298.15  +GHSERCD+1000;                             6000 N !
$ ------------------------------------------------------------------------------
$ Y
$
$ HCP_A3, BCC_A2 and LIQUID revised in unary 3.0
$ FCC_A1 added in unary 4.1
$
 PAR  G(HCP_A3,Y:VA)            100.00  +GHSERYY;                3700 N 95She3 !
 PAR  G(BCC_A2,Y:VA)            100.00  +GBCCYY;                 3700 N 95She3 !
 PAR  G(FCC_A1,Y:VA)            100.00  +GHSERYY+6000;           3700 N Frie2 !
 PAR  G(LIQUID,Y)               100.00  +GLIQYY;                 3700 N 95She3 !
$
 FUNCTION GHSERYY   100.00  -8011.09379+128.572856*T-25.6656992*T*LN(T)
       -0.00175716414*T**2-4.17561786E-07*T**3+26911.509*T**(-1);
      1000.00  Y  -7179.74574+114.497104*T-23.4941827*T*LN(T)
       -0.0038211802*T**2-8.2534534E-08*T**3;
      1795.15  Y  -67480.7761+382.124727*T-56.9527111*T*LN(T)
       +0.00231774379*T**2-7.22513088E-08*T**3+18077162.6*T**(-1);
      3700.00  N !
 FUNCTION GBCCYY    100.00  -833.658863+123.667346*T-25.5832578*T*LN(T)
       -0.00237175965*T**2+9.10372497E-09*T**3+27340.0687*T**(-1);
      1000.00  Y  -1297.79829+134.528352*T-27.3038477*T*LN(T)
       -5.41757644E-04*T**2-3.05012175E-07*T**3;
      1795.15  Y  +15389.4975+0.981325399*T-8.88296647*T*LN(T)
       -0.00904576576*T**2+4.02944768E-07*T**3-2542575.96*T**(-1);
      3700.00  N !
 FUNCTION GLIQYY    100.00  +2098.50738+119.41873*T-24.6467508*T*LN(T)
       -0.00347023463*T**2-8.12981167E-07*T**3+23713.7332*T**(-1);
      1000.00  Y  +7386.44846+19.4520171*T-9.0681627*T*LN(T)
       -0.0189533369*T**2+1.7595327E-06*T**3;
      1795.15  Y  -12976.5957+257.400783*T-43.0952*T*LN(T);
      3700.00  N !
$ ------------------------------------------------------------------------------
$ Binary system
$
$ From M. Kurata and Y. Sakamura 2001 (included in LB vol. 5)
$
$ M. Kurata, Y. Sakamura, J. Phase Equilib., 22, 232-40(2001).
$
$ Checked against LB and paper. Checked at 6000 K.
$
$ This dataset reproduces the results from lb5-v2.tdb exactly, but differs
$ from the printed LB by about 2 K for most invariants and 10 K for the
$ CdY + hcp-Y eutectic. Possibly an old description of pure Y was used
$ for the printed LB. In the paper the eutectic is 12 K higher than in the
$ present dataset and 22 K higher than in the printed LB.
$
$ There is an inverse miscibility gap with a minimum at 4656 K and x(Y)=0.50.
$
$ The entropy parameters are too large.
$
 PAR  L(LIQUID,CD,Y;0),,                -132100+45*T;,,               N 01Kur !
$
 PAR  L(HCP_A3,CD,Y:VA;0),,             +50000;,,                     N !
 PAR  L(BCC_A2,CD,Y:VA;0),,             +50000;,,                     N !
$
 PAR  G(CD6Y,CD:Y),,                    +6*GLIQCD+GHSERYY
             -182900+90*T;,,                                          N 01Kur !
 PAR  G(CD58Y13,CD:Y),,                 +58*GLIQCD+13*GHSERYY
             -2168000+1000*T;,,                                       N 01Kur !
 PAR  G(CD45Y11,CD:Y),,                 +45*GLIQCD+11*GHSERYY
             -1778000+800*T;,,                                        N 01Kur !
 PAR  G(CD3Y,CD:Y),,                    +3*GLIQCD+GHSERYY
             -142800+58*T;,,                                          N 01Kur !
 PAR  G(CD2Y,CD:Y),,                    +2*GLIQCD+GHSERYY
             -125700+46*T;,,                                          N 01Kur !
 PAR  G(CDY_B2,CD:Y),,                  +GLIQCD+GHSERYY
             -110000+42*T;,,                                          N 01Kur !
$
$ Metastable
$
 PAR  L(FCC_A1,CD,Y:VA;0),,             +50000;,,                     N !
$ ------------------------------------------------------------------------------
$
 ASSESSED_SYSTEM
  CD-Y(TDB-* +LIQUID +HCP_A3 +BCC_A2 +CD6Y +CD58Y13 +CD45Y11 +CD3Y +CD2Y
  +CDY_B2 ;G5 C_S:BCC/Y:VA MAJ:BCC/CD:VA ;P3 0.45/1200/1) !
$
$
 LIST-OF-REFERENCE
 NUMBER  SOURCE
  Null   'Unknown source'
  Same   'Same or similar interaction as in the corresponding stable phase'
  COST   'COST 507 database'
  Frie2  'Suzana Fries and Leo Lukas, unpublished,
          SGTE unary database V.4.1, 1999; Y'
  91Din  'A.T. Dinsdale, Calphad, 15, 317-425(1991).'
  93Zak  'W. Zakulski, Z. Moser, K. Rzyman, H.L. Lukas, S.G. Fries,
          M. Sukiennik, R. Kaczmarczyk, R. Castanet,
          J. Phase Equilib., 14, 184-96(1993),
          SGTE unary database V.3.0, 1996; Cd'
  95She3 'H. Shen, W. Zhang, G. Liu, R. Wang, Z. Du, Report F-95-03,
          University of Science and Technology, Beijing, May 1995,
          SGTE unary database V.3.0, 1996; Y'
  95Yan  'J. Yang, N.J. Silk, A. Watson, A.W. Bryant, T.G. Chart, B.B. Argent,
          Calphad, 19, 415-30(1995),
          SGTE unary database V.4.1, 1999; Cd, Hg'
  01Kur  'M. Kurata, Y. Sakamura, J. Phase Equilib., 22, 232-40(2001); Cd-Y'
  04Che1 'P.-Y. Chevalier, unpublished, Thermodata, 2004,
          SGTE unary database V.5.0, 2009; Cd'
!
