$
$ Database for La-Pb from M. Idbenali et al. 2009
$
$ M. Idbenali, C. Servant, N. Selhaoui, L. Bouirden, JEEP 2009.
$
$ Dataset created 2018.11.01 by Bengt Hallstedt.
$ 2021.01.24: Modified for use with GES6.
$
$ ------------------------------------------------------------------------------
 TEMP-LIM 298.15 6000.00 !
$
$ELEMENT NAME  REF. STATE               ATOMIC MASS H298-H0    S298    !
$
 ELEMENT VA   VACUUM                      0.0          0.0      0.0    ! 
 ELEMENT LA   DHCP                      138.9055    6665.112   56.9024 ! 
 ELEMENT PB   FCC_A1                    207.2       6870.      64.80   ! 
$ ------------------------------------------------------------------------------
$ Phase definitions
$
 PHASE LIQUID:L % 1 1 !
 CONST LIQUID:L : LA PB : !
$
$ Fcc (cF4, Fm-3m) and MeX (cF8, Fm-3m)
$
 PHASE FCC_A1 %A 2 1 1 !
 CONST FCC_A1 : LA% PB% : VA : !
$
$ Bcc (cI2, Im-3m)
$
 PHASE BCC_A2 %B 2 1 3 !
 CONST BCC_A2 : LA% PB : VA : !
$
$ Hcp (hP2, P6_3/mmc) and Me2X (NiAs-type, hP4, P6_3/mmc, B8_1)
$
 PHASE HCP_A3 %A 2 1 0.5 !
 CONST HCP_A3 : PB : VA : !
$
$ Prototype alpha-La (hP4, P6_3/mmc)
$
 PHASE DHCP % 1 1 !
 CONST DHCP : LA : !
$
$ Prototype Mn5Si3 (hP16, P6_3/mcm)
$
 PHASE LA5PB3_D88 % 2 5 3 !
 CONST LA5PB3_D88 : LA : PB : !
$
$ Prototype Th3P4 (cI28, I-43d)
$
 PHASE LA4PB3_D73 % 2 4 3 !
 CONST LA4PB3_D73 : LA : PB : !
$
$ Prototype Ge4Sm5 (oP36, Pnma)
$
 PHASE LA5PB4 % 2 5 4 !
 CONST LA5PB4 : LA : PB : !
$
$ unknown structure
$
 PHASE LA3PB4_LT % 2 3 4 !
 CONST LA3PB4_LT : LA : PB : !
$
$ unknown structure
$
 PHASE LA3PB4_HT % 2 3 4 !
 CONST LA3PB4_HT : LA : PB : !
$
$ Prototype CuZr2 (tI6, I4/mmm)
$
 PHASE LAPB2 % 2 1 2 !
 CONST LAPB2 : LA : PB : !
$
$ Prototype AuCu3 (cP4, Pm-3m)
$
 PHASE LAPB3_L12 % 2 1 3 !
 CONST LAPB3_L12 : LA : PB : !
$ ------------------------------------------------------------------------------
$ Defaults
$
 DEFINE-SYSTEM-DEFAULT ELEMENT 2 !
 DEFAULT-COM DEFINE_SYSTEM_ELEMENT VA !
 TYPE-DEF % SEQ * !
 TYPE-DEF A GES AMEND_PHASE_DESCRIPTION @ MAGNETIC -3 0.28 !
 TYPE-DEF B GES AMEND_PHASE_DESCRIPTION @ MAGNETIC -1 0.4 !
 FUNCTION ZERO      298.15  0;                                         6000 N !
 FUNCTION UN_ASS    298.15  0;                                         6000 N !
 FUNCTION R         298.15  +8.31451;                                  6000 N !
$ ------------------------------------------------------------------------------
$ Element data
$ ------------------------------------------------------------------------------
$ La
$
 PAR  G(DHCP,LA),,                      +GHSERLA;                4000 N 91Din !
 PAR  G(FCC_A1,LA:VA),,                 +GFCCLA;                 4000 N 91Din !
 PAR  G(BCC_A2,LA:VA),,                 +GBCCLA;                 4000 N 91Din !
 PAR  G(LIQUID,LA),,                    +GLIQLA;                 4000 N 91Din !
$
 FUNCTION GHSERLA   298.15  -7968.403+120.284604*T-26.34*T*LN(T)
       -0.001295165*T**2;
       550.00  Y  -3381.413+59.06113*T-17.1659411*T*LN(T)
       -0.008371705*T**2+6.8932E-07*T**3-399448*T**(-1);
      2000.00  Y  -15608.882+181.390071*T-34.3088*T*LN(T);
      4000.00  N !
 FUNCTION GFCCLA    298.15  -6109.797+89.878761*T-21.7919*T*LN(T)
       -0.004045175*T**2-5.25865E-07*T**3;
      1134.00  Y  -124598.976+955.878375*T-139.346741*T*LN(T)
       +0.042032405*T**2-3.066199E-06*T**3+20994153*T**(-1);
      2000.00  Y  +3009.496-2.846081*T+GHSERLA;
      4000.00  N !
 FUNCTION GBCCLA    298.15  -3952.161+88.072353*T-21.7919*T*LN(T)
       -0.004045175*T**2-5.25865E-07*T**3;
       800.00  Y  +321682.673-3565.08252*T+513.440708*T*LN(T)
       -0.387295093*T**2+4.9547989E-05*T**3-36581228*T**(-1);
      1134.00  Y  -16377.894+218.492988*T-39.5388*T*LN(T);
      1193.00  Y  -136609.91+1123.34397*T-163.413074*T*LN(T)
       +0.053968535*T**2-4.056395E-06*T**3+21167204*T**(-1);
      2000.00  Y  +7402.894-6.553756*T+GHSERLA;
      4000.00  N !
 FUNCTION GLIQLA    298.15  +5332.653+18.23012*T-11.0188191*T*LN(T)
       -0.020171603*T**2+2.93775E-06*T**3-133541*T**(-1);
     1134.00  Y  -3942.004+171.018431*T-34.3088*T*LN(T);
      4000.00  N !
$ ------------------------------------------------------------------------------
$ Pb
$
$ RHOMBOHEDRAL_A7 and TETRAGONAL_A6 added in unary 3.0
$ RHOMBOHEDRAL_A7, TETRAGONAL_A6 and TET_ALPHA1_A6 revised in unary 4.1
$ RHOMBO_A10 added in unary 5.0
$
 PAR  G(FCC_A1,PB:VA),,                 +GHSERPB;                2100 N 91Din !
 PAR  G(BCC_A2,PB:VA),,                 +GHSERPB+2400-1.1*T;     2100 N 91Din !
 PAR  G(HCP_A3,PB:VA),,                 +GHSERPB+300+T;          2100 N 91Din !
$PAR  G(BCT_A5,PB),,                    +GHSERPB+489+3.52*T;     2100 N 91Din !
$PAR  G(TETRAGONAL_A6,PB),,             +GHSERPB+4493.235;       2100 N 98Boa !
$PAR  G(TETRAGONAL_A6,PB),,             +GHSERPB+473.23+3.5531*T
$            -0.0396834*T*LN(T)+2.1489E-05*T**2;                 2100 N 96SGUN !
$PAR  G(TET_ALPHA1_A6,PB),,             +GHSERPB
$            +1903.3-2.0602*T;                                   2100 N 98Boa !
$PAR  G(TET_ALPHA1_A6,PB),,             +GHSERPB+183.2+0.45314*T
$            -0.0396834*T*LN(T)+2.149E-06*T**2;                  2100 N 91Din !
$PAR  G(RHOMBOHEDRAL_A7,PB),,           +GHSERPB+300+T;          2100 N 99SGUN !
$PAR  G(RHOMBOHEDRAL_A7,PB),,           +GHSERPB+4900+3.52*T;    2100 N 96SGUN !
$PAR  G(RHOMBO_A10,PB),,                +GHSERPB+10;             2100 N 09SGUN !
 PAR  G(LIQUID,PB),,                    +GLIQPB;                 2100 N 91Din !
$
 FUNCTION GHSERPB   298.15  -7650.085+101.700244*T-24.5242231*T*LN(T)
       -0.00365895*T**2-2.4395E-07*T**3;
       600.61  Y  -10531.095+154.243182*T-32.4913959*T*LN(T)
       +0.00154613*T**2+8.05448E+25*T**(-9);
      1200.00  Y  +4157.616+53.139072*T-18.9640637*T*LN(T)
       -0.002882943*T**2+9.8144E-08*T**3-2696755*T**(-1)+8.05448E+25*T**(-9);
      2100.00  N !
 FUNCTION GLIQPB    298.15  +4672.124-7.750683*T+GHSERPB-6.019E-19*T**7;
       600.61  Y  +4853.137-8.067136*T+GHSERPB-8.05448E+25*T**(-9);
      2100.00  N !
$ ------------------------------------------------------------------------------
$ Binary system
$
$ M. Idbenali, C. Servant, N. Selhaoui, L. Bouirden, JEEP 2009.
$
$ Checked against paper. Checked at 6000 K.
$
 PAR  L(LIQUID,LA,PB;0),,               -206512.146+32.0683*T;,,      N 09Idb !
 PAR  L(LIQUID,LA,PB;1),,               +23133.1399+11.878*T;,,       N 09Idb !
$
 PAR  L(FCC_A1,LA,PB:VA;0),,            -111963.901+9.7822*T;,,       N 09Idb !
 PAR  L(FCC_A1,LA,PB:VA;1),,            -23055.6288+3.5091*T;,,       N 09Idb !
$
 PAR  L(BCC_A2,LA,PB:VA;0),,            -112100.158+5*T;,,            N 09Idb !
 PAR  L(BCC_A2,LA,PB:VA;1),,            -22305.6658+2*T;,,            N 09Idb !
$
 PAR  G(LA5PB3_D88,LA:PB),,             +5*GHSERLA+3*GHSERPB
             -549125.08+87.9152*T;,,                                  N 09Idb !
 PAR  G(LA4PB3_D73,LA:PB),,             +4*GHSERLA+3*GHSERPB
             -512740.7859+85.7584*T;,,                                N 09Idb !
 PAR  G(LA5PB4,LA:PB),,                 +5*GHSERLA+4*GHSERPB
             -655418.538+106.2315*T;,,                                N 09Idb !
 PAR  G(LA3PB4_LT,LA:PB),,              +3*GHSERLA+4*GHSERPB
             -486325+72.89303*T;,,                                    N 09Idb !
 PAR  G(LA3PB4_HT,LA:PB),,              +3*GHSERLA+4*GHSERPB
             -486213.5621+72.7802411*T;,,                             N 09Idb !
 PAR  G(LAPB2,LA:PB),,                  +GHSERLA+2*GHSERPB
             -200406.3963+33.894*T;,,                                 N 09Idb !
 PAR  G(LAPB3_L12,LA:PB),,              +GHSERLA+3*GHSERPB
             -257811.1348+50.1496*T;,,                                N 09Idb !
$ ------------------------------------------------------------------------------
$
$
 LIST-OF-REFERENCE
 NUMBER  SOURCE
  Null   'Unknown source'
  Same   'Same or similar interaction as in the corresponding stable phase'
  REFLAV 'Laves phase convention: G(LAVES,X:X)=+3*GHSERXX+15000'
  91Din  'A.T. Dinsdale, Calphad, 15, 317-425(1991).'
  96SGUN 'SGTE unary database V.3.0, 1996.'
  98Boa  'D. Boa, I. Ansara, Thermochim. Acta, 314, 79-86(1998),
          SGTE unary database V.4.1, 1999; In, Pb'
  99SGUN 'SGTE unary database V.4.1, 1999.'
  09Idb  'M. Idbenali, C. Servant, N. Selhaoui, L. Bouirden, JEEP 2009; La-Pb'
  09SGUN 'SGTE unary database V.5.0, 2009.'
!
