$
$ Database for Ru-U from A. Berche et al. 2011.
$
$ A. Berche, N. Dupin, C. Gueneau, C. Rado, B. Sundman, J.C. Dumas,
$ J. Nucl. Mater., 411, 131-43(2011).
$
$ Dataset created 2020.09.24 by Bengt Hallstedt.
$
$ The Gibbs energy difference between RUU_LT and RUU_HT is far too small.
$ This would not be visible in any experiment, except HT-XRD (provided the
$ transformation proceeds with reasonable speed), which obviously has not been
$ used.
$
$ ------------------------------------------------------------------------------
 TEMP-LIM 298.15 6000.00 !
$
$ELEMENT NAME  REF. STATE               ATOMIC MASS H298-H0    S298    !
$
 ELEMENT VA   VACUUM                      0.0          0.0      0.0    ! 
 ELEMENT RU   HCP_A3                    101.07      4602.4     28.6144 ! 
 ELEMENT U    ORTHORHOMBIC_A20          238.0289    6364.      50.20   ! 
$ ------------------------------------------------------------------------------
$ Phase definitions
$
 PHASE LIQUID:L % 1 1 !
 CONST LIQUID:L : RU U : !
$
$ Fcc (cF4, Fm-3m) and MeX (cF8, Fm-3m)
$
 PHASE FCC_A1 %A 2 1 1 !
 CONST FCC_A1 : RU U : VA : !
$
$ Bcc (cI2, Im-3m)
$
 PHASE BCC_A2 %B 2 1 3 !
 CONST BCC_A2 : RU U : VA : !
$
$ Hcp (hP2, P6_3/mmc) and Me2X (NiAs-type, hP4, P6_3/mmc, B8_1)
$
 PHASE HCP_A3 %A 2 1 0.5 !
 CONST HCP_A3 : RU% U : VA : !
$
$ Prototype alpha-U (oC4, Cmcm)
$
 PHASE ORTHORHOMBIC_A20 % 1 1 !
 CONST ORTHORHOMBIC_A20 : U : !
$
$ Prototype beta-U (tP30, P4_2/mnm, SB: A_b)
$
 PHASE TETRAGONAL_U % 1 1 !
 CONST TETRAGONAL_U : RU U% : !
$
$ Prototype AuCu3 (cP4, Pm-3m)
$
 PHASE RU3U_L12 % 2 3 1 !
 CONST RU3U_L12 : RU : U : !
$
$ unknown structure
$
 PHASE RU5U3 % 2 5 3 !
 CONST RU5U3 : RU : U : !
$
$ unknown structure
$
 PHASE RU4U3 % 2 4 3 !
 CONST RU4U3 : RU : U : !
$
$ unknown structure
$
 PHASE RUU_LT % 2 0.48 0.52 !
 CONST RUU_LT : RU : U : !
$
$ unknown structure
$
 PHASE RUU_HT % 2 0.48 0.52 !
 CONST RUU_HT : RU : U : !
$
$ Prototype RuU2 (mC12, C2/m)
$
 PHASE RUU2 % 2 1 2 !
 CONST RUU2 : RU : U : !
$ ------------------------------------------------------------------------------
$ Defaults
$
 DEFINE-SYSTEM-DEFAULT ELEMENT 2 !
 DEFAULT-COM DEFINE_SYSTEM_ELEMENT VA !
 TYPE-DEF % SEQ * !
 TYPE-DEF A GES AMEND_PHASE_DESCRIPTION @ MAGNETIC -3 0.28 !
 TYPE-DEF B GES AMEND_PHASE_DESCRIPTION @ MAGNETIC -1 0.4 !
 FUNCTION ZERO      298.15  0;                                         6000 N !
 FUNCTION UN_ASS    298.15  0;                                         6000 N !
 FUNCTION R         298.15  +8.31451;                                  6000 N !
$ ------------------------------------------------------------------------------
$ Element data
$ ------------------------------------------------------------------------------
$ Ru
$
$ BCC_A2 revised in unary 4.4
$
$ TETRAGONAL_U from 11Ber not in unary
$
 PAR  G(HCP_A3,RU:VA),,                 +GHSERRU;                4500 N 91Din !
 PAR  G(FCC_A1,RU:VA),,                 +GHSERRU+12500-2.4*T;    4500 N 91Din !
 PAR  G(BCC_A2,RU:VA),,                 +GHSERRU+21500-5.05*T;   4500 N 01SGUN !
$PAR  G(BCC_A2,RU:VA),,                 +GHSERRU+26500-6.2*T;    4500 N 91Din !
 PAR  G(TETRAGONAL_U,RU),,              +GFCCRU+18800;           4500 N 11Ber !
 PAR  G(LIQUID,RU),,                    +GLIQRU;                 4500 N 91Din !
$
 FUNCTION GHSERRU   298.15  -7561.873+127.866233*T-22.9143287*T*LN(T)
       -0.004062566*T**2+1.7641E-07*T**3+56377*T**(-1);
      1500.00  Y  -59448.103+489.516214*T-72.3241219*T*LN(T)
       +0.018726245*T**2-1.952433E-06*T**3+11063885*T**(-1);
      2607.00  Y  -38588773+168610.517*T-21329.705*T*LN(T)
       +5.221639*T**2-2.40245985E-04*T**3+1.30829926E+10*T**(-1);
      2740.00  Y  -55768.304+364.482314*T-51.8816*T*LN(T);
      4500.00  N !
 FUNCTION GLIQRU    298.15  +27480.616-8.398748*T+GHSERRU;
       800.00  Y  +50827.232-179.818561*T+19.539341*T*LN(T)
       -0.026524167*T**2+1.667839E-06*T**3-3861125*T**(-1);
      2607.00  Y  -17161.807+349.673561*T-51.8816*T*LN(T);
      4500.00  N !
 FUNCTION GFCCRU    298.15  +GHSERRU+12500-2.4*T;                      4500 N !
$ ------------------------------------------------------------------------------
$ U
$
$ FCC_A1 and HCP_A3 added in unary 4.1
$
$ HCP_A3 from 04Che not in unary
$
 PAR  G(ORTHORHOMBIC_A20,U),,           +GHSERUU;                3000 N 91Din !
 PAR  G(TETRAGONAL_U,U),,               +GTETUU;                 3000 N 91Din !
 PAR  G(BCC_A2,U:VA),,                  +GBCCUU;                 3000 N 91Din !
 PAR  G(FCC_A1,U:VA),,                  +GHSERUU+5000;           3000 N 99SGUN !
 PAR  G(HCP_A3,U:VA),,                  +GBCCUU+5000-0.008*T;    3000 N 99SGUN !
$PAR  G(HCP_A3,U:VA),,                  +GHSERUU+50000;          3000 N 04Che3 !
 PAR  G(LIQUID,U),,                     +GHSERUU
             +12355.5-10.3239*T;                                 3000 N 91Din !
$
 FUNCTION GHSERUU   298.15  -8407.734+130.955151*T-26.9182*T*LN(T)
       +0.00125156*T**2-4.42605E-06*T**3+38568*T**(-1);
       955.00  Y  -22521.8+292.121093*T-48.66*T*LN(T);
      3000.00  N !
 FUNCTION GTETUU    298.15  -5156.136+106.976316*T-22.841*T*LN(T)
       -0.01084475*T**2+2.7889E-08*T**3+81944*T**(-1);
       941.50  Y  -14327.309+244.16802*T-42.9278*T*LN(T);
      3000.00  N !
 FUNCTION GBCCUU    298.15  -752.767+131.5381*T-27.5152*T*LN(T)
       -0.00835595*T**2+9.67907E-07*T**3+204611*T**(-1);
      1049.00  Y  -4698.365+202.685635*T-38.2836*T*LN(T);
      3000.00  N !
 FUNCTION GLIQUU    298.15  +GHSERUU+12355.5-10.3239*T;                3000 N !
$ ------------------------------------------------------------------------------
$ Binary system
$
$ A. Berche, N. Dupin, C. Gueneau, C. Rado, B. Sundman, J.C. Dumas,
$ J. Nucl. Mater., 411, 131-43(2011).
$
$ Checked against paper. Checked at 6000 K.
$
$ The Gibbs energy difference between RUU_LT and RUU_HT is far too small.
$ This would not be visible in any experiment, except HT-XRD (provided the
$ transformation proceeds with reasonable speed), which obviously has not been
$ used.
$
 PAR  L(LIQUID,RU,U;0),,                -173587+10.82*T;,,            N 11Ber !
 PAR  L(LIQUID,RU,U;1),,                -63720;,,                     N 11Ber !
$
 PAR  L(BCC_A2,RU,U:VA;0),,             -164020+43.68*T;,,            N 11Ber !
 PAR  L(BCC_A2,RU,U:VA;1),,             -19280;,,                     N 11Ber !
$
 PAR  L(HCP_A3,RU,U:VA;0),,             +UN_ASS;,,                    N !
 PAR  L(TETRAGONAL_U,RU,U;0),,          -105000;,,                    N 11Ber !
$
 PAR  G(RU3U_L12,RU:U),,                -186802+540.77*T
             -101.224*T*LN(T)-0.0092301*T**2+235907*T**(-1);,,        N 11Ber !
 PAR  G(RU5U3,RU:U),,                   +5*GHSERRU+3*GHSERUU
             -409237+52.69*T;,,                                       N 11Ber !
 PAR  G(RU4U3,RU:U),,                   +4*GHSERRU+3*GHSERUU
             -392680+68.8*T;,,                                        N 11Ber !
 PAR  G(RUU_LT,RU:U),,                  +0.48*GHSERRU+0.52*GHSERUU
             -61570+14.68*T;,,                                        N 11Ber !
 PAR  G(RUU_HT,RU:U),,                  +0.48*GHSERRU+0.52*GHSERUU
             -61569.47+14.6795*T;,,                                   N 11Ber !
 PAR  G(RUU2,RU:U),,                    +GHSERRU+2*GHSERUU
             -127824+25.58*T;,,                                       N 11Ber !
$
$ Metastable
$
 PAR  L(FCC_A1,RU,U:VA;0),,             +UN_ASS;,,                    N !
$ ------------------------------------------------------------------------------
$
$
 LIST-OF-REFERENCE
 NUMBER  SOURCE
  Null   'Unknown source'
  Same   'Same or similar interaction as in the corresponding stable phase'
  COST   'COST 507 database'
  91Din  'A.T. Dinsdale, Calphad, 15, 317-425(1991).'
  99SGUN 'SGTE unary database V.4.1, 1999.'
  01SGUN 'SGTE unary database V.4.4, 2001.'
  04Che3 'P.-Y. Chevalier, E. Fischer, B. Cheynet,
          Calphad, 28, 15-40(2004); U, Zr'
  11Ber  'A. Berche, N. Dupin, C. Gueneau, C. Rado, B. Sundman, J.C. Dumas,
          J. Nucl. Mater., 411, 131-43(2011); Ru, Ru-U'
!
