$
$ Database for Ce-Ti from B. Yao et al. 2018.
$
$ B. Yao, B. Hu, A. Zhang, J. Zhao, J. Wang,
$ J. Phase Equilib. Diffus., 39, 44-50(2018).
$
$ Dataset created 2018.06.08 by Bengt Hallstedt.
$ 2020.12.25: Modified for use with GES6.
$
$ The fcc interaction is not acceptable.
$
$ ------------------------------------------------------------------------------
 TEMP-LIM 298.15 6000.00 !
$
$ELEMENT NAME  REF. STATE               ATOMIC MASS H298-H0    S298    !
$
 ELEMENT VA   VACUUM                      0.0          0.0      0.0    ! 
 ELEMENT CE   FCC_A1                    140.12      7280.16    69.454  ! 
 ELEMENT TI   HCP_A3                     47.88      4824.      30.72   ! 
$ ------------------------------------------------------------------------------
$ Phase definitions
$
 PHASE LIQUID:L % 1 1 !
 CONST LIQUID:L : CE TI : !
$
$ Fcc (cF4, Fm-3m) and MeX (cF8, Fm-3m)
$
 PHASE FCC_A1 %A 2 1 1 !
 CONST FCC_A1 : CE% TI : VA : !
$
$ Bcc (cI2, Im-3m)
$
 PHASE BCC_A2 %B 2 1 3 !
 CONST BCC_A2 : CE% TI% : VA : !
$
$ Hcp (hP2, P6_3/mmc) and Me2X (NiAs-type, hP4, P6_3/mmc, B8_1)
$
 PHASE HCP_A3 %A 2 1 0.5 !
 CONST HCP_A3 : CE TI% : VA : !
$ ------------------------------------------------------------------------------
$ Defaults
$
 DEFINE-SYSTEM-DEFAULT ELEMENT 2 !
 DEFAULT-COM DEFINE_SYSTEM_ELEMENT VA !
 TYPE-DEF % SEQ * !
 TYPE-DEF A GES AMEND_PHASE_DESCRIPTION @ MAGNETIC -3 0.28 !
 TYPE-DEF B GES AMEND_PHASE_DESCRIPTION @ MAGNETIC -1 0.4 !
 FUNCTION ZERO      298.15  0;                                         6000 N !
 FUNCTION UN_ASS    298.15  0;                                         6000 N !
 FUNCTION R         298.15  +8.31451;                                  6000 N !
$ ------------------------------------------------------------------------------
$ Element data
$ ------------------------------------------------------------------------------
$ Ce
$
$ HCP_A3 and DHCP added in unary 3.0
$ HCP_A3 and DHCP revised in unary 4.4
$
 PAR  G(FCC_A1,CE:VA),,                 +GHSERCE;                4000 N 91Din !
 PAR  G(BCC_A2,CE:VA),,                 +GBCCCE;                 4000 N 91Din !
 PAR  G(HCP_A3,CE:VA),,                 +GHSERCE+300;            4000 N Frank !
$PAR  G(HCP_A3,CE:VA),,                 +GHSERCE+50000;          4000 N 96SGUN !
$PAR  G(DHCP,CE),,                      +GHSERCE
$            -122.539+0.433*T;                                   4000 N 99Gsc !
$PAR  G(DHCP,CE),,                      +GHSERCE-190+0.56886*T;  4000 N 96SGUN !
 PAR  G(LIQUID,CE),,                    +GLIQCE;                 4000 N 91Din !
$
 FUNCTION GHSERCE   298.15  -7160.519+84.23022*T-22.3664*T*LN(T)
       -0.0067103*T**2-3.20773E-07*T**3-18117*T**(-1);
      1000.00  Y  -79678.506+659.4604*T-101.32248*T*LN(T)
       +0.026046487*T**2-1.930297E-06*T**3+11531707*T**(-1);
      2000.00  Y  -14198.639+190.370192*T-37.6978*T*LN(T);
      4000.00  N !
 FUNCTION GBCCCE    298.15  -1354.69-5.21501*T-7.7305867*T*LN(T)
       -0.029098402*T**2+4.784299E-06*T**3-196303*T**(-1);
      1000.00  Y  -12101.106+187.449688*T-37.6142*T*LN(T);
      1072.00  Y  -11950.375+186.333811*T-37.4627992*T*LN(T)
       -5.7145E-05*T**2+2.348E-09*T**3-25897*T**(-1);
      4000.00  N !
 FUNCTION GLIQCE    298.15  +4117.865-11.423898*T-7.5383948*T*LN(T)
       -0.02936407*T**2+4.827734E-06*T**3-198834*T**(-1);
      1000.00  Y  -6730.605+183.023193*T-37.6978*T*LN(T);
      4000.00  N !
$ ------------------------------------------------------------------------------
$ Ti
$
$ BCT_A5 added in unary 3.0
$
 PAR  G(HCP_A3,TI:VA),,                 +GHSERTI;                4000 N 91Din !
 PAR  G(BCC_A2,TI:VA),,                 +GBCCTI;                 4000 N 91Din !
 PAR  G(FCC_A1,TI:VA),,                 +GHSERTI+6000-0.1*T;     4000 N 91Din !
$PAR  G(CBCC_A12,TI:VA),,               +GHSERTI+4602.2;         4000 N 91Din !
$PAR  G(CUB_A13,TI:VA),,                +GHSERTI+7531.2;         4000 N 91Din !
$PAR  G(DIAMOND_A4,TI),,                +GHSERTI+25000;          4000 N 91Din !
$PAR  G(BCT_A5,TI),,                    +GHSERTI+4602.2;         3000 N SGCOST !
 PAR  G(LIQUID,TI),,                    +GLIQTI;                 4000 N 91Din !
$
 FUNCTION GHSERTI   298.15  -8059.921+133.615208*T-23.9933*T*LN(T)
       -0.004777975*T**2+1.06716E-07*T**3+72636*T**(-1);
       900.00  Y  -7811.815+132.988068*T-23.9887*T*LN(T)
       -0.0042033*T**2-9.0876E-08*T**3+42680*T**(-1);
      1155.00  Y  +908.837+66.976538*T-14.9466*T*LN(T)
       -0.0081465*T**2+2.02715E-07*T**3-1477660*T**(-1);
      1941.00  Y  -124526.786+638.806871*T-87.2182461*T*LN(T)
       +0.008204849*T**2-3.04747E-07*T**3+36699805*T**(-1);
      4000.00  N !
 FUNCTION GBCCTI    298.15  -1272.064+134.71418*T-25.5768*T*LN(T)
       -6.63845E-04*T**2-2.78803E-07*T**3+7208*T**(-1);
      1155.00  Y  +6667.385+105.366379*T-22.3771*T*LN(T)
       +0.00121707*T**2-8.4534E-07*T**3-2002750*T**(-1);
      1941.00  Y  +26483.26-182.426471*T+19.0900905*T*LN(T)
       -0.02200832*T**2+1.228863E-06*T**3+1400501*T**(-1);
      4000.00  N !
 FUNCTION GLIQTI    298.15  +12194.415-6.980938*T+GHSERTI;
      1300.00  Y  +369519.198-2554.0225*T+342.059267*T*LN(T)
       -0.163409355*T**2+1.2457117E-05*T**3-67034516*T**(-1);
      1941.00  Y  -19887.066+298.7367*T-46.29*T*LN(T);
      4000.00  N !
$ ------------------------------------------------------------------------------
$ Binary system
$
$ B. Yao, B. Hu, A. Zhang, J. Zhao, J. Wang,
$ J. Phase Equilib. Diffus., 39, 44-50(2018).
$
$ Checked against paper. Checked at 6000 K.
$
$ The fcc interaction is not acceptable.
$
 PAR  L(LIQUID,CE,TI;0),,               +36026-1.93*T;,,              N 18Yao !
 PAR  L(LIQUID,CE,TI;1),,               -786;,,                       N 18Yao !
 PAR  L(LIQUID,CE,TI;2),,               +1519;,,                      N 18Yao !
$
 PAR  L(FCC_A1,CE,TI:VA;0),,            +534687+29.6*T;,,             N 18Yao !
$
 PAR  L(BCC_A2,CE,TI:VA;0),,            +46750+2.15*T;,,              N 18Yao !
 PAR  L(BCC_A2,CE,TI:VA;1),,            -2500;,,                      N 18Yao !
$
 PAR  L(HCP_A3,CE,TI:VA;0),,            +43516-1.94*T;,,              N 18Yao !
$ ------------------------------------------------------------------------------
$
$
 LIST-OF-REFERENCE
 NUMBER  SOURCE
  Null   'Unknown source'
  Same   'Same or similar interaction as in the corresponding stable phase'
  COST   'COST 507 database'
  SGCOST 'COST 507 database, SGTE unary database V.3.0, 1996; Al, B, Nd, Ti, Zn'
  Frank  'Peter Franke, unpublished, SGTE unary database V.4.4, 2001; Ce'
  91Din  'A.T. Dinsdale, Calphad, 15, 317-425(1991).'
  96SGUN 'SGTE unary database V.3.0, 1996.'
  99Gsc  'K.A. Gschneidner, Jr., V.K. Pecharsky, J. Phase Equilib.,
          20, 612-14(1999), SGTE unary database V.4.4, 2001; Ce'
  18Yao  'B. Yao, B. Hu, A. Zhang, J. Zhao, J. Wang,
          J. Phase Equilib. Diffus., 39, 44-50(2018); Ce-Ti'
!
