$
$ Database for Al-Th from Z.S. Li et al. 2010
$
$ Z.S. Li, X.J. Liu, M.Z. Wen, C.P. Wang, A.T. Tang, F.S. Pan,
$ J. Nucl. Mater., 396, 170-75(2010).
$
$ Dataset created 2010.10.25 by Bengt Hallstedt.
$ 2020.12.22: Modified for use with GES6.
$
$ There are slight differences (up to 1.6 K) in the invariant equilibria,
$ either due to rounding errors or (more probably) because of changes in
$ the Th lattice stabilities.
$
$ The fcc and bcc interaction parameters will have to be changed. At present
$ the solubility of Al in Th has been modeled and the Th solubility in Al
$ has been set to extremely small.
$
$ ------------------------------------------------------------------------------
 TEMP-LIM 298.15 6000.00 !
$
$ELEMENT NAME  REF. STATE               ATOMIC MASS H298-H0    S298    !
$
 ELEMENT VA   VACUUM                      0.0          0.0      0.0    ! 
 ELEMENT AL   FCC_A1                     26.98154   4540.0     28.30   ! 
 ELEMENT TH   FCC_A1                    232.0381    6350.0     51.8    ! 
$ ------------------------------------------------------------------------------
$ Phase definitions
$
 PHASE LIQUID:L % 1 1 !
 CONST LIQUID:L : AL TH : !
$
$ Fcc (cF4, Fm-3m) and MeX (cF8, Fm-3m)
$
 PHASE FCC_A1 % 2 1 1 !
 CONST FCC_A1 : AL% TH% : VA : !
$
$ Bcc (cI2, Im-3m)
$
 PHASE BCC_A2 % 2 1 3 !
 CONST BCC_A2 : AL TH% : VA : !
$
$ Hcp (hP2, P6_3/mmc) and Me2X (NiAs-type, hP4, P6_3/mmc, B8_1)
$
 PHASE HCP_A3 % 2 1 0.5 !
 CONST HCP_A3 : AL : VA : !
$
$ Prototype Al7Th2 (oP18, Pbam)
$
 PHASE AL7TH2 % 2 7 2 !
 CONST AL7TH2 : AL : TH : !
$
$ Prototype CdMg3 (hP8, P6_3/mmc)
$
 PHASE AL3TH_D019 % 2 3 1 !
 CONST AL3TH_D019 : AL : TH : !
$
$ Prototype AlB2 (hP3, P6/mmm)
$
 PHASE AL2TH_C32 % 2 2 1 !
 CONST AL2TH_C32 : AL : TH : !
$
$ Pearson tP20
$
 PHASE AL3TH2 % 2 3 2 !
 CONST AL3TH2 : AL : TH : !
$
$ Prototype CrB (oC8, Cmcm)
$
 PHASE ALTH_B33 % 2 1 1 !
 CONST ALTH_B33 : AL : TH : !
$
$ Prototype Si2U3 (tP10, P4/mbm)
$
 PHASE AL2TH3_D5A % 2 2 3 !
 CONST AL2TH3_D5A : AL : TH : !
$
$ Prototype Al2Cu (tI12, I4/mcm)
$
 PHASE ALTH2_C16 % 2 1 2 !
 CONST ALTH2_C16 : AL : TH : !
$ ------------------------------------------------------------------------------
$ Defaults
$
 DEFINE-SYSTEM-DEFAULT ELEMENT 2 !
 DEFAULT-COM DEFINE_SYSTEM_ELEMENT VA !
 TYPE-DEF % SEQ * !
 FUNCTION ZERO      298.15  0;                                         6000 N !
 FUNCTION UN_ASS    298.15  0;                                         6000 N !
 FUNCTION R         298.15  +8.31451;                                  6000 N !
$ ------------------------------------------------------------------------------
$ Element data
$ ------------------------------------------------------------------------------
$ Al
$
$ BCT_A5 and DIAMOND_A4 added in unary 3.0
$
 PAR  G(FCC_A1,AL:VA),,                 +GHSERAL;                2900 N 91Din !
 PAR  G(BCC_A2,AL:VA),,                 +GHSERAL+10083-4.813*T;  2900 N 91Din !
 PAR  G(HCP_A3,AL:VA),,                 +GHSERAL+5481-1.8*T;     2900 N 91Din !
$PAR  G(CBCC_A12,AL:VA),,               +GHSERAL
$            +10083.4-4.813*T;                                   2900 N 91Din !
$PAR  G(CUB_A13,AL:VA),,                +GHSERAL
$            +10920.44-4.8116*T;                                 2900 N 91Din !
$PAR  G(BCT_A5,AL),,                    +GHSERAL+10083-4.813*T;  2900 N SGCOST !
$PAR  G(DIAMOND_A4,AL),,                +GHSERAL+30*T;           2900 N SGCOST !
 PAR  G(LIQUID,AL),,                    +GLIQAL;                 2900 N 91Din !
$
 FUNCTION GHSERAL   298.15  -7976.15+137.093038*T-24.3671976*T*LN(T)
       -0.001884662*T**2-8.77664E-07*T**3+74092*T**(-1);
       700.00  Y  -11276.24+223.048446*T-38.5844296*T*LN(T)
       +0.018531982*T**2 -5.764227E-06*T**3+74092*T**(-1);
       933.47  Y  -11278.361+188.684136*T-31.748192*T*LN(T)
       -1.230622E+28*T**(-9);
      2900.00  N !
 FUNCTION GLIQAL    298.15  +11005.045-11.84185*T+GHSERAL+7.9337E-20*T**7;
       933.47  Y  -795.991+177.430209*T-31.748192*T*LN(T);
      2900.00  N !
 FUNCTION GBCCAL    298.15  +GHSERAL+10083-4.813*T;                    2900 N !
$ ------------------------------------------------------------------------------
$ Th
$
$ FCC_A1, BCC_A2 and LIQUID modified in unary 4.4
$
 PAR  G(FCC_A1,TH:VA),,                 +GHSERTH;                4000 N 01SGUN !
 PAR  G(BCC_A2,TH:VA),,                 +GBCCTH;                 4000 N 01SGUN !
 PAR  G(LIQUID,TH),,                    +GLIQTH;                 4000 N 01SGUN !
$
 FUNCTION GHSERTH   298.15  -7732.08+116.273975*T-24.841*T*LN(T)
       -0.00236725*T**2-5.2883E-07*T**3+13010*T**(-1);
      1633.00  Y  -37352.871+236.906118*T-39.107*T*LN(T)
       -0.00358025*T**2+2.36893E-07*T**3+7981000*T**(-1);
      2900.00  Y  -33353.313+283.231045*T-46.024*T*LN(T);
      4000.00  N !
 FUNCTION GBCCTH    298.15  -2321.06+133.531195*T-28.244*T*LN(T)
       +4.3775E-04*T**2-5.3048E-07*T**3+91190*T**(-1);
      1633.00  Y  -115978.348+800.909049*T-116.453*T*LN(T)
       +0.03098*T**2-2.536883E-06*T**3+27512600*T**(-1);
      2023.00  Y  -33602.796+208.774709*T-35.813*T*LN(T)
       -0.00346655*T**2+1.66067E-07*T**3+11876950*T**(-1);
      3600.00  Y  -980.302-0.049551*T+GHSERTH;
      4000.00  N !
 FUNCTION GLIQTH    298.15  +5031.109+110.886346*T-24.987*T*LN(T)
       -0.00168345*T**2-9.09067E-07*T**3+10865*T**(-1);
      1499.80  Y  -15602.847+127.657716*T-24.03*T*LN(T)
       -0.0136421*T**2+1.210117E-06*T**3+7111100*T**(-1);
      2014.50  Y  -17273.382+275.001274*T-46.024*T*LN(T);
      4000.00  N !
$ ------------------------------------------------------------------------------
$ Binary system
$
$ Z.S. Li, X.J. Liu, M.Z. Wen, C.P. Wang, A.T. Tang, F.S. Pan,
$ J. Nucl. Mater., 396, 170-75(2010).
$
$ Checked against paper. Checked at 6000 K.
$
$ There are slight differences (up to 1.6 K) in the invariant equilibria,
$ either due to rounding errors or (more probably) because of changes in
$ the Th lattice stabilities.
$
$ The fcc and bcc interaction parameters will have to be changed. At present
$ the solubility of Al in Th has been modeled and the Th solubility in Al
$ has been set to extremely small.
$
 PAR  L(LIQUID,AL,TH;0),,               -93725+4.523*T;,,             N 10Li !
 PAR  L(LIQUID,AL,TH;1),,               -30000;,,                     N 10Li !
 PAR  L(LIQUID,AL,TH;2),,               -20156+9.264*T;,,             N 10Li !
$
 PAR  L(FCC_A1,AL,TH:VA;0),,            +300000;,,                    N 10Li !
 PAR  L(FCC_A1,AL,TH:VA;1),,            +396000-26*T;,,               N 10Li !
$
 PAR  L(BCC_A2,AL,TH:VA;0),,            +168000;,,                    N 10Li !
 PAR  L(BCC_A2,AL,TH:VA;1),,            +219100-3*T;,,                N 10Li !
$
 PAR  G(AL7TH2,AL:TH),,                 +7*GHSERAL+2*GHSERTH
             -332199+60.282*T;,,                                      N 10Li !
 PAR  G(AL3TH_D019,AL:TH),,             +3*GHSERAL+GHSERTH
             -151304+19.22*T;,,                                       N 10Li !
 PAR  G(AL2TH_C32,AL:TH),,              +2*GHSERAL+GHSERTH
             -124554+7.779*T;,,                                       N 10Li !
 PAR  G(AL3TH2,AL:TH),,                 +3*GHSERAL+2*GHSERTH
             -194700+8.595*T;,,                                       N 10Li !
 PAR  G(ALTH_B33,AL:TH),,               +GHSERAL+GHSERTH
             -85900+12.254*T;,,                                       N 10Li !
 PAR  G(AL2TH3_D5A,AL:TH),,             +2*GHSERAL+3*GHSERTH
             -209850+39.995*T;,,                                      N 10Li !
 PAR  G(ALTH2_C16,AL:TH),,              +GHSERAL+2*GHSERTH
             -132999+34.473*T;,,                                      N 10Li !
$ ------------------------------------------------------------------------------
$
$
 LIST-OF-REFERENCE
 NUMBER  SOURCE
  Null   'Unknown source'
  COST   'COST 507 database'
  SGCOST 'COST 507 database, SGTE unary database V.3.0, 1996; Al, B, Nd, Ti, Zn'
  91Din  'A.T. Dinsdale, Calphad, 15, 317-425(1991).'
  01SGUN 'SGTE unary database V.4.4, 2001.'
  10Li   'Z.S. Li, X.J. Liu, M.Z. Wen, C.P. Wang, A.T. Tang, F.S. Pan,
          J. Nucl. Mater., 396, 170-75(2010); Al-Th'
!
