$
$ Database for Sr-V from J.F. Smith and K.J. Lee 1988.
$
$ J.F. Smith, K.J. Lee, Bull. Alloy Phase Diag., 9, 466-69(1988).
$
$ Dataset created 2018.05.06 by Bengt Hallstedt.
$ 2021.02.05: Modified for use with GES6.
$
$ The Miedema model was used to estimate interactions.
$
$ ------------------------------------------------------------------------------
 TEMP-LIM 298.15 6000.00 !
$
$ELEMENT NAME  REF. STATE               ATOMIC MASS H298-H0    S298    !
$
 ELEMENT VA   VACUUM                      0.0          0.0      0.0    ! 
 ELEMENT SR   FCC_A1                     87.62      6568.      55.694  ! 
 ELEMENT V    BCC_A2                     50.9415    4507.0     30.89   ! 
$ ------------------------------------------------------------------------------
$ Phase definitions
$
 PHASE LIQUID:L % 1 1 !
 CONST LIQUID:L : SR V : !
$
$ Fcc (cF4, Fm-3m) and MeX (cF8, Fm-3m)
$
 PHASE FCC_A1 %A 2 1 1 !
 CONST FCC_A1 : SR% V : VA : !
$
$ Bcc (cI2, Im-3m)
$
 PHASE BCC_A2 %B 2 1 3 !
 CONST BCC_A2 : SR% V% : VA : !
$
$ Hcp (hP2, P6_3/mmc) and Me2X (NiAs-type, hP4, P6_3/mmc, B8_1)
$
 PHASE HCP_A3 %A 2 1 0.5 !
 CONST HCP_A3 : SR V : VA : !
$ ------------------------------------------------------------------------------
$ Defaults
$
 DEFINE-SYSTEM-DEFAULT ELEMENT 2 !
 DEFAULT-COM DEFINE_SYSTEM_ELEMENT VA !
 TYPE-DEF % SEQ * !
 TYPE-DEF A GES AMEND_PHASE_DESCRIPTION @ MAGNETIC -3 0.28 !
 TYPE-DEF B GES AMEND_PHASE_DESCRIPTION @ MAGNETIC -1 0.4 !
 FUNCTION ZERO      298.15  0;                                         6000 N !
 FUNCTION UN_ASS    298.15  0;                                         6000 N !
 FUNCTION R         298.15  +8.31451;                                  6000 N !
$ ------------------------------------------------------------------------------
$ Element data
$ ------------------------------------------------------------------------------
$ Sr
$
 PAR  G(FCC_A1,SR:VA),,                 +GHSERSR;                3000 N 91Din !
 PAR  G(BCC_A2,SR:VA),,                 +GBCCSR;                 3000 N 91Din !
 PAR  G(HCP_A3,SR:VA),,                 +GHSERSR+250+0.7*T;      3000 N 91Din !
 PAR  G(LIQUID,SR),,                    +GLIQSR;                 3000 N 91Din !
$
 FUNCTION GHSERSR   298.15  -7532.367+107.183879*T-23.905*T*LN(T)
       -0.00461225*T**2-1.67477E-07*T**3-2055*T**(-1);
       820.00  Y  -13380.102+153.196104*T-30.0905432*T*LN(T)
       -0.003251266*T**2+1.84189E-07*T**3+850134*T**(-1);
      3000.00  N !
 FUNCTION GBCCSR    298.15  -6779.234+116.583654*T-25.6708365*T*LN(T)
       -0.003126762*T**2+2.2965E-07*T**3+27649*T**(-1);
       820.00  Y  -6970.594+122.067301*T-26.57*T*LN(T)
       -0.0019493*T**2-1.7895E-08*T**3+16495*T**(-1);
      1050.00  Y  +8168.357+0.423037*T-9.7788593*T*LN(T)
       -0.009539908*T**2+5.20221E-07*T**3-2414794*T**(-1);
      3000.00  N !
 FUNCTION GLIQSR    298.15  +2194.997-10.118994*T-5.0668978*T*LN(T)
       -0.031840595*T**2+4.981237E-06*T**3-265559*T**(-1);
      1050.00  Y  -10855.29+213.406219*T-39.463*T*LN(T);
      3000.00  N !
$ ------------------------------------------------------------------------------
$ V
$
 PAR  G(BCC_A2,V:VA),,                  +GHSERVV;                4000 N 91Din !
 PAR  G(FCC_A1,V:VA),,                  +GHSERVV+7500+1.7*T;     4000 N 91Din !
 PAR  G(HCP_A3,V:VA),,                  +GHSERVV+4000+2.4*T;     4000 N 91Din !
$PAR  G(CBCC_A12,V:VA),,                +GHSERVV+9000;           4000 N 91Din !
$PAR  G(CUB_A13,V:VA),,                 +GHSERVV+10000;          4000 N 91Din !
 PAR  G(LIQUID,V),,                     +GLIQVV;                 4000 N 91Din !
$
 FUNCTION GHSERVV   298.15  -7930.43+133.346053*T-24.134*T*LN(T)
       -0.003098*T**2+1.2175E-07*T**3+69460*T**(-1);
       790.00  Y  -7967.842+143.291093*T-25.9*T*LN(T)
       +6.25E-05*T**2-6.8E-07*T**3;
      2183.00  Y  -41689.864+321.140783*T-47.43*T*LN(T)+6.44389E+31*T**(-9);
      4000.00  N !
 FUNCTION GLIQVV    298.15  +20764.117-9.455552*T+GHSERVV-5.19136E-22*T**7;
      2183.00  Y  -19617.51+311.055983*T-47.43*T*LN(T);
      4000.00  N !
$ ------------------------------------------------------------------------------
$ Binary system
$
$ J.F. Smith, K.J. Lee, Bull. Alloy Phase Diag., 9, 466-69(1988).
$
$ Checked against paper. Checked at 6000 K.
$
$ The Miedema model was used to estimate interactions.
$
 PAR  L(LIQUID,SR,V;0),,                +214023;,,                    N 88Smi !
$
 PAR  L(FCC_A1,SR,V:VA;0),,             +214023;,,                    N 88Smi !
 PAR  L(BCC_A2,SR,V:VA;0),,             +214023;,,                    N 88Smi !
$
$ Metastable
$
 PAR  L(HCP_A3,SR,V:VA;0),,             +214023;,,                    N Same !
$ ------------------------------------------------------------------------------
$
$
 LIST-OF-REFERENCE
 NUMBER  SOURCE
  Null   'Unknown source'
  Same   'Same or similar interaction as in the corresponding stable phase'
  COST   'COST 507 database'
  88Smi  'J.F. Smith, K.J. Lee, Bull. Alloy Phase Diag., 9, 466-69(1988); Sr-V'
  91Din  'A.T. Dinsdale, Calphad, 15, 317-425(1991).'
!
