$
$ Database for Ag-Y from S.L. Wang et al. 2009
$
$ S.L. Wang, C.P. Wang, X.J. Liu, K. Ishida,
$ J. Alloys Compd., 476, 187-92(2009).
$
$ Dataset created 2017.07.08 by Bengt Hallstedt.
$ 2020.12.20: Modified for use with GES6.
$
$ Invariant equilibria differ by up to 1 K.
$
$ There is a double (!) inverse miscibility gap with minima at 3882 K,
$ x(Y)=0.52 and 3751 K, x(Y)=0.90.
$
$ ------------------------------------------------------------------------------
 TEMP-LIM 298.15 6000.00 !
$
$ELEMENT NAME  REF. STATE               ATOMIC MASS H298-H0    S298    !
$
 ELEMENT VA   VACUUM                      0.0          0.0      0.0    ! 
 ELEMENT AG   FCC_A1                    107.8682    5745.      42.55   ! 
 ELEMENT Y    HCP_A3                     88.9059    5983.457   44.7875 ! 
$ ------------------------------------------------------------------------------
$ Phase definitions
$
 PHASE LIQUID:L % 1 1 !
 CONST LIQUID:L : AG Y : !
$
$ Fcc (cF4, Fm-3m) and MeX (cF8, Fm-3m)
$
 PHASE FCC_A1 %A 2 1 1 !
 CONST FCC_A1 : AG% Y : VA : !
$
$ Bcc (cI2, Im-3m)
$
 PHASE BCC_A2 %B 2 1 3 !
 CONST BCC_A2 : AG Y% : VA : !
$
$ Hcp (hP2, P6_3/mmc) and Me2X (NiAs-type, hP4, P6_3/mmc, B8_1)
$
 PHASE HCP_A3 %A 2 1 0.5 !
 CONST HCP_A3 : AG Y% : VA : !
$
$ Prototype Ag51Gd14 (hP68, P6/m)
$
 PHASE AG51Y14 % 2 51 14 !
 CONST AG51Y14 : AG : Y : !
$
$ Prototype MoSi2 (tI6, I4/mmm)
$
 PHASE AG2Y_C11B % 2 2 1 !
 CONST AG2Y_C11B : AG : Y : !
$
$ Prototype CsCl (cP2, Pm-3m)
$
 PHASE AGY_B2 %A 2 1 1 !
 CONST AGY_B2 : AG : Y : !
$ ------------------------------------------------------------------------------
$ Defaults
$
 DEFINE-SYSTEM-DEFAULT ELEMENT 2 !
 DEFAULT-COM DEFINE_SYSTEM_ELEMENT VA !
 TYPE-DEF % SEQ * !
 TYPE-DEF A GES AMEND_PHASE_DESCRIPTION @ MAGNETIC -3 0.28 !
 TYPE-DEF B GES AMEND_PHASE_DESCRIPTION @ MAGNETIC -1 0.4 !
 FUNCTION ZERO      298.15  0;                                         6000 N !
 FUNCTION UN_ASS    298.15  0;                                         6000 N !
 FUNCTION R         298.15  +8.31451;                                  6000 N !
$ ------------------------------------------------------------------------------
$ Element data
$ ------------------------------------------------------------------------------
$ Ag
$
$ CUB_A13 added in unary 3.0
$ CUB_A13 revised in unary 4.1
$ BCT_A5 added in unary 4.1
$
$ DHCP from 09Wan not included in unary
$
 PAR  G(FCC_A1,AG:VA),,                 +GHSERAG;                3000 N 91Din !
 PAR  G(HCP_A3,AG:VA),,                 +GHSERAG+300+0.3*T;      3000 N 91Din !
 PAR  G(BCC_A2,AG:VA),,                 +GHSERAG+3400-1.05*T;    3000 N 91Din !
$PAR  G(CUB_A13,AG:VA),,                +GHSERAG+3400-1.05*T;    3000 N 95Lim !
$PAR  G(CUB_A13,AG:VA),,                +GHSERAG
$            +3765.6-1.8826*T;                                   3000 N 96SGUN !
$PAR  G(BCT_A5,AG),,                    +GHSERAG+4184.1;         3000 N 96Oh !
$PAR  G(DHCP,AG),,                      +GHSERAG+1000;           3000 N 09Wan2 !
 PAR  G(LIQUID,AG),,                    +GLIQAG;                 3000 N 91Din !
$
 FUNCTION GHSERAG   298.15  -7209.512+118.202013*T-23.8463314*T*LN(T)
       -0.001790585*T**2-3.98587E-07*T**3-12011*T**(-1);
      1234.93  Y  -15095.252+190.266404*T-33.472*T*LN(T)+1.411773E+29*T**(-9);
      3000.00  N !
 FUNCTION GLIQAG    298.15  +11025.076-8.89102*T+GHSERAG-1.033905E-20*T**7;
      1234.93  Y  -3587.111+180.964656*T-33.472*T*LN(T);
      3000.00  N !
 FUNCTION GBCCAG    298.15  +GHSERAG+3400-1.05*T;                      6000 N !
$ ------------------------------------------------------------------------------
$ Y
$
$ HCP_A3, BCC_A2 and LIQUID revised in unary 3.0
$ FCC_A1 added in unary 4.1
$
 PAR  G(HCP_A3,Y:VA)            100.00  +GHSERYY;                3700 N 95She3 !
 PAR  G(BCC_A2,Y:VA)            100.00  +GBCCYY;                 3700 N 95She3 !
 PAR  G(FCC_A1,Y:VA)            100.00  +GHSERYY+6000;           3700 N Frie2 !
 PAR  G(LIQUID,Y)               100.00  +GLIQYY;                 3700 N 95She3 !
$
 FUNCTION GHSERYY   100.00  -8011.09379+128.572856*T-25.6656992*T*LN(T)
       -0.00175716414*T**2-4.17561786E-07*T**3+26911.509*T**(-1);
      1000.00  Y  -7179.74574+114.497104*T-23.4941827*T*LN(T)
       -0.0038211802*T**2-8.2534534E-08*T**3;
      1795.15  Y  -67480.7761+382.124727*T-56.9527111*T*LN(T)
       +0.00231774379*T**2-7.22513088E-08*T**3+18077162.6*T**(-1);
      3700.00  N !
 FUNCTION GBCCYY    100.00  -833.658863+123.667346*T-25.5832578*T*LN(T)
       -0.00237175965*T**2+9.10372497E-09*T**3+27340.0687*T**(-1);
      1000.00  Y  -1297.79829+134.528352*T-27.3038477*T*LN(T)
       -5.41757644E-04*T**2-3.05012175E-07*T**3;
      1795.15  Y  +15389.4975+0.981325399*T-8.88296647*T*LN(T)
       -0.00904576576*T**2+4.02944768E-07*T**3-2542575.96*T**(-1);
      3700.00  N !
 FUNCTION GLIQYY    100.00  +2098.50738+119.41873*T-24.6467508*T*LN(T)
       -0.00347023463*T**2-8.12981167E-07*T**3+23713.7332*T**(-1);
      1000.00  Y  +7386.44846+19.4520171*T-9.0681627*T*LN(T)
       -0.0189533369*T**2+1.7595327E-06*T**3;
      1795.15  Y  -12976.5957+257.400783*T-43.0952*T*LN(T);
      3700.00  N !
$ ------------------------------------------------------------------------------
$ Binary system
$
$ S.L. Wang, C.P. Wang, X.J. Liu, K. Ishida,
$ J. Alloys Compd., 476, 187-92(2009).
$
$ Checked against paper. Checked at 6000 K.
$
$ The liquid and fcc interactions are quite horrible.
$
$ Invariant equilibria differ by up to 1 K.
$
$ There is a double (!) inverse miscibility gap with minima at 3882 K,
$ x(Y)=0.52 and 3751 K, x(Y)=0.90.
$
 PAR  L(LIQUID,AG,Y;0),,                -111625+23.155*T;,,           N 09Wan1 !
 PAR  L(LIQUID,AG,Y;1),,                -23197-18.262*T;,,            N 09Wan1 !
 PAR  L(LIQUID,AG,Y;2),,                +35266-31.164*T;,,            N 09Wan1 !
 PAR  L(LIQUID,AG,Y;3),,                +69117-38.98*T;,,             N 09Wan1 !
$
 PAR  L(FCC_A1,AG,Y:VA;0),,             +391243-3.8*T;,,              N 09Wan1 !
 PAR  L(FCC_A1,AG,Y:VA;1),,             -450000-39*T;,,               N 09Wan1 !
$
 PAR  L(BCC_A2,AG,Y:VA;0),,             +30000;,,                     N 09Wan1 !
 PAR  L(HCP_A3,AG,Y:VA;0),,             +40000;,,                     N 09Wan1 !
$
 PAR  G(AG51Y14,AG:Y),,                 +51*GHSERAG+14*GHSERYY
             -1493765+50.31*T;,,                                      N 09Wan1 !
 PAR  G(AG2Y_C11B,AG:Y),,               +2*GHSERAG+GHSERYY
             -82539+1.671*T;,,                                        N 09Wan1 !
 PAR  G(AGY_B2,AG:Y),,                  +GHSERAG+GHSERYY
             -59990+3.696*T;,,                                        N 09Wan1 !
$ ------------------------------------------------------------------------------
$
$
 LIST-OF-REFERENCE
 NUMBER  SOURCE
  Null   'Unknown source'
  Same   'Same or similar interaction as in the corresponding stable phase'
  COST   'COST 507 database'
  Frie2  'Suzana Fries and Leo Lukas, unpublished,
          SGTE unary database V.4.1, 1999; Y'
  91Din  'A.T. Dinsdale, Calphad, 15, 317-425(1991).'
  95Lim  'S.S. Lim, P.L. Rossiter, J.W. Tibballs, Calphad, 19, 131-41(1995),
          SGTE unary database V.4.1, 1999; Ag'
  95She3 'H. Shen, W. Zhang, G. Liu, R. Wang, Z. Du, Report F-95-03,
          University of Science and Technology, Beijing, May 1995,
          SGTE unary database V.3.0, 1996; Y'
  96Oh   'C.-S. Oh, J.-H. Shim, B.-J. Lee, D.N. Lee,
          J. Alloys Compounds, 238, 155-66(1996),
          SGTE unary database V.4.1, 1999; Ag'
  96SGUN 'SGTE unary database V.3.0, 1996.'
  09Wan1 'S.L. Wang, C.P. Wang, X.J. Liu, K. Ishida,
          J. Alloys Compd., 476, 187-92(2009); Ag-Y'
  09Wan2 'S.L. Wang, C.P. Wang, X.J. Liu, K. Ishida,
          J. Alloys Compd., 476, 245-52(2009); Ag'
!
