$
$ Database for Bi-Ge from P.-Y Chevalier 1988 (included in LB Vol. 2)
$
$ P.-Y Chevalier, Thermochim. Acta, 132, 111-16(1988).
$
$ Dataset created 2012.09.23 by Bengt Hallstedt.
$ 2020.12.02: Modified for use with GES6.
$ 2023.02.24: Unary Bi changed from V4.4 to V5.0.
$
$ ------------------------------------------------------------------------------
 TEMP-LIM 298.15 6000.00 !
$
$ELEMENT NAME  REF. STATE               ATOMIC MASS H298-H0    S298    !
$
 ELEMENT VA   VACUUM                      0.0          0.0      0.0    ! 
 ELEMENT BI   RHOMBOHEDRAL_A7           208.98      6426.6     56.735  !
 ELEMENT GE   DIAMOND_A4                 72.59      4636.0     31.09   ! 
$ ------------------------------------------------------------------------------
$ Phase definitions
$
 PHASE LIQUID:L % 1 1 !
 CONST LIQUID:L : BI GE : !
$
$ Fcc (cF4, Fm-3m) and MeX (cF8, Fm-3m)
$
 PHASE FCC_A1 %A 2 1 1 !
 CONST FCC_A1 : BI GE : VA : !
$
$ Bcc (cI2, Im-3m)
$
 PHASE BCC_A2 %B 2 1 3 !
 CONST BCC_A2 : BI GE : VA : !
$
$ Hcp (hP2, P6_3/mmc) and Me2X (NiAs-type, hP4, P6_3/mmc, B8_1)
$
 PHASE HCP_A3 %A 2 1 0.5 !
 CONST HCP_A3 : BI GE : VA: !
$
$ Prototype C (cF8, Fd-3m)
$
 PHASE DIAMOND_A4 % 1 1 !
 CONST DIAMOND_A4 : BI GE% : !
$
$ Prototype alpha-As (hR2, R-3m)
$
 PHASE RHOMBOHEDRAL_A7 % 1 1 !
 CONST RHOMBOHEDRAL_A7 : BI% GE : !
$ ------------------------------------------------------------------------------
$ Defaults
$
 DEFINE-SYSTEM-DEFAULT ELEMENT 2 !
 DEFAULT-COM DEFINE_SYSTEM_ELEMENT VA !
 TYPE-DEF % SEQ * !
 TYPE-DEF A GES AMEND_PHASE_DESCRIPTION @ MAGNETIC -3 0.28 !
 TYPE-DEF B GES AMEND_PHASE_DESCRIPTION @ MAGNETIC -1 0.4 !
 FUNCTION ZERO      298.15  0;                                         6000 N !
 FUNCTION UN_ASS    298.15  0;                                         6000 N !
 FUNCTION R         298.15  +8.31451;                                  6000 N !
$ ------------------------------------------------------------------------------
$ Element data
$ ------------------------------------------------------------------------------
$ Bi
$
$ RHOMBOHEDRAL_A7 and LIQUID modified in unary 5.0
$ DIAMOND_A4 added in unary 5.0
$
 PAR  G(RHOMBOHEDRAL_A7,BI),,           +GHSERBI;                3000 N 09SGUN !
 PAR  G(FCC_A1,BI:VA),,                 +GHSERBI+9900-12.5*T;    3000 N 91Din !
 PAR  G(BCC_A2,BI:VA),,                 +GHSERBI+11297-13.9*T;   3000 N 91Din !
 PAR  G(HCP_A3,BI:VA),,                 +GHSERBI+9900-11.8*T;    3000 N 91Din !
$PAR  G(DIAMOND_A4,BI),,                +GHSERBI
$            +11296.8+9.253655*T;                                3000 N 88Che2 !
$PAR  G(BCT_A5,BI),,                    +GHSERBI+4184.07;        3000 N 91Din !
$PAR  G(TETRAGONAL_A6,BI),,             +GHSERBI+4184.07;        3000 N 91Din !
$PAR  G(TET_ALPHA1_A6,BI),,             +GHSERBI+4234;           3000 N 91Din !
 PAR  G(LIQUID,BI),,                    +GLIQBI;                 3000 N 09SGUN ! 
$
 FUNCTION GHSERBI   298.15  -7817.776+128.418925*T-28.4096529*T*LN(T)
       +0.012338888*T**2-8.381598E-6*T**3;
       544.55  Y  +29293.369-379.605174*T+49.678*T*LN(T)
       -0.0730245*T**2+1.3052833E-5*T**3-3544705*T**(-1)+1.66309E+25*T**(-9);
       800.00  Y  -11085.609+182.955328*T-36.041*T*LN(T)
       +7.4641E-3*T**2-1.05047E-6*T**3+5175*T**(-1)+1.66309E+25*T**(-9);
      1200.00  Y  -7580.864+124.770814*T-27.196*T*LN(T)+1.66309E+25*T**(-9);
      3000.00  N !
 FUNCTION GLIQBI    298.15  +11246.017-20.636399*T+GHSERBI-5.9608E-19*T**7;
       544.55  Y  +40629.667-400.415652*T+49.678*T*LN(T)
       -0.0730245*T**2+1.3052833E-5*T**3-3544705*T**(-1);
       800.00  Y  +250.689+162.14485*T-36.041*T*LN(T)
       +0.0074641*T**2-1.05047E-6*T**3+5175*T**(-1);
      1200.00  Y  +3755.434+103.960336*T-27.196*T*LN(T);
      3000.00 N !
$ ------------------------------------------------------------------------------
$ Ge
$
$ BCT_A5 and RHOMBOHEDRAL_A7 added in unary 4.1
$
 PAR  G(DIAMOND_A4,GE),,                +GHSERGE;                3200 N 91Din !
 PAR  G(FCC_A1,GE:VA),,                 +GHSERGE+36000-22.3*T;   3200 N 91Din !
 PAR  G(BCC_A2,GE:VA),,                 +GHSERGE+34100-23.5*T;   3200 N 91Din !
 PAR  G(HCP_A3,GE:VA),,                 +GHSERGE+35000-21.5*T;   3200 N 91Din !
$PAR  G(BCT_A5,GE),,                    +GHSERGE+28800-16.5*T;   3600 N 99SGUN !
 PAR  G(RHOMBOHEDRAL_A7,GE),,           +GHSERGE+29800-16.5*T;   3600 N 99SGUN !
 PAR  G(LIQUID,GE),,                    +GLIQGE;                 3200 N 91Din !
$
 FUNCTION GHSERGE   298.15  -9486.153+165.635573*T-29.5337682*T*LN(T)
       +0.005568297*T**2-1.513694E-06*T**3+163298*T**(-1);
       900.00  Y  -5689.239+102.86087*T-19.8536239*T*LN(T)-0.003672527*T**2;
      1211.40  Y  -9548.204+156.708024*T-27.6144*T*LN(T)-8.59809E+28*T**(-9);
      3200.00  N !
 FUNCTION GLIQGE    298.15  +37141.489-30.687043*T+GHSERGE+8.56632E-21*T**7;
      1211.40  Y  +27243.473+126.324186*T-27.6144*T*LN(T);
      3200.00  N !
$ ------------------------------------------------------------------------------
$ Binary system
$
$ From P.-Y Chevalier 1988 (included in LB Vol. 2)
$
$ P.-Y Chevalier, Thermochim. Acta, 132, 111-16(1988).
$
$ Checked against LB and paper. Checked at 6000 K.
$
$ The lattice stability of Rhombo-Ge has changed since 88Che.
$
 PAR  L(LIQUID,BI,GE;0),,               +12883.8+2.32905*T;,,         N 88Che2 !
 PAR  L(LIQUID,BI,GE;1),,               +534.4;,,                     N 88Che2 !
$
 PAR  L(DIAMOND_A4,BI,GE;0),,           +95000;,,                     N 88Che2 !
 PAR  L(RHOMBOHEDRAL_A7,BI,GE;0),,      +100000;,,                    N 88Che2 !
$
$ Metastable
$
 PAR  L(FCC_A1,BI,GE:VA;0),,            +100000;,,                    N Same !
 PAR  L(BCC_A2,BI,GE:VA;0),,            +100000;,,                    N Same !
 PAR  L(HCP_A3,BI,GE:VA;0),,            +100000;,,                    N Same !
$ ------------------------------------------------------------------------------
$
 ASSESSED_SYSTEM
  BI-GE(TDB -* +LIQ +DIAM_A4 +RHOM_A7 ;P3 TMM:300/1500 STP:.1/400) !
$
$
 LIST-OF-REFERENCE
 NUMBER  SOURCE
  Null   'Unknown source'
  Same   'Same or similar interaction as in the corresponding stable phase'
  COST   'COST 507 database'
  88Che2 'P.-Y. Chevalier, Thermochim. Acta, 132, 111-16(1988),
          SGTE unary database V.5.0, 2009; Bi, Bi-Ge' 
  91Din  'A.T. Dinsdale, Calphad, 15, 317-425(1991).'
  99SGUN 'SGTE unary database V.4.1, 1999.'
  09SGUN 'SGTE unary database V.5.0, 2009.'
!
