$
$ Database for Fe-Sc from GTT 2008
$
$ GTT, unpublished, 2008.
$
$ Dataset created 2009.08.27 by Bengt Hallstedt.
$ 2021.01.02: Modified for use with GES6.
$
$ In this system all three Laves phases appear to be stable, but only one
$ Fe2Sc phase is modelled.
$
$ Fe2Sc has a very strange Gibbs energy function. The enthalpy and entropy
$ of formation varies in a strange manner.
$
$ According to the Pauling file there is a Fe6Sc29 phase with structure
$ type Fe6Sc29 (cP140, Pm-3), but no FeSc7 phase.
$
$ ------------------------------------------------------------------------------
 TEMP-LIM 298.15 6000.00 !
$
$ELEMENT NAME  REF. STATE               ATOMIC MASS H298-H0    S298    !
$
 ELEMENT VA   VACUUM                      0.0          0.0      0.0    ! 
 ELEMENT FE   BCC_A2                     55.847     4489.0     27.2797 ! 
 ELEMENT SC   HCP_A3                     44.9559    5217.448   34.6435 ! 
$ ------------------------------------------------------------------------------
$ Phase definitions
$
 PHASE LIQUID:L % 1 1 !
 CONST LIQUID:L : FE SC : !
$
$ Fcc (cF4, Fm-3m) and MeX (cF8, Fm-3m)
$
 PHASE FCC_A1 %A 2 1 1 !
 CONST FCC_A1 : FE% SC : VA : !
$
$ Bcc (cI2, Im-3m)
$
 PHASE BCC_A2 %B 2 1 3 !
 CONST BCC_A2 : FE% SC% : VA : !
$
$ Hcp (hP2, P6_3/mmc) and Me2X (NiAs-type, hP4, P6_3/mmc, B8_1)
$
 PHASE HCP_A3 %A 2 1 0.5 !
 CONST HCP_A3 : FE SC% : VA : !
$
$ Prototype MgZn2 (hP12, P6_3/mmc), Cu2Mg (cF24, Fd-3m) and
$ MgNi2 (hP24, P6_3/mmc)
$
 PHASE FE2SC_LAVES % 2 2 1 !
 CONST FE2SC_LAVES : FE : SC : !
$
$ Unknown structure
$
 PHASE FESC7 % 2 1 7 !
 CONST FESC7 : FE : SC : !
$ ------------------------------------------------------------------------------
$ Defaults
$
 DEFINE-SYSTEM-DEFAULT ELEMENT 2 !
 DEFAULT-COM DEFINE_SYSTEM_ELEMENT VA !
 TYPE-DEF % SEQ * !
 TYPE-DEF A GES AMEND_PHASE_DESCRIPTION @ MAGNETIC -3 0.28 !
 TYPE-DEF B GES AMEND_PHASE_DESCRIPTION @ MAGNETIC -1 0.4 !
 FUNCTION ZERO      298.15  0;                                         6000 N !
 FUNCTION UN_ASS    298.15  0;                                         6000 N !
 FUNCTION R         298.15  +8.31451;                                  6000 N !
$ ------------------------------------------------------------------------------
$ Element data
$ ------------------------------------------------------------------------------
$ Fe
$
$ ORTHORHOMBIC_A20 and TETRAGONAL_U added im unary 4.1
$
 PAR  G(BCC_A2,FE:VA),,                 +GHSERFE;,,                   N 91Din !
 PAR  TC(BCC_A2,FE:VA),,                 1043.00;,,                   N 91Din !
 PAR  BM(BCC_A2,FE:VA),,                    2.22;,,                   N 91Din !
 PAR  G(FCC_A1,FE:VA),,                 +GFCCFE;,,                    N 91Din !
 PAR  TC(FCC_A1,FE:VA),,                 -201.00;,,                   N 91Din !
 PAR  BM(FCC_A1,FE:VA),,                   -2.10;,,                   N 91Din !
 PAR  G(HCP_A3,FE:VA),,                 +GHCPFE;,,                    N 91Din !
$PAR  G(CBCC_A12,FE:VA),,               +GHSERFE+4745;,,              N 91Din !
$PAR  G(CUB_A13,FE:VA),,                +GHSERFE+3745;,,              N 91Din !
$PAR  G(ORTHORHOMBIC_A20,FE),,          +GHSERFE+5000;,,              N 99SGUN !
$PAR  G(TETRAGONAL_U,FE),,              +GHSERFE+5000;,,              N 99SGUN !
 PAR  G(LIQUID,FE),,                    +GLIQFE;,,                    N 91Din !
$
 FUNCTION GHSERFE   298.15  +1225.7+124.134*T-23.5143*T*LN(T)
       -0.00439752*T**2-5.8927E-08*T**3+77359*T**(-1);
      1811.00  Y  -25383.581+299.31255*T-46*T*LN(T)+2.29603E+31*T**(-9);
      6000.00  N !
 FUNCTION GFCCFE    298.15  -1462.4+8.282*T-1.15*T*LN(T)
       +6.4E-04*T**2+GHSERFE;
      1811.00  Y  -1713.815+0.940009*T+GHSERFE+4.9251E+30*T**(-9);
      6000.00  N !
 FUNCTION GHCPFE    298.15  -3705.78+12.591*T-1.15*T*LN(T)
       +6.4E-04*T**2+GHSERFE;
      1811.00  Y  -3957.195+5.249009*T+GHSERFE+4.9251E+30*T**(-9);
      6000.00  N !
 FUNCTION GLIQFE    298.15  +12040.17-6.55843*T+GHSERFE-3.67516E-21*T**7;
      1811.00  Y  -10838.83+291.302*T-46*T*LN(T);
      6000.00  N !
$ ------------------------------------------------------------------------------
$ Sc
$
$ FCC_A1 and DHCP added in unary 4.4
$
 PAR  G(HCP_A3,SC:VA),,                 +GHSERSC;                3200 N 91Din !
 PAR  G(BCC_A2,SC:VA),,                 +GBCCSC;                 3200 N 91Din !
 PAR  G(FCC_A1,SC:VA),,                 +GHSERSC+5000;           3200 N 99Cac !
$PAR  G(DHCP,SC),,                      +GHSERSC
$            +1200+0.4157255*T;                                  3200 N 00Nor2 !
 PAR  G(LIQUID,SC),,                    +GLIQSC;                 3200 N 91Din !
$
 FUNCTION GHSERSC   298.15  -8689.547+153.48097*T-28.1882*T*LN(T)
       +0.00321892*T**2-1.64531E-06*T**3+72177*T**(-1);
       800.00  Y  -7511.295+132.759582*T-24.9132*T*LN(T)
       -5.73295E-04*T**2-8.59345E-07*T**3;
      1608.00  Y  +261143.04-1817.92245*T+241.441051*T*LN(T)
       -0.117529396*T**2+8.7398E-06*T**3-50607159*T**(-1);
      2000.00  Y  -30515.246+286.474338*T-44.2249*T*LN(T);
      3200.00  N !
 FUNCTION GBCCSC    298.15  +1979.728-1.024135*T+GHSERSC;
      1000.00  Y  +230161.408-2004.05469*T+276.76664*T*LN(T)
       -0.167120107*T**2+1.5637371E-05*T**3-33783257*T**(-1);
      1608.00  Y  -25928.011+283.642312*T-44.2249*T*LN(T);
      2000.00  Y  +4587.235-2.832026*T+GHSERSC;
      3200.00  N !
 FUNCTION GLIQSC    298.15  +6478.66+45.427539*T-10.7967803*T*LN(T)
       -0.020636524*T**2+2.13106E-06*T**3-158106*T**(-1);
      1608.00  Y  -11832.111+275.871695*T-44.2249*T*LN(T);
      3200.00  N !
$ ------------------------------------------------------------------------------
$ Binary system
$
$ GTT, unpublished, 2008.
$
$ Checked against GTT plot. Checked at 6000 K.
$
$ In this system all three Laves phases appear to be stable, but only one
$ Fe2Sc phase is modelled.
$
$ Fe2Sc has a very strange Gibbs energy function. The enthalpy and entropy
$ of formation varies in a strange manner.
$
$ According to the Pauling file there is a Fe6Sc29 phase with structure
$ type Fe6Sc29 (cP140, Pm-3), but no FeSc7 phase.
$
 PAR  L(LIQUID,FE,SC;0),,               -44840+6.339*T;,,             N 08GTT3 !
 PAR  L(LIQUID,FE,SC;1),,               +20000-17.391*T;,,            N 08GTT3 !
$
 PAR  L(FCC_A1,FE,SC:VA;0),,            -9000;,,                      N 08GTT3 !
$
 PAR  L(BCC_A2,FE,SC:VA;0),,            +6450;,,                      N 08GTT3 !
 PAR  L(BCC_A2,FE,SC:VA;1),,            -12000;,,                     N 08GTT3 !
$
 PAR  L(HCP_A3,FE,SC:VA;0),,            +40000;,,                     N 08GTT3 !
$
 PAR  G(FE2SC_LAVES,FE:SC),,            +GFE2SC;,,                    N 08GTT3 !
 PAR  G(FESC7,FE:SC),,                  +GHSERFE+7*GHSERSC
             -39300+6.656*T;,,                                        N 08GTT3 !
$
 FUNCTION GFE2SC    298.15  -83144.8+428.289*T-77.5168*T*LN(T)
       -0.00429612*T**2-1.76316E-06*T**3+226895*T**(-1);
       800.00  Y  -81966.5+407.567*T-74.2418*T*LN(T)
       -0.00808834*T**2-9.77199E-07*T**3+154718*T**(-1);
      1000.00  Y  -116084+223.534*T-38.9162*T*LN(T)
       -0.057679*T**2+5.92037E-06*T**3+1.69786E+07*T**(-1);
      1608.00  Y  +187560-1543.51*T+192.112*T*LN(T)
       -0.125044*T**2+8.62195E-06*T**3-5.04524E+07*T**(-1);
      1811.00  Y  +133838-1207.84*T+149.441*T*LN(T)
       -0.117529*T**2+8.7398E-06*T**3-5.06072E+07*T**(-1)
       +5.57708E+31*T**(-9);
      2000.00  Y  -146927+853.912*T-131.323*T*LN(T);
      2001.00  N !
$ ------------------------------------------------------------------------------
$
$
 LIST-OF-REFERENCE
 NUMBER  SOURCE
  Null   'Unknown source'
  Same   'Same or similar interaction as in the corresponding stable phase'
  COST   'COST 507 database'
  91Din  'A.T. Dinsdale, Calphad, 15, 317-425(1991).'
  99Cac  'G. Cacciamani, P. Riani, G. Borzone, N. Parodi, A. Saccone, R. Ferro,
          A. Pisch, R. Schmid-Fetzer, Intermetallics, 7, 101-8(1999)
          SGTE unary database V.4.4, 2001; Sc'
  99SGUN 'SGTE unary database V.4.1, 1999.'
  00Nor2 'S. Norgren, PhD Thesis, KTH, Stockholm, 2000,
          SGTE unary database V.4.4, 2001; Nd, Sc'
  08GTT3 'GTT, unpublished, 2008; Fe-Sc'
!
