$
$ Database for Gd-Mn from J. Groebner et al. 2001 (included in LB Vol. 5)
$
$ J. Groebner, A. Pisch, R. Schmid-Fetzer,
$ J. Alloys Compd., 317-318, 433-37(2001).
$
$ Dataset created 2016.02.12 by Bengt Hallstedt.
$ 2021.01.03: Modified for use with GES6.
$
$ Liquid and intermetallic phases modified by P. Franke to use current SGTE
$ data for Gd (95She2 instead of 91Din).
$
$ The fcc, bcc and hcp interactions are most probably too large.
$
$ Invariant equilibria from 01Gro are reproduced with minor differences.
$
$ ------------------------------------------------------------------------------
 TEMP-LIM 298.15 6000.00 !
$
$ELEMENT NAME  REF. STATE               ATOMIC MASS H298-H0    S298    !
$
 ELEMENT VA   VACUUM                      0.0          0.0      0.0    ! 
 ELEMENT GD   HCP_A3                    157.25      9087.648   68.0894 ! 
 ELEMENT MN   CBCC_A12                   54.9380    4995.696   32.2206 ! 
$ ------------------------------------------------------------------------------
$ Phase definitions
$
 PHASE LIQUID:L % 1 1 !
 CONST LIQUID:L : GD MN : !
$
$ Fcc (cF4, Fm-3m) and MeX (cF8, Fm-3m)
$
 PHASE FCC_A1 %A 2 1 1 !
 CONST FCC_A1 : GD MN : VA : !
$
$ Bcc (cI2, Im-3m)
$
 PHASE BCC_A2 %B 2 1 3 !
 CONST BCC_A2 : GD MN : VA : !
$
$ Hcp (hP2, P6_3/mmc) and Me2X (NiAs-type, hP4, P6_3/mmc, B8_1)
$
 PHASE HCP_A3 %A 2 1 0.5 !
 CONST HCP_A3 : GD MN : VA : !
$
$ Prototype alpha-Mn (cI58, I-43m)
$
 PHASE CBCC_A12 %A 2 1 1 !
 CONST CBCC_A12 : MN : VA : !
$
$ Prototype beta-Mn (cP20, P4_132)
$
 PHASE CUB_A13 % 2 1 1 !
 CONST CUB_A13 : MN : VA : !
$
$ Prototype Cu2Mg (cF24, Fd-3m)
$
 PHASE GDMN2_C15 % 2 1 2 !
 CONST GDMN2_C15 : GD : MN : !
$
$ Prototype Mn23Th6 (cF116, Fm-3m)
$
 PHASE GD6MN23_D8A % 2 6 23 !
 CONST GD6MN23_D8A : GD : MN : !
$
$ Prototype Mn12Th (tI26, I4/mmm)
$
 PHASE GDMN12_D2B % 2 1 12 !
 CONST GDMN12_D2B : GD : MN : !
$ ------------------------------------------------------------------------------
$ Defaults
$
 DEFINE-SYSTEM-DEFAULT ELEMENT 2 !
 DEFAULT-COM DEFINE_SYSTEM_ELEMENT VA !
 TYPE-DEF % SEQ * !
 TYPE-DEF A GES AMEND_PHASE_DESCRIPTION @ MAGNETIC -3 0.28 !
 TYPE-DEF B GES AMEND_PHASE_DESCRIPTION @ MAGNETIC -1 0.4 !
 FUNCTION ZERO      298.15  0;                                         6000 N !
 FUNCTION UN_ASS    298.15  0;                                         6000 N !
 FUNCTION R         298.15  +8.31451;                                  6000 N !
$ ------------------------------------------------------------------------------
$ Element data
$ ------------------------------------------------------------------------------
$ Gd
$
$ HCP_A3, BCC_A2 and LIQUID revised in unary 3.0
$ Small correction made to top two temperature ranges of bcc_A2 to ensure 
$ continuity in Gibbs energy, AD, Dec 2002
$ FCC_A1 added in unary 4.4
$
 PAR  G(HCP_A3,GD:VA)           200.00  +GHSERGD;                3600 N 95She2 !
 PAR  TC(HCP_A3,GD:VA)          200.00    293.4;                 3600 N 95She2 !
 PAR  BMAGN(HCP_A3,GD:VA)       200.00      3.0;                 3600 N 95She2 !
$PAR  TC(HCP_A3,GD:VA)          200.00    291.8;                 3600 N 91Din !
$PAR  BMAGN(HCP_A3,GD:VA)       200.00      3.0;                 3600 N 91Din !
 PAR  G(FCC_A1,GD:VA)           200.00  +GHSERGD+500;            3600 N 00Zin !
 PAR  G(BCC_A2,GD:VA)           200.00  +GBCCGD;                 3600 N 95She2 !
 PAR  G(LIQUID,GD)              200.00  +GLIQGD;                 3600 N 95She2 !
$
 FUNCTION GHSERGD   200.00  -6834.5855+97.13101*T-24.7214131*T*LN(T)
       -0.00285240521*T**2-3.14674076E-07*T**3-8665.73348*T**(-1);
      1000.00  Y  -6483.25362+95.6919924*T-24.6598297*T*LN(T)
       -0.00185225011*T**2-6.61211607E-07*T**3;
      1508.15  Y  -123124.992+699.125537*T-101.800197*T*LN(T)
       +0.0150644246*T**2-6.39165948E-07*T**3+29356890.3*T**(-1);
      3600.00  N !
 FUNCTION GBCCGD    200.00  +3233.80866-2.11184585*T+GHSERGD;
      1000.00  Y  +152792.743-1349.58873*T+180.097094*T*LN(T)
       -0.119550229*T**2+1.17915728E-05*T**3-22038836*T**(-1);
      1508.15  Y  -15783.7618+202.222183*T-38.960425*T*LN(T);
      1586.15  Y  -19850.5562+224.818035*T-41.904333*T*LN(T)
       +8.58222759E-04*T**2-3.77570269E-08*T**3+995428.573*T**(-1);
      3600.00  N !
 FUNCTION GLIQGD    200.00  +13060.0262-8.32179974*T+GHSERGD;
      1000.00  Y  +146262.037-1208.70685*T+159.352082*T*LN(T)
       -0.108247135*T**2+1.06945505E-05*T**3-19678357*T**(-1);
      1508.15  Y  -5397.314+192.336215*T-38.5075*T*LN(T);
      3600.00  N !
$ ------------------------------------------------------------------------------
$ Mn
$
 PAR  G(CBCC_A12,MN:VA),,               +GHSERMN;                2000 N 91Din !
 PAR  TC(CBCC_A12,MN:VA),,               -285.00;                2000 N 91Din !
 PAR  BM(CBCC_A12,MN:VA),,                 -0.66;                2000 N 91Din !
 PAR  G(CUB_A13,MN:VA),,                +GCUBMN;                 2000 N 91Din !
 PAR  G(FCC_A1,MN:VA),,                 +GFCCMN;                 2000 N 91Din !
 PAR  TC(FCC_A1,MN:VA),,                -1620.00;                2000 N 91Din !
 PAR  BM(FCC_A1,MN:VA),,                   -1.86;                2000 N 91Din !
 PAR  G(BCC_A2,MN:VA),,                 +GBCCMN;                 2000 N 91Din !
 PAR  TC(BCC_A2,MN:VA),,                 -580.00;                2000 N 91Din !
 PAR  BM(BCC_A2,MN:VA),,                   -0.27;                2000 N 91Din !
 PAR  G(HCP_A3,MN:VA),,                 +GHCPMN;                 2000 N 91Din !
 PAR  TC(HCP_A3,MN:VA),,                -1620.00;                2000 N 91Din !
 PAR  BM(HCP_A3,MN:VA),,                   -1.86;                2000 N 91Din !
 PAR  G(LIQUID,MN),,                    +GLIQMN;                 2000 N 91Din !
$
 FUNCTION GHSERMN   298.15  -8115.28+130.059*T-23.4582*T*LN(T)
       -0.00734768*T**2+69827*T**(-1);
      1519.00  Y  -28733.41+312.2648*T-48*T*LN(T)+1.656847E+30*T**(-9);
      2000.00  N !
 FUNCTION GCUBMN    298.15  -5800.4+135.995*T-24.8785*T*LN(T)
       -0.00583359*T**2+70269*T**(-1);
      1519.00  Y  +442.65-0.9715*T+GHSERMN+2.310723E+30*T**(-9);
      2000.00  N !
 FUNCTION GFCCMN    298.15  -3439.3+131.884*T-24.5177*T*LN(T)
       -0.006*T**2+69600*T**(-1);
      1519.00  Y  +2663.31-2.5984*T+GHSERMN+2.205113E+30*T**(-9);
      2000.00  N !
 FUNCTION GBCCMN    298.15  -3235.3+127.85*T-23.7*T*LN(T)
       -0.00744271*T**2+60000*T**(-1);
      1519.00  Y  +5544.58-4.5605*T+GHSERMN-3.91695E+29*T**(-9);
      2000.00  N !
 FUNCTION GHCPMN    298.15  -4439.3+133.007*T-24.5177*T*LN(T)
       -0.006*T**2+69600*T**(-1);
      1519.00  Y  +1663.31-1.4754*T+GHSERMN+2.205113E+30*T**(-9);
      2000.00  N !
 FUNCTION GLIQMN    298.15  +17859.91-12.6208*T+GHSERMN-4.41929E-21*T**7;
      1519.00  Y  -9993.9+299.036*T-48*T*LN(T);
      2000.00  N !
$ ------------------------------------------------------------------------------
$ Binary system
$
$ From J. Groebner et al. 2001 (included in LB Vol. 5)
$
$ J. Groebner, A. Pisch, R. Schmid-Fetzer,
$ J. Alloys Compd., 317-318, 433-37(2001).
$
$ Liquid and intermetallic phases modified by P. Franke to use current SGTE
$ data for Gd (95She2 instead of 91Din).
$
$ Checked against LB and paper. Checked at 6000 K.
$
$ The fcc, bcc and hcp interactions are most probably too large.
$
$ Invariant equilibria from 01Gro are reproduced with minor differences.
$
$PAR  L(LIQUID,GD,MN;0),,               -5020.87+0.56166*T;,,         N 01Gro !
$PAR  L(LIQUID,GD,MN;1),,               +1041.42;,,                   N 01Gro !
 PAR  L(LIQUID,GD,MN;0),,               -13585+10*T;,,                N 05Fra !
 PAR  L(LIQUID,GD,MN;1),,               +883;,,                       N 05Fra !
$
 PAR  L(FCC_A1,GD,MN:VA;0),,            +50000;,,                     N 01Gro !
 PAR  L(BCC_A2,GD,MN:VA;0),,            +50000;,,                     N 01Gro !
 PAR  L(HCP_A3,GD,MN:VA;0),,            +50000;,,                     N 01Gro !
$
$PAR  G(GDMN2_C15,GD:MN),,              +GHSERGD+2*GHSERMN
$            -19242+2.87*T;,,                                         N 01Gro !
$PAR  G(GD6MN23_D8A,GD:MN),,            +6*GHSERGD+23*GHSERMN
$            -185000+27.6*T;,,                                        N 01Gro !
$PAR  G(GDMN12_D2B,GD:MN),,             +GHSERGD+12*GHSERMN
$            -52000+12.1*T;,,                                         N 01Gro !
 PAR  G(GDMN2_C15,GD:MN),,              +GHSERGD+2*GHSERMN
             -19972+5.03*T;,,                                         N 05Fra !
 PAR  G(GD6MN23_D8A,GD:MN),,            +6*GHSERGD+23*GHSERMN
             -189261+45.85*T;,,                                       N 05Fra !
 PAR  G(GDMN12_D2B,GD:MN),,             +GHSERGD+12*GHSERMN
             -53108+15.45*T;,,                                        N 05Fra !
$ ------------------------------------------------------------------------------
$
 ASSESSED_SYSTEM
  GD-MN(TDB -* +LIQUID +FCC_A1 +BCC_A2 +HCP_A3 +CBCC_A12 +CUB_A13 +GDMN12_D2B
  +GD6MN23_D8A +GDMN2_C15 ;G5 C_S:BCC_A2/MN:VA MAJ:BCC_A2/GD:VA ;P3 *) !
$
$
 LIST-OF-REFERENCE
 NUMBER  SOURCE
  Null   'Unknown source'
  Same   'Same or similar interaction as in the corresponding stable phase'
  COST   'COST 507 database'
  REFLAV 'Laves phase convention: G(LAVES,X:X)=+3*GHSERXX+15000'
  91Din  'A.T. Dinsdale, Calphad, 15, 317-425(1991).'
  95She2 'H. Shen, W. Zhang, G. Liu, R. Wang, Z. Du, Report F-95-02,
          University of Science and Technology, Beijing, May 1995,
          SGTE unary database V.3.0, 1996; Gd'
  00Zin  'M. Zinkevich, N. Mattern, H. J Seifert,
          J. Phase Equilib., 21, 385-94(2000),
          SGTE unary database V.4.4, 2001; Gd'
  01Gro  'J. Groebner, A. Pisch, R. Schmid-Fetzer,
          J. Alloys Compd., 317-318, 433-37(2001); Gd-Mn'
  05Fra  'P. Franke, adjustment to the more recent Gd element data, 2005; Gd-Mn'
!
