$
$ Database for Ca-V from J.F. Smith and K.J. Lee 1988.
$
$ J.F. Smith, K.J. Lee, Bull. Alloy Phase Diag., 9, 466-69(1988).
$
$ Dataset created 2018.05.06 by Bengt Hallstedt.
$ 2020.12.25: Modified for use with GES6.
$
$ The Miedema model was used to estimate interactions.
$
$ ------------------------------------------------------------------------------
 TEMP-LIM 298.15 6000.00 !
$
$ELEMENT NAME  REF. STATE               ATOMIC MASS H298-H0    S298    !
$
 ELEMENT VA   VACUUM                      0.0          0.0      0.0    ! 
 ELEMENT CA   FCC_A1                     40.08      5736.0     41.588  ! 
 ELEMENT V    BCC_A2                     50.9415    4507.0     30.89   ! 
$ ------------------------------------------------------------------------------
$ Phase definitions
$
 PHASE LIQUID:L % 1 1 !
 CONST LIQUID:L : CA V : !
$
$ Fcc (cF4, Fm-3m) and MeX (cF8, Fm-3m)
$
 PHASE FCC_A1 %A 2 1 1 !
 CONST FCC_A1 : CA% V : VA : !
$
$ Bcc (cI2, Im-3m)
$
 PHASE BCC_A2 %B 2 1 3 !
 CONST BCC_A2 : CA% V% : VA : !
$
$ Hcp (hP2, P6_3/mmc) and Me2X (NiAs-type, hP4, P6_3/mmc, B8_1)
$
 PHASE HCP_A3 %A 2 1 0.5 !
 CONST HCP_A3 : CA V : VA : !
$ ------------------------------------------------------------------------------
$ Defaults
$
 DEFINE-SYSTEM-DEFAULT ELEMENT 2 !
 DEFAULT-COM DEFINE_SYSTEM_ELEMENT VA !
 TYPE-DEF % SEQ * !
 TYPE-DEF A GES AMEND_PHASE_DESCRIPTION @ MAGNETIC -3 0.28 !
 TYPE-DEF B GES AMEND_PHASE_DESCRIPTION @ MAGNETIC -1 0.4 !
 FUNCTION ZERO      298.15  0;                                         6000 N !
 FUNCTION UN_ASS    298.15  0;                                         6000 N !
 FUNCTION R         298.15  +8.31451;                                  6000 N !
$ ------------------------------------------------------------------------------
$ Element data
$ ------------------------------------------------------------------------------
$ Ca
$
$ FCC_A1, BCC_A2, HCP_A3 and LIQUID modified in unary 5.0
$ (upper T interval added + trailing decimals added)
$
 PAR  G(FCC_A1,CA:VA),,                 +GHSERCA;                3001 N 91Din !
 PAR  G(BCC_A2,CA:VA),,                 +GBCCCA;                 3001 N 91Din !
 PAR  G(HCP_A3,CA:VA),,                 +GHSERCA+500+0.7*T;      3001 N 91Din !
 PAR  G(LIQUID,CA),,                    +GLIQCA;                 3001 N 91Din !
$
 FUNCTION GHSERCA   298.15  -4955.062+72.794266*T-16.3138*T*LN(T)
       -0.01110455*T**2-133574*T**(-1);
      1115.00  Y  -107304.428+799.982066*T-114.2922467*T*LN(T)
       +0.023733814*T**2-1.2438E-06*T**3+18245540*T**(-1);
      3000.00  Y  -3703.12+192.63995*T-35.0*T*LN(T);
      3001.00  N !
 FUNCTION GBCCCA    298.15  -7020.852+142.970155*T-28.2541*T*LN(T)
       +0.0072326*T**2-4.500217E-06*T**3+60578*T**(-1);
       716.00  Y  +1640.475+1.999694*T-6.276*T*LN(T)
       -0.0161921*T**2-523000*T**(-1);
      1115.00  Y  -142331.096+1023.549046*T-143.8726979*T*LN(T)
       +0.032543127*T**2-1.704079E-06*T**3+25353771*T**(-1);
      3000.00  Y  +321.63+189.433057*T-35*T*LN(T);
      3001.00  N !
 FUNCTION GLIQCA    298.15  +10799.908-10.310466*T+GHSERCA;
       500.00  Y  +7838.856+18.2979*T-8.9874787*T*LN(T)
       -0.02266537*T**2+3.338303E-06*T**3-230193*T**(-1);
      1115.00  Y  -2654.938+188.9223*T-35*T*LN(T);
      3001.00  N !
$ ------------------------------------------------------------------------------
$ V
$
 PAR  G(BCC_A2,V:VA),,                  +GHSERVV;                4000 N 91Din !
 PAR  G(FCC_A1,V:VA),,                  +GHSERVV+7500+1.7*T;     4000 N 91Din !
 PAR  G(HCP_A3,V:VA),,                  +GHSERVV+4000+2.4*T;     4000 N 91Din !
$PAR  G(CBCC_A12,V:VA),,                +GHSERVV+9000;           4000 N 91Din !
$PAR  G(CUB_A13,V:VA),,                 +GHSERVV+10000;          4000 N 91Din !
 PAR  G(LIQUID,V),,                     +GLIQVV;                 4000 N 91Din !
$
 FUNCTION GHSERVV   298.15  -7930.43+133.346053*T-24.134*T*LN(T)
       -0.003098*T**2+1.2175E-07*T**3+69460*T**(-1);
       790.00  Y  -7967.842+143.291093*T-25.9*T*LN(T)
       +6.25E-05*T**2-6.8E-07*T**3;
      2183.00  Y  -41689.864+321.140783*T-47.43*T*LN(T)+6.44389E+31*T**(-9);
      4000.00  N !
 FUNCTION GLIQVV    298.15  +20764.117-9.455552*T+GHSERVV-5.19136E-22*T**7;
      2183.00  Y  -19617.51+311.055983*T-47.43*T*LN(T);
      4000.00  N !
$ ------------------------------------------------------------------------------
$ Binary system
$
$ J.F. Smith, K.J. Lee, Bull. Alloy Phase Diag., 9, 466-69(1988).
$
$ Checked against paper. Checked at 6000 K.
$
$ The Miedema model was used to estimate interactions.
$
 PAR  L(LIQUID,CA,V;0),,                +173437;,,                    N 88Smi !
$
 PAR  L(FCC_A1,CA,V:VA;0),,             +173437;,,                    N 88Smi !
 PAR  L(BCC_A2,CA,V:VA;0),,             +173437;,,                    N 88Smi !
$
$ Metastable
$
 PAR  L(HCP_A3,CA,V:VA;0),,             +173437;,,                    N Same !
$ ------------------------------------------------------------------------------
$
$
 LIST-OF-REFERENCE
 NUMBER  SOURCE
  Null   'Unknown source'
  Same   'Same or similar interaction as in the corresponding stable phase'
  COST   'COST 507 database'
  88Smi  'J.F. Smith, K.J. Lee, Bull. Alloy Phase Diag., 9, 466-69(1988); Ca-V'
  91Din  'A.T. Dinsdale, Calphad, 15, 317-425(1991).'
!
