$
$ Database for Eu-Pb from D. Wang et al. 2013.
$
$ D. Wang, Y. Yu, X.J. Liu, C.P. Wang, Calphad, 41, 20-25(2013).
$
$ Dataset created 2018.07.01 by Bengt Hallstedt.
$ 2020.12.26: Modified for use with GES6.
$
$ ------------------------------------------------------------------------------
 TEMP-LIM 298.15 6000.00 !
$
$ELEMENT NAME  REF. STATE               ATOMIC MASS H298-H0    S298    !
$
 ELEMENT VA   VACUUM                      0.0          0.0      0.0    ! 
 ELEMENT EU   BCC_A2                    151.96      8004.0     80.79304! 
 ELEMENT PB   FCC_A1                    207.2       6870.      64.80   ! 
$ ------------------------------------------------------------------------------
$ Phase definitions
$
 PHASE LIQUID:L % 1 1 !
 CONST LIQUID:L : EU PB : !
$
$ Fcc (cF4, Fm-3m) and MeX (cF8, Fm-3m)
$
 PHASE FCC_A1 %A 2 1 1 !
 CONST FCC_A1 : EU PB% : VA : !
$
$ Bcc (cI2, Im-3m)
$
 PHASE BCC_A2 %B 2 1 3 !
 CONST BCC_A2 : EU% PB : VA : !
$
$ Hcp (hP2, P6_3/mmc) and Me2X (NiAs-type, hP4, P6_3/mmc, B8_1)
$
 PHASE HCP_A3 %A 2 1 0.5 !
 CONST HCP_A3 : PB : VA : !
$
$ Prototype Co2Si (oP12, Pnma)
$
 PHASE EU2PB_C37 % 2 2 1 !
 CONST EU2PB_C37 : EU : EU PB% : !
$
$ Prototype Si3W5 (tI32, I4/mcm)
$
 PHASE EU5PB3_D8M % 2 5 3 !
 CONST EU5PB3_D8M : EU : PB : !
$
$ Prototype AuCu (tP4, P4/mmm)
$
 PHASE EUPB_L10 % 2 1 1 !
 CONST EUPB_L10 : EU : EU PB% : !
$
$ unknown structure
$
 PHASE EUPB_HT % 2 1 1 !
 CONST EUPB_HT : EU : EU PB% : !
$
$ Prototype AuCu3 (cP4, Pm-3m)
$
 PHASE EUPB3_L12 % 2 1 3 !
 CONST EUPB3_L12 : EU : PB : !
$ ------------------------------------------------------------------------------
$ Defaults
$
 DEFINE-SYSTEM-DEFAULT ELEMENT 2 !
 DEFAULT-COM DEFINE_SYSTEM_ELEMENT VA !
 TYPE-DEF % SEQ * !
 TYPE-DEF A GES AMEND_PHASE_DESCRIPTION @ MAGNETIC -3 0.28 !
 TYPE-DEF B GES AMEND_PHASE_DESCRIPTION @ MAGNETIC -1 0.4 !
 FUNCTION ZERO      298.15  0;                                         6000 N !
 FUNCTION UN_ASS    298.15  0;                                         6000 N !
 FUNCTION R         298.15  +8.31451;                                  6000 N !
$ ------------------------------------------------------------------------------
$ Element data
$ ------------------------------------------------------------------------------
$ Eu
$
$ BCC_A2 modified in unary 5.0
$ (upper T interval added + trailing decimals added)
$
$ FCC_A1 from SGSOL 5.0 not included in unary (this value is absurd!)
$ FCC_A1 from 13Wan not included in unary
$
 PAR  G(BCC_A2,EU:VA),,                 +GHSEREU;                1900 N 91Din !
$PAR  G(FCC_A1,EU:VA),,                 +GHSEREU+180000;         1901 N 01Du !
 PAR  G(FCC_A1,EU:VA),,                 +GHSEREU+5000;           1901 N 13Wan !
 PAR  G(LIQUID,EU),,                    +GLIQEU;                 1900 N 91Din !
$
 PAR  G(EU2PB_C37,EU:EU),,              +3*GHSEREU+15000;,,           N 13Wan !
 PAR  G(EUPB_L10,EU:EU),,               +2*GHSEREU+10000;,,           N 13Wan !
 PAR  G(EUPB_HT,EU:EU),,                +2*GHSEREU+8000;,,            N 13Wan !
$
 FUNCTION GHSEREU   298.15  -9864.965+135.836737*T-32.8418896*T*LN(T)
       +0.00931735*T**2-4.006564E-06*T**3+102717*T**(-1);
      1095.00  Y  -287423.476+2174.733036*T-309.3571009*T*LN(T)
       +0.114530917*T**2-8.809866E-06*T**3+48455305*T**(-1);
      1900.00  Y  -13663.125+182.113799*T-38.11624*T*LN(T);
      1901.00  N !
 FUNCTION GLIQEU    298.15  +8382.505-7.175215*T+GHSEREU;
       400.00  Y  +10972.726-103.688201*T+4.3501554*T*LN(T)
       -0.036811218*T**2+5.452934E-06*T**3-646908*T**(-1);
      1095.00  Y  -6890.641+175.517247*T-38.11624*T*LN(T);
      1900.00  N !
$ ------------------------------------------------------------------------------
$ Pb
$
$ RHOMBOHEDRAL_A7 and TETRAGONAL_A6 added in unary 3.0
$ RHOMBOHEDRAL_A7, TETRAGONAL_A6 and TET_ALPHA1_A6 revised in unary 4.1
$ RHOMBO_A10 added in unary 5.0
$
 PAR  G(FCC_A1,PB:VA),,                 +GHSERPB;                2100 N 91Din !
 PAR  G(BCC_A2,PB:VA),,                 +GHSERPB+2400-1.1*T;     2100 N 91Din !
 PAR  G(HCP_A3,PB:VA),,                 +GHSERPB+300+T;          2100 N 91Din !
$PAR  G(BCT_A5,PB),,                    +GHSERPB+489+3.52*T;     2100 N 91Din !
$PAR  G(TETRAGONAL_A6,PB),,             +GHSERPB+4493.235;       2100 N 98Boa !
$PAR  G(TETRAGONAL_A6,PB),,             +GHSERPB+473.23+3.5531*T
$            -0.0396834*T*LN(T)+2.1489E-05*T**2;                 2100 N 96SGUN !
$PAR  G(TET_ALPHA1_A6,PB),,             +GHSERPB
$            +1903.3-2.0602*T;                                   2100 N 98Boa !
$PAR  G(TET_ALPHA1_A6,PB),,             +GHSERPB+183.2+0.45314*T
$            -0.0396834*T*LN(T)+2.149E-06*T**2;                  2100 N 91Din !
$PAR  G(RHOMBOHEDRAL_A7,PB),,           +GHSERPB+300+T;          2100 N 99SGUN !
$PAR  G(RHOMBOHEDRAL_A7,PB),,           +GHSERPB+4900+3.52*T;    2100 N 96SGUN !
$PAR  G(RHOMBO_A10,PB),,                +GHSERPB+10;             2100 N 09SGUN !
 PAR  G(LIQUID,PB),,                    +GLIQPB;                 2100 N 91Din !
$
 FUNCTION GHSERPB   298.15  -7650.085+101.700244*T-24.5242231*T*LN(T)
       -0.00365895*T**2-2.4395E-07*T**3;
       600.61  Y  -10531.095+154.243182*T-32.4913959*T*LN(T)
       +0.00154613*T**2+8.05448E+25*T**(-9);
      1200.00  Y  +4157.616+53.139072*T-18.9640637*T*LN(T)
       -0.002882943*T**2+9.8144E-08*T**3-2696755*T**(-1)+8.05448E+25*T**(-9);
      2100.00  N !
 FUNCTION GLIQPB    298.15  +4672.124-7.750683*T+GHSERPB-6.019E-19*T**7;
       600.61  Y  +4853.137-8.067136*T+GHSERPB-8.05448E+25*T**(-9);
      2100.00  N !
$ ------------------------------------------------------------------------------
$ Binary system
$
$ D. Wang, Y. Yu, X.J. Liu, C.P. Wang, Calphad, 41, 20-25(2013).
$
$ Checked against paper and author's tdb. Checked at 6000 K.
$
 PAR  L(LIQUID,EU,PB;0),,               -115500+17.6*T;,,             N 13Wan !
 PAR  L(LIQUID,EU,PB;1),,               +32000-3*T;,,                 N 13Wan !
 PAR  L(LIQUID,EU,PB;2),,               +20000-5*T;,,                 N 13Wan !
$
 PAR  L(FCC_A1,EU,PB:VA;0),,            +ZERO;,,                      N 13Wan !
 PAR  L(BCC_A2,EU,PB:VA;0),,            +ZERO;,,                      N 13Wan !
$
 PAR  G(EU2PB_C37,EU:PB),,              +2*GHSEREU+GHSERPB
             -79350-7.05*T;,,                                         N 13Wan !
 PAR  L(EU2PB_C37,EU:EU,PB;0),,         +12600;,,                     N 13Wan !
$
 PAR  G(EU5PB3_D8M,EU:PB),,             +5*GHSEREU+3*GHSERPB
             -224400-18.8*T;,,                                        N 13Wan !
$
 PAR  G(EUPB_L10,EU:PB),,               +GHSEREU+GHSERPB
             -66400-1.4*T;,,                                          N 13Wan !
 PAR  L(EUPB_L10,EU:EU,PB;0),,          -10000;,,                     N 13Wan !
$
 PAR  G(EUPB_HT,EU:PB),,                +GHSEREU+GHSERPB
             -60800-6.28*T;,,                                         N 13Wan !
 PAR  L(EUPB_HT,EU:EU,PB;0),,           -30000+16*T;,,                N 13Wan !
$
 PAR  G(EUPB3_L12,EU:PB),,              +GHSEREU+3*GHSERPB
             -184000+68*T;,,                                          N 13Wan !
$ ------------------------------------------------------------------------------
$
$
 LIST-OF-REFERENCE
 NUMBER  SOURCE
  Null   'Unknown source'
  Same   'Same or similar interaction as in the corresponding stable phase'
  REFLAV 'Laves phase convention: G(LAVES,X:X)=+3*GHSERXX+15000'
  91Din  'A.T. Dinsdale, Calphad, 15, 317-425(1991).'
  96SGUN 'SGTE unary database V.3.0, 1996.'
  98Boa  'D. Boa, I. Ansara, Thermochim. Acta, 314, 79-86(1998),
          SGTE unary database V.4.1, 1999; In, Pb'
  99SGUN 'SGTE unary database V.4.1, 1999.'
  01Du   'Z. Du, Y. He, J. Alloys Compd., 327, 127-31(2001); Eu'
  09SGUN 'SGTE unary database V.5.0, 2009.'
  13Wan  'D. Wang, Y. Yu, X.J. Liu, C.P. Wang,
          Calphad, 41, 20-25(2013); Eu, Lu, Eu-Pb'
!
