$
$ Database for Ba-Mg from X. Ren et al. 2013
$
$ X. Ren, C. Li, Z. Du, C. Guo, S. Chen,
$ Int. J. Mater. Res., 104, 358-363(2013).
$
$ Dataset created 2014.05.06 by Bengt Hallstedt.
$ 2020.12.22: Modified for use with GES6.
$
$ ------------------------------------------------------------------------------
 TEMP-LIM 298.15 6000.00 !
$
$ELEMENT NAME  REF. STATE               ATOMIC MASS H298-H0    S298    !
$
 ELEMENT VA   VACUUM                      0.0          0.0      0.0    ! 
 ELEMENT BA   BCC_A2                    137.33      6910.0     62.50   ! 
 ELEMENT MG   HCP_A3                     24.305     4998.      32.671  !
$ ------------------------------------------------------------------------------
$ Phase definitions
$
 PHASE LIQUID:L % 1 1 !
 CONST LIQUID:L : BA MG : !
$
$ Fcc (cF4, Fm-3m) and MeX (cF8, Fm-3m)
$
 PHASE FCC_A1 %A 2 1 1 !
 CONST FCC_A1 : BA MG : VA : !
$
$ Bcc (cI2, Im-3m)
$
 PHASE BCC_A2 %B 2 1 3 !
 CONST BCC_A2 : BA% MG : VA : !
$
$ Hcp (hP2, P6_3/mmc) and Me2X (NiAs-type, hP4, P6_3/mmc, B8_1)
$
 PHASE HCP_A3 %A 2 1 0.5 !
 CONST HCP_A3 : BA MG% : VA : !
$
$ Prototype MgZn2 (hP12, P6_3/mmc)
$
 PHASE BAMG2_C14 % 2 0.333 0.667 !
 CONST BAMG2_C14 : BA : MG : !
$
$ Prototype Mn23Th6 (cF116, Fm-3m)
$
 PHASE BA6MG23_D8A % 2 0.207 0.793 !
 CONST BA6MG23_D8A : BA : MG : !
$
$ Prototype Th2Zn17 (hR19, R-3m)
$
 PHASE BA2MG17 % 2 0.105 0.895 !
 CONST BA2MG17 : BA : MG : !
$ ------------------------------------------------------------------------------
$ Defaults
$
 DEFINE-SYSTEM-DEFAULT ELEMENT 2 !
 DEFAULT-COM DEFINE_SYSTEM_ELEMENT VA !
 TYPE-DEF % SEQ * !
 TYPE-DEF A GES AMEND_PHASE_DESCRIPTION @ MAGNETIC -3 0.28 !
 TYPE-DEF B GES AMEND_PHASE_DESCRIPTION @ MAGNETIC -1 0.4 !
 FUNCTION ZERO      298.15  0;                                         6000 N !
 FUNCTION UN_ASS    298.15  0;                                         6000 N !
 FUNCTION R         298.15  +8.31451;                                  6000 N !
$ ------------------------------------------------------------------------------
$ Element data
$ ------------------------------------------------------------------------------
$ Ba
$
 PAR  G(BCC_A2,BA:VA),,                 +GHSERBA;                4000 N 91Din !
 PAR  G(HCP_A3,BA:VA),,                 +GHSERBA+2000+1.3*T;     4000 N 91Din !
 PAR  G(FCC_A1,BA:VA),,                 +GHSERBA+1800+0.6*T;     4000 N 91Din !
 PAR  G(LIQUID,BA),,                    +GLIQBA;                 4000 N 91Din !
$
 FUNCTION GHSERBA   298.15  -17685.226+233.78606*T-42.889*T*LN(T)
       -0.0018314*T**2-9.5E-11*T**3+705880*T**(-1);
      1000.00  Y  -64873.614+608.188389*T-94.2824199*T*LN(T)
       +0.019504772*T**2-1.051353E-06*T**3+8220192*T**(-1);
      2995.00  Y  +8083.889+136.780042*T-32.2*T*LN(T);
      4000.00  N !
 FUNCTION GLIQBA    298.15  -9738.988+229.540143*T-43.4961089*T*LN(T)
       -0.002346416*T**2+9.91223E-07*T**3+723016*T**(-1);
      1000.00  Y  -7381.093+235.49642*T-45.103*T*LN(T)
       +0.002154*T**2+2.7E-11*T**3-365*T**(-1);
      2995.00  Y  +3856.393-4.568042*T+GHSERBA;
      4000.00  N !
$ ------------------------------------------------------------------------------
$ Mg
$
$ DHCP from 04Guo (included in SGSOL 5.0; this value is not particularly good)
$
 PAR  G(HCP_A3,MG:VA),,                 +GHSERMG;                3000 N 91Din !
$PAR  G(DHCP,MG),,                      +GHSERMG+5000;           3000 N 04Guo !
 PAR  G(FCC_A1,MG:VA),,                 +GHSERMG+2600-0.9*T;     3000 N 91Din !
 PAR  G(BCC_A2,MG:VA),,                 +GHSERMG+3100-2.1*T;     3000 N 91Din !
$PAR  G(CBCC_A12,MG:VA),,               +GHSERMG
$            +4602.4-3.011*T;                                    3000 N 91Din !
$PAR  G(CUB_A13,MG:VA),,                +GHSERMG+5000-3*T;       3000 N 91Din !
 PAR  G(LIQUID,MG),,                    +GLIQMG;                 3000 N 91Din !
$
 FUNCTION GHSERMG   298.15  -8367.34+143.675547*T-26.1849782*T*LN(T)
       +4.858E-04*T**2-1.393669E-06*T**3+78950*T**(-1);
       923.00  Y  -14130.185+204.716215*T-34.3088*T*LN(T)+1.038192E+28*T**(-9);
      3000.00  N !
 FUNCTION GLIQMG    298.15  +8202.243-8.83693*T+GHSERMG-8.0176E-20*T**7;
       923.00  Y  -5439.869+195.324057*T-34.3088*T*LN(T);
      3000.00  N !
$ ------------------------------------------------------------------------------
$ Binary system
$
$ X. Ren, C. Li, Z. Du, C. Guo, S. Chen,
$ Int. J. Mater. Res., 104, 358-363(2013).
$
$ Checked against paper. Checked at 6000 K.
$
 PAR  L(LIQUID,BA,MG;0),,               -26567.475+8.2*T;,,           N 13Ren !
 PAR  L(LIQUID,BA,MG;1),,               +21990.155-12*T;,,            N 13Ren !
 PAR  L(LIQUID,BA,MG;2),,               -8869.932+4.712*T;,,          N 13Ren !
$
 PAR  L(BCC_A2,BA,MG:VA;0),,            +50000;,,                     N 13Ren !
 PAR  L(HCP_A3,BA,MG:VA;0),,            +20673;,,                     N 13Ren !
$
 PAR  G(BAMG2_C14,BA:MG),,              +0.333*GHSERBA+0.667*GHSERMG
             -7741.957-1.9*T;,,                                       N 13Ren !
 PAR  G(BA6MG23_D8A,BA:MG),,            +0.207*GHSERBA+0.793*GHSERMG
             -7686.918-0.05*T;,,                                      N 13Ren !
 PAR  G(BA2MG17,BA:MG),,                +0.105*GHSERBA+0.895*GHSERMG
             -6017.339+0.1*T;,,                                       N 13Ren !
$
$ Metastable
$
 PAR  L(FCC_A1,BA,MG:VA;0),,            +20673;,,                     N Same !
$ ------------------------------------------------------------------------------
$
$
 LIST-OF-REFERENCE
 NUMBER  SOURCE
  Null   'Unknown source'
  Same   'Same or similar interaction as in the corresponding stable phase'
  COST   'COST 507 database'
  91Din  'A.T. Dinsdale, Calphad, 15, 317-425(1991).'
  04Guo  'C. Guo, Z. Du, J. Alloys Compd., 385, 109-13(2004); La, Mg'
  13Ren  'X. Ren, C. Li, Z. Du, C. Guo, S. Chen,
          Int. J. Mater. Res., 104, 358-363(2013); Ba-Mg'
!
