$
$ Eu-Mg database from X.M. Tao et al. 2008
$
$ X.M. Tao, H. Wang, H.S. Liu, Y.F. Ouyang, Z.P. Jin,
$ Calphad, 32, 462-65(2008).
$
$ Dataset created 2013.05.30 by Bengt Hallstedt.
$ 2020.12.26: Modified for use with GES6.
$
$ Note that Mg is not included in BCC_A2 and Eu is not included in HCP_A3.
$
$ ------------------------------------------------------------------------------
 TEMP-LIM 298.15 6000.00 !
$
$ELEMENT NAME  REF. STATE               ATOMIC MASS H298-H0    S298    !
$
 ELEMENT VA   VACUUM                      0.0          0.0      0.0    ! 
 ELEMENT EU   BCC_A2                    151.96      8004.0     80.79304! 
 ELEMENT MG   HCP_A3                     24.305     4998.      32.671  !
$ ------------------------------------------------------------------------------
$ Phase definitions
$
 PHASE LIQUID:L % 1 1 !
 CONST LIQUID:L : EU MG : !
$
$ Bcc (cI2, Im-3m)
$
 PHASE BCC_A2 %B 2 1 3 !
 CONST BCC_A2 : EU : VA% : !
$
$ Hcp (hP2, P6_3/mmc) and Me2X (NiAs-type, hP4, P6_3/mmc, B8_1)
$
 PHASE HCP_A3 %A 2 1 0.5 !
 CONST HCP_A3 : MG% : VA% : !
$
$ Prototype CsCl (cP2, Pm-3m)
$
 PHASE EUMG_B2 % 2 1 1 !
 CONST EUMG_B2 : EU : MG : !
$
$ Prototype MgZn2 (hP12, P6_3/mmc)
$
 PHASE EUMG2_C14 % 2 1 2 !
 CONST EUMG2_C14 : EU : MG : !
$
$ Prototype Mg4Sr (hP90, P6_3/mmc)
$
 PHASE EUMG4 % 2 1 4 !
 CONST EUMG4 : EU : MG : !
$
$ Prototype EuMg5 (hP42, P6_3/mmc)
$ Structures with hP48 and hP50 have been suggested and are listed
$ as separate structure types in LB structure
$
 PHASE EUMG5 % 2 1 5 !
 CONST EUMG5 : EU : MG : !
$
$ Prototype Ni17Th2 (hP38, P6_3/mmc)
$
 PHASE EU2MG17 % 2 2 17 !
 CONST EU2MG17 : EU : MG : !
$ ------------------------------------------------------------------------------
$ Defaults
$
 DEFINE-SYSTEM-DEFAULT ELEMENT 2 !
 DEFAULT-COM DEFINE_SYSTEM_ELEMENT VA !
 TYPE-DEF % SEQ * !
 TYPE-DEF A GES AMEND_PHASE_DESCRIPTION @ MAGNETIC -3 0.28 !
 TYPE-DEF B GES AMEND_PHASE_DESCRIPTION @ MAGNETIC -1 0.4 !
 TYPE-DEF O GES AMEND_PHASE_DESCRIPTION B2_BCC DIS_PART BCC_A2 !
 FUNCTION ZERO      298.15  0;                                         6000 N !
 FUNCTION UN_ASS    298.15  0;                                         6000 N !
 FUNCTION R         298.15  +8.31451;                                  6000 N !
 FUNCTION RTLNP     298.15  +8.31451*T*LN(1E-05*P);                    6000 N !
$ ------------------------------------------------------------------------------
$ Element data
$ ------------------------------------------------------------------------------
$ Eu
$
$ BCC_A2 modified in unary 5.0
$ (upper T interval added + trailing decimals added)
$
 PAR  G(BCC_A2,EU:VA),,                 +GHSEREU;                1900 N 91Din !
 PAR  G(LIQUID,EU),,                    +GLIQEU;                 1900 N 91Din !
$
 FUNCTION GHSEREU   298.15  -9864.965+135.836737*T-32.8418896*T*LN(T)
       +0.00931735*T**2-4.006564E-06*T**3+102717*T**(-1);
      1095.00  Y  -287423.476+2174.733036*T-309.3571009*T*LN(T)
       +0.114530917*T**2-8.809866E-06*T**3+48455305*T**(-1);
      1900.00  Y  -13663.125+182.113799*T-38.11624*T*LN(T);
      1901.00  N !
 FUNCTION GLIQEU    298.15  +8382.505-7.175215*T+GHSEREU;
       400.00  Y  +10972.726-103.688201*T+4.3501554*T*LN(T)
       -0.036811218*T**2+5.452934E-06*T**3-646908*T**(-1);
      1095.00  Y  -6890.641+175.517247*T-38.11624*T*LN(T);
      1900.00  N !
$ ------------------------------------------------------------------------------
$ Mg
$
$PAR  G(FCC_A1,MG:VA),,                 +GHSERMG+2600-0.9*T;     3000 N 91Din !
$PAR  G(BCC_A2,MG:VA),,                 +GHSERMG+3100-2.1*T;     3000 N 91Din !
 PAR  G(HCP_A3,MG:VA),,                 +GHSERMG;                3000 N 91Din !
 PAR  G(LIQUID,MG),,                    +GLIQMG;                 3000 N 91Din !
$
 FUNCTION GHSERMG   298.15  -8367.34+143.675547*T-26.1849782*T*LN(T)
       +4.858E-04*T**2-1.393669E-06*T**3+78950*T**(-1);
       923.00  Y  -14130.185+204.716215*T-34.3088*T*LN(T)+1.038192E+28*T**(-9);
      3000.00  N !
 FUNCTION GLIQMG    298.15  +8202.243-8.83693*T+GHSERMG-8.0176E-20*T**7;
       923.00  Y  -5439.869+195.324057*T-34.3088*T*LN(T);
      3000.00  N !
$ ------------------------------------------------------------------------------
$ Binary system
$
$ X.M. Tao, H. Wang, H.S. Liu, Y.F. Ouyang, Z.P. Jin,
$ Calphad, 32, 462-65(2008).
$
$ Checked against paper. Checked at 6000 K.
$
$ Note that Mg is not included in BCC_A2 and Eu is not included in HCP_A3.
$
 PAR  L(LIQUID,EU,MG;0),,               -28188.0986+4.9471*T;,,       N 08Tao !
 PAR  L(LIQUID,EU,MG;1),,               +12085.2832-1.9185*T;,,       N 08Tao !
$
 PAR  G(EUMG_B2,EU:MG),,                +GHSEREU+GHSERMG
             -19530+2.569*T;,,                                        N 08Tao !
 PAR  G(EUMG2_C14,EU:MG),,              +GHSEREU+2*GHSERMG
             -38048+4.2318*T;,,                                       N 08Tao !
 PAR  G(EUMG4,EU:MG),,                  +GHSEREU+4*GHSERMG
             -47220+11.1255*T;,,                                      N 08Tao !
 PAR  G(EUMG5,EU:MG),,                  +GHSEREU+5*GHSERMG
             -51585+14.3*T;,,                                         N 08Tao !
 PAR  G(EU2MG17,EU:MG),,                +2*GHSEREU+17*GHSERMG
             -106530+20.5143*T;,,                                     N 08Tao !
$ ------------------------------------------------------------------------------
$
$
 LIST-OF-REFERENCE
 NUMBER  SOURCE
  Null   'Unknown source'
  COST   'COST 507 database'
  91Din  'A.T. Dinsdale, Calphad, 15, 317-425(1991).'
  03Fab  'O.B. Fabrichnaya, H.L. Lukas, G. Effenberg, F. Aldinger,
          Intermet., 11, 1183-88 (2003); Mg-Y'
  08Tao  'X.M. Tao, H. Wang, H.S. Liu, Y.F. Ouyang, Z.P. Jin,
          Calphad, 32, 462-65(2008); Eu-Mg'
!
