$
$ Database for Ce-Zn from C.P. Wang et al. 2008
$
$ C.P. Wang, X. Chen, X.J. Liu, F.S. Pan, K. Ishida,
$ J. Alloys Compd., 458, 166-73(2008).
$
$ Dataset created 2018.06.08 by Bengt Hallstedt.
$ 2020.12.25: Modified for use with GES6.
$
$ There is an inverse miscibility gap with a minimum at 4038 K and x(Zn)=0.85.
$
$ ------------------------------------------------------------------------------
 TEMP-LIM 298.15 6000.00 !
$
$ELEMENT NAME  REF. STATE               ATOMIC MASS H298-H0    S298    !
$
 ELEMENT VA   VACUUM                      0.0          0.0      0.0    ! 
 ELEMENT CE   FCC_A1                    140.12      7280.16    69.454  ! 
 ELEMENT ZN   HCP_A3                     65.38      5657.0     41.63   ! 
$ ------------------------------------------------------------------------------
$ Phase definitions
$
 PHASE LIQUID:L % 1 1 !
 CONST LIQUID:L : CE ZN : !
$
$ Fcc (cF4, Fm-3m) and MeX (cF8, Fm-3m)
$
 PHASE FCC_A1 %A 2 1 1 !
 CONST FCC_A1 : CE% ZN : VA% : !
$
$ Bcc (cI2, Im-3m)
$
 PHASE BCC_A2 %B 2 1 3 !
 CONST BCC_A2 : CE% ZN : VA% : !
$
$ Hcp (hP2, P6_3/mmc) and Me2X (NiAs-type, hP4, P6_3/mmc, B8_1)
$
 PHASE HCP_A3 %A 2 1 0.5 !
 CONST HCP_A3 : CE ZN% : VA% : !
$
$ Prototype CsCl (cP2, Pm-3m)
$
 PHASE CEZN_B2 % 2 1 1 !
 CONST CEZN_B2 : CE : ZN : !
$
$ Prototype Hg2K (oI12, Imma)
$
 PHASE CEZN2 % 2 1 2 !
 CONST CEZN2 : CE : ZN : !
$
$ Prototype CeZn3 (oC16, Cmcm)
$
 PHASE CEZN3 % 2 1 3 !
 CONST CEZN3 : CE : ZN : !
$
$ Prototype Al11La3 (oI28, Immm)
$
 PHASE CE3ZN11 % 2 3 11 !
 CONST CE3ZN11 : CE : ZN : !
$
$ Prototype Gd13Zn58 (hP142, P6_3/mmc)
$
 PHASE CE13ZN58 % 2 13 58 !
 CONST CE13ZN58 : CE : ZN : !
$
$ Prototype CaCu5 (hP6, P6/mmm)
$
 PHASE CEZN5_D2D % 2 1 5 !
 CONST CEZN5_D2D : CE : ZN : !
$
$ Prototype Ce3Zn22 (tI100, I4_1/amd)
$
 PHASE CE3ZN22 % 2 3 22 !
 CONST CE3ZN22 : CE : ZN : !
$
$ Prototype Ni17Th2 (hP38, P6_3/mmc), RT
$ Prototype Th2Zn17 (hR19, R-3m), HT
$
 PHASE CE2ZN17 % 2 2 17 !
 CONST CE2ZN17 : CE : ZN : !
$
$ Prototype BaCd11 (tI48, I4_1/amd)
$
 PHASE CEZN11 % 2 1 11 !
 CONST CEZN11 : CE : ZN : !
$ ------------------------------------------------------------------------------
$ Defaults
$
 DEFINE-SYSTEM-DEFAULT ELEMENT 2 !
 DEFAULT-COM DEFINE_SYSTEM_ELEMENT VA !
 TYPE-DEF % SEQ * !
 TYPE-DEF A GES AMEND_PHASE_DESCRIPTION @ MAGNETIC -3 0.28 !
 TYPE-DEF B GES AMEND_PHASE_DESCRIPTION @ MAGNETIC -1 0.4 !
 FUNCTION ZERO      298.15  0;                                         6000 N !
 FUNCTION UN_ASS    298.15  0;                                         6000 N !
 FUNCTION R         298.15  +8.31451;                                  6000 N !
$ ------------------------------------------------------------------------------
$ Element data
$ ------------------------------------------------------------------------------
$ Ce
$
$ HCP_A3 and DHCP added in unary 3.0
$ HCP_A3 and DHCP revised in unary 4.4
$
 PAR  G(FCC_A1,CE:VA),,                 +GHSERCE;                4000 N 91Din !
 PAR  G(BCC_A2,CE:VA),,                 +GBCCCE;                 4000 N 91Din !
 PAR  G(HCP_A3,CE:VA),,                 +GHSERCE+300;            4000 N Frank !
$PAR  G(HCP_A3,CE:VA),,                 +GHSERCE+50000;          4000 N 96SGUN !
$PAR  G(DHCP,CE),,                      +GHSERCE
$            -122.539+0.433*T;                                   4000 N 99Gsc !
$PAR  G(DHCP,CE),,                      +GHSERCE-190+0.56886*T;  4000 N 96SGUN !
 PAR  G(LIQUID,CE),,                    +GLIQCE;                 4000 N 91Din !
$
 FUNCTION GHSERCE   298.15  -7160.519+84.23022*T-22.3664*T*LN(T)
       -0.0067103*T**2-3.20773E-07*T**3-18117*T**(-1);
      1000.00  Y  -79678.506+659.4604*T-101.32248*T*LN(T)
       +0.026046487*T**2-1.930297E-06*T**3+11531707*T**(-1);
      2000.00  Y  -14198.639+190.370192*T-37.6978*T*LN(T);
      4000.00  N !
 FUNCTION GBCCCE    298.15  -1354.69-5.21501*T-7.7305867*T*LN(T)
       -0.029098402*T**2+4.784299E-06*T**3-196303*T**(-1);
      1000.00  Y  -12101.106+187.449688*T-37.6142*T*LN(T);
      1072.00  Y  -11950.375+186.333811*T-37.4627992*T*LN(T)
       -5.7145E-05*T**2+2.348E-09*T**3-25897*T**(-1);
      4000.00  N !
 FUNCTION GLIQCE    298.15  +4117.865-11.423898*T-7.5383948*T*LN(T)
       -0.02936407*T**2+4.827734E-06*T**3-198834*T**(-1);
      1000.00  Y  -6730.605+183.023193*T-37.6978*T*LN(T);
      4000.00  N !
$ ------------------------------------------------------------------------------
$ Zn
$
$ BCT_A5 and DIAMOND_A4 added in unary 3.0
$ HCP_A3 revised in unary 4.1 (due to introduction of HCP_ZN)
$ RHOMBOHEDRAL_A7 and TETRAGONAL_A6 added in unary 4.1
$ TETRAGONAL_A6 revised in unary 4.4
$ CBCC_A12 and CUB_A13 added in unary 4.4
$ HCP_A3 and LIQUID modified in unary 5.0 (melting T and coefficients adjusted)
$ RHOMBO_A10 added in unary 5.0
$
$ Pure Zn restored as HCP_A3
$
 PAR  G(HCP_A3,ZN:VA),,                 +GHSERZN;                1700 N 91Din !
$PAR  G(HCP_A3,ZN:VA),,                 +GHSERZN
$            +2969.82-1.56968*T;                                 1700 N 93Kow !
 PAR  G(FCC_A1,ZN:VA),,                 +GHSERZN
             +2969.82-1.56968*T;                                 1700 N 91Din !
 PAR  G(BCC_A2,ZN:VA),,                 +GHSERZN
             +2886.96-2.5104*T;                                  1700 N 91Din !
$PAR  G(DIAMOND_A4,ZN),,                +GHSERZN+30*T;           1700 N SGCOST !
$PAR  G(BCT_A5,ZN),,                    +GHSERZN
$            +2886.96-2.5104*T;                                  1700 N SGCOST !
$PAR  G(TETRAGONAL_A6,ZN),,             +GHSERZN+4184;           1700 N 96Lee !
$PAR  G(TETRAGONAL_A6,ZN),,             +GHSERZN
$            +2886.96-2.5104*T;                                  1700 N 99SGUN !
$PAR  G(RHOMBOHEDRAL_A7,ZN),,           +GHSERZN+2300+11.5*T;    1700 N 99SGUN !
$PAR  G(RHOMBO_A10,ZN),,                +GLIQZN-2000+10*T;       1700 N 98Han !
$PAR  G(CBCC_A12,ZN:VA),,               +GHSERZN+2000;           1700 N 01Mie !
$PAR  G(CUB_A13,ZN:VA),,                +GHSERZN+2000;           1700 N 01Mie !
 PAR  G(LIQUID,ZN),,                    +GLIQZN;                 1700 N 91Din !
$
 FUNCTION GHSERZN   298.15  -7285.787+118.470069*T-23.701314*T*LN(T)
       -0.001712034*T**2-1.264963E-06*T**3;
       692.677 Y  -11070.546+172.345644*T-31.38*T*LN(T)+4.7047E+26*T**(-9);
      1700.00  N !
 FUNCTION GLIQZN    298.15  +7157.222-10.29305*T+GHSERZN-3.58949E-19*T**7;
       692.677 Y  -3620.385+161.60854*T-31.38*T*LN(T);
      1700.00  N !
 FUNCTION GBCCZN    298.15  +GHSERZN+2886.96-2.5104*T;                 6000 N !
$ ------------------------------------------------------------------------------
$ Binary system
$
$ C.P. Wang, X. Chen, X.J. Liu, F.S. Pan, K. Ishida,
$ J. Alloys Compd., 458, 166-73(2008).
$
$ Checked against paper. Checked at 6000 K.
$
$ There is an inverse miscibility gap with a minimum at 4038 K and x(Zn)=0.85.
$
 PAR  L(LIQUID,CE,ZN;0),,               -116372.167+39.3*T;,,         N 08Wan !
 PAR  L(LIQUID,CE,ZN;1),,               +70000-19*T;,,                N 08Wan !
 PAR  L(LIQUID,CE,ZN;2),,               -42000+20*T;,,                N 08Wan !
$
 PAR  L(FCC_A1,CE,ZN:VA;0),,            -2000;,,                      N 08Wan !
 PAR  L(BCC_A2,CE,ZN:VA;0),,            +UN_ASS;,,                    N !
 PAR  L(HCP_A3,CE,ZN:VA;0),,            +UN_ASS;,,                    N !
$
 PAR  G(CEZN_B2,CE:ZN),,                +GHSERCE+GHSERZN
             -68080+12.8*T;,,                                         N 08Wan !
 PAR  G(CEZN2,CE:ZN),,                  +GHSERCE+2*GHSERZN
             -120180+27.66*T;,,                                       N 08Wan !
 PAR  G(CEZN3,CE:ZN),,                  +GHSERCE+3*GHSERZN
             -153895+39.32*T;,,                                       N 08Wan !
 PAR  G(CE3ZN11,CE:ZN),,                +3*GHSERCE+11*GHSERZN
             -516357.8+130.004*T;,,                                   N 08Wan !
 PAR  G(CE13ZN58,CE:ZN),,               +13*GHSERCE+58*GHSERZN
             -2510046.67+634.74*T;,,                                  N 08Wan !
 PAR  G(CEZN5_D2D,CE:ZN),,              +GHSERCE+5*GHSERZN
             -206950.02+53.298*T;,,                                   N 08Wan !
 PAR  G(CE3ZN22,CE:ZN),,                +3*GHSERCE+22*GHSERZN
             -754900+185*T;,,                                         N 08Wan !
 PAR  G(CE2ZN17,CE:ZN),,                +2*GHSERCE+17*GHSERZN
             -531499.92+123.994*T;,,                                  N 08Wan !
 PAR  G(CEZN11,CE:ZN),,                 +GHSERCE+11*GHSERZN
             -293949.96+78*T;,,                                       N 08Wan !
$ ------------------------------------------------------------------------------
$
$
 LIST-OF-REFERENCE
 NUMBER  SOURCE
  Null   'Unknown source'
  Same   'Same or similar interaction as in the corresponding stable phase'
  REFLAV 'Laves phase convention: G(LAVES,X:X)=+3*GHSERXX+15000'
  SGCOST 'COST 507 database, SGTE unary database V.3.0, 1996; Al, B, Nd, Ti, Zn'
  COST   'COST 507 database'
  Frank  'Peter Franke, unpublished, SGTE unary database V.4.4, 2001; Ce'
  91Din  'A.T. Dinsdale, Calphad, 15, 317-425(1991).'
  93Kow  'M. Kowalski, P.J. Spencer, J. Phase Equilib., 14, 432-38 (1993),
          SGTE unary database V.4.1, 1999; Zn'
  96Lee  'B.-J. Lee, Calphad, 20, 471-80(1996)
          SGTE unary database V.4.4, 2001; Zn'
  96SGUN 'SGTE unary database V.3.0, 1996.'
  98Han  'S.C. Hansen, Calphad, 22, 359-73(1998),
          SGTE unary database V.5.0, 2009; Zn'
  99Gsc  'K.A. Gschneidner, Jr., V.K. Pecharsky, J. Phase Equilib.,
          20, 612-14(1999), SGTE unary database V.4.4, 2001; Ce'
  99SGUN 'SGTE unary database V.4.1, 1999.'
  01Mie  'J. Miettinen, Calphad, 25, 43-58(2001),
          SGTE unary database V.4.4, 2001; Sn, Zn'
  08Wan  'C.P. Wang, X. Chen, X.J. Liu, F.S. Pan, K. Ishida,
          J. Alloys Compd., 458, 166-73(2008); Ce-Zn'
!
