$
$ Database for Cu-C from A.T. Dinsdale 2004 (included in LB Vol. 2)
$
$ A.T. Dinsdale, unpublished, 2004.
$
$ Dataset created 2009.11.20 by Bengt Hallstedt.
$ 2017.09.25: FCC_A1 parameters from 14Shu (instead of 08Hal).
$ 2020.10.23: Modified for use with GES6.
$
$ The calculated diagram using the fcc interaction from LBall-v7+fun.tdb
$ is not in agreement with the text in LB. According to the text the max C
$ C solubility in fcc-Cu is 0.04 at%. The calculated solubility is 3e-6 at%.
$
$ L(FCC_A1,CU:C,VA;0) was fitted to solubility data from R.B. McLellan,
$ Scripta Metall., 3, 389-92(1989), which is roughly in agreement with the
$ text in LB.
$
$ There are new data on the C solubility in fcc-Cu from Lopez and Mittemeijer
$ (Scripta Mater., 51, 1-5(2004)). These indicate a much lower solubility
$ of 7.4e-4 at.% at 1293 K. These data were used by 14Shu and their parameters
$ are used here.
$
$ The liquid solubility is in agreement with data from L.L. Oden and
$ N.A. Gokcen, Metall. Trans. B, 23B, 453-58(1992), which were also used
$ by 14Shu.
$
$ The BCC_A2 parameters suggested by 14Shu are questionable, but it is not
$ clear if the 87Cha parameters are any better. The BCC_A2 parameters were
$ selected here for a G-curve approximately parallel to the FCC_A1 curve
$ at 1373 K.
$
$ ------------------------------------------------------------------------------
 TEMP-LIM 298.15 6000.00 !
$
$ELEMENT NAME  REF. STATE               ATOMIC MASS H298-H0    S298    !
$
 ELEMENT VA   VACUUM                      0.0          0.0      0.0    ! 
 ELEMENT C    GRAPHITE                   12.011     1054.0      5.7423 ! 
 ELEMENT CU   FCC_A1                     63.546     5004.      33.15   !
$ ------------------------------------------------------------------------------
$ Phase definitions
$
 PHASE LIQUID:L % 1 1 !
 CONST LIQUID:L : C CU : !
$
$ Fcc (cF4, Fm-3m) and MeX (cF8, Fm-3m)
$
 PHASE FCC_A1 %A 2 1 1 !
 CONST FCC_A1 : CU : C VA% : !
$
$ Bcc (cI2, Im-3m)
$
 PHASE BCC_A2 %B 2 1 3 !
 CONST BCC_A2 : CU : C VA% : !
$
$ Hcp (hP2, P6_3/mmc) and Me2X (NiAs-type, hP4, P6_3/mmc, B8_1)
$
 PHASE HCP_A3 %A 2 1 0.5 !
 CONST HCP_A3 : CU : C VA% : !
$
$ Prototype C (cF8, Fd-3m)
$
 PHASE DIAMOND_A4 % 1 1 !
 CONST DIAMOND_A4 : C : !
$
$ Prototype C (hP4, P6_3/mmc)
$
 PHASE GRAPHITE_A9 % 1 1 !
 CONST GRAPHITE_A9 : C : !
$ ------------------------------------------------------------------------------
$ Defaults
$
 DEFINE-SYSTEM-DEFAULT ELEMENT 2 !
 DEFAULT-COM DEFINE_SYSTEM_ELEMENT VA !
 TYPE-DEF % SEQ * !
 TYPE-DEF A GES AMEND_PHASE_DESCRIPTION @ MAGNETIC -3 0.28 !
 TYPE-DEF B GES AMEND_PHASE_DESCRIPTION @ MAGNETIC -1 0.4 !
 FUNCTION ZERO      298.15  0;                                         6000 N !
 FUNCTION UN_ASS    298.15  0;                                         6000 N !
 FUNCTION R         298.15  +8.31451;                                  6000 N !
$ ------------------------------------------------------------------------------
$ Element data
$ ------------------------------------------------------------------------------
$ C
$
 PAR  G(GRAPHITE_A9,C),,                +GHSERCC;,,                   N 91Din !
 PAR  G(DIAMOND_A4,C),,                 +GDIACC;,,                    N 91Din !
 PAR  G(LIQUID,C),,                     +GHSERCC+117369-24.63*T;,,    N 91Din !
$
 FUNCTION GHSERCC   298.15  -17368.441+170.73*T-24.3*T*LN(T)
       -4.723E-04*T**2+2562600*T**(-1)-2.643E+08*T**(-2)+1.2E+10*T**(-3);
      6000.00  N !
 FUNCTION GDIACC    298.15  -16359.441+175.61*T-24.31*T*LN(T)
       -4.723E-04*T**2+2698000*T**(-1)-2.61E+08*T**(-2)+1.11E+10*T**(-3);
      6000.00  N !
$ ------------------------------------------------------------------------------
$ Cu
$
 PAR  G(FCC_A1,CU:VA),,                 +GHSERCU;                3200 N 91Din !
 PAR  G(BCC_A2,CU:VA),,                 +GHSERCU+4017-1.255*T;   3200 N 91Din !
 PAR  G(HCP_A3,CU:VA),,                 +GHSERCU+600+0.2*T;      3200 N 91Din !
 PAR  G(LIQUID,CU),,                    +GLIQCU;                 3200 N 91Din !
$
 FUNCTION GHSERCU   298.15  -7770.458+130.485235*T-24.112392*T*LN(T)
       -0.00265684*T**2+1.29223E-07*T**3+52478*T**(-1);
      1357.77  Y  -13542.026+183.803828*T-31.38*T*LN(T)+3.64167E+29*T**(-9);
      3200.00  N !
 FUNCTION GLIQCU    298.15  +12964.735-9.511904*T+GHSERCU-5.8489E-21*T**7;
      1357.77  Y  -46.545+173.881484*T-31.38*T*LN(T);
      3200.00  N !
$ ------------------------------------------------------------------------------
$ Binary system
$
$ From A.T. Dinsdale 2004 (included in LB Vol. 2)
$
$ A.T. Dinsdale, unpublished, 2004.
$
$ Checked against LB.
$
$ The calculated diagram using the fcc interaction from LBall-v7+fun.tdb
$ is not in agreement with the text in LB. According to the text the max C
$ C solubility in fcc-Cu is 0.04 at%. The calculated solubility is 3e-6 at%.
$
$ L(FCC_A1,CU:C,VA;0) was fitted to solubility data from R.B. McLellan,
$ Scripta Metall., 3, 389-92(1989), which is roughly in agreement with the
$ text in LB.
$
$ There are new data on the C solubility in fcc-Cu from Lopez and Mittemeijer
$ (Scripta Mater., 51, 1-5(2004)). These indicate a much lower solubility
$ of 7.4e-4 at.% at 1293 K. These data were used by 14Shu and their parameters
$ are used here.
$
$ The liquid solubility is in agreement with data from L.L. Oden and
$ N.A. Gokcen, Metall. Trans. B, 23B, 453-58(1992), which were also used
$ by 14Shu.
$
$ The BCC_A2 parameters suggested by 14Shu are questionable, but it is not
$ clear if the 87Cha parameters are any better. The BCC_A2 parameters were
$ selected here for a G-curve approximately parallel to the FCC_A1 curve
$ at 1373 K.
$
 PAR  L(LIQUID,C,CU;0),,                +123650-24.5461*T;,,          N 04Din !
$
$PAR  G(FCC_A1,CU:C),,                  +GHSERCU+GHSERCC
$            +138490-14.64*T;,,                                       N 87Cha !
 PAR  G(FCC_A1,CU:C),,                  +GHSERCU+GHSERCC+127000;,,    N 14Shu !
$PAR  L(FCC_A1,CU:C,VA;0),,             +75000;,,                     N 04Din !
$PAR  L(FCC_A1,CU:C,VA;0),,             -91200+45.8*T;,,              N 08Hal !
 PAR  L(FCC_A1,CU:C,VA;0),,             +ZERO;,,                      N 14Shu !
$
$ metastable
$
$PAR  G(BCC_A2,CU:C),,                  +GHSERCU+3*GHSERCC+127000;,,  N 14Shu !
$PAR  L(BCC_A2,CU:C,VA;0),,             +ZERO;,,                      N 14Shu !
$PAR  G(BCC_A2,CU:C),,                  +GHSERCU+3*GHSERCC
$            +146858-14.64*T;,,                                       N 87Cha !
$PAR  L(BCC_A2,CU:C,VA;0),,             +120000;,,                    N 87Cha !
 PAR  G(BCC_A2,CU:C),,                  +GHSERCU+3*GHSERCC+440000;,, N 17Hal15 !
 PAR  L(BCC_A2,CU:C,VA;0),,             +ZERO;,,                     N 17Hal15 !
$
 PAR  G(HCP_A3,CU:C),,                  +UN_ASS;,,                    N !
$ ------------------------------------------------------------------------------
$
 ASSESSED_SYSTEM
  C-CU(TDB -* +LIQ +FCC_A1 +GRAP ;P3 TMM:300/3000 STP:.99/1273/-2) !
$
$
 LIST-OF-REFERENCE
 NUMBER  SOURCE
  Null   'Unknown source'
  87Cha  'L. Chandrasekaran, unpublished work, 1987; Cu-C, Cu-Fe-C'
  91Din  'A.T. Dinsdale, Calphad, 15, 317-425(1991).'
  04Din  'A.T. Dinsdale, unpublished, 2004; Cu-C'
  08Hal  'B. Hallstedt, unpublished, 2008; Cu-C'
  14Shu  'K. Shubhank, Y.-B. Kang, Calphad, 45, 127-37(2014); Cu-C'
  17Hal15 'B. Hallstedt, sanitized parameters for BCC_A2, 2017; Cu-C'
!
