$
$ Database for In-Se from J.-B. Li et al. 2003
$
$ J.-B. Li, M.-C. Record, J.-C. Tedenac, Z. Metallkd., 94, 381-89(2003).
$
$ Dataset created 2017.03.25 by Bengt Hallstedt.
$ 2020.04.11: Modified for use with GES6.
$
$ ------------------------------------------------------------------------------
 TEMP-LIM 298.15 6000.00 !
$
$ELEMENT NAME  REF. STATE               ATOMIC MASS H298-H0    S298    !
$
 ELEMENT VA   VACUUM                      0.0          0.0      0.0    ! 
 ELEMENT IN   TETRAGONAL_A6             114.82      6610.0     57.65   ! 
 ELEMENT SE   HEXAGONAL_A8               78.96      5514.512   41.9655 ! 
$ ------------------------------------------------------------------------------
$ Species
$
 SPECIE  IN2SE3                             IN2SE3 !
$ ------------------------------------------------------------------------------
$ Phase definitions
$
 PHASE LIQUID:L % 1 1 !
 CONST LIQUID:L : IN IN2SE3 SE : !
$
$ Fcc (cF4, Fm-3m) and MeX (cF8, Fm-3m)
$
 PHASE FCC_A1 %A 2 1 1 !
 CONST FCC_A1 : IN : VA : !
$
$ Bcc (cI2, Im-3m)
$
 PHASE BCC_A2 %B 2 1 3 !
 CONST BCC_A2 : IN : VA : !
$
$ Hcp (hP2, P6_3/mmc) and Me2X (NiAs-type, hP4, P6_3/mmc, B8_1)
$
 PHASE HCP_A3 %A 2 1 0.5 !
 CONST HCP_A3 : IN : VA: !
$
$ Prototype In (tI2, I4/mmm)
$
 PHASE TETRAGONAL_A6 % 1 1 !
 CONST TETRAGONAL_A6 : IN : !
$
$ gamma-Se (hP3, P3_121)
$
 PHASE HEXAGONAL_A8 % 1 1 !
 CONST HEXAGONAL_A8 : SE : !
$
$ Prototype In4Se3 (oP28, Pnnm)
$
 PHASE IN4SE3 % 2 4 3 !
 CONST IN4SE3 : IN : SE : !
$
$ Prototype GaSe (hR4, R3m)
$
 PHASE INSE % 2 1 1 !
 CONST INSE : IN : SE : !
$
$ Prototype In6S7 (mP26, P2_1/m)
$
 PHASE IN6SE7 % 2 6 7 !
 CONST IN6SE7 : IN : SE : !
$
$ Unknown structure
$
 PHASE IN9SE11 % 2 9 11 !
 CONST IN9SE11 : IN : SE : !
$
$ Pearson c*48
$
 PHASE IN5SE7 % 2 5 7 !
 CONST IN5SE7 : IN : SE : !
$
$ Prototype Bi2Te3 (hR5, R-3m)
$
 PHASE IN2SE3_C33 % 2 2 3 !
 CONST IN2SE3_C33 : IN : SE : !
$
$ Prototype In2Se3-beta (hP30, P6_1)
$
 PHASE IN2SE3_BETA % 2 2.02 2.98 !
 CONST IN2SE3_BETA : IN : SE : !
$
$ Pearson hP10
$
 PHASE IN2SE3_GAMMA % 2 2 3 !
 CONST IN2SE3_GAMMA : IN : SE : !
$
$ Pearson hP5
$
 PHASE IN2SE3_DELTA % 2 2 3 !
 CONST IN2SE3_DELTA : IN : SE : !
$ ------------------------------------------------------------------------------
$ Defaults
$
 DEFINE-SYSTEM-DEFAULT ELEMENT 2 !
 DEFAULT-COM DEFINE_SYSTEM_ELEMENT VA !
 TYPE-DEF % SEQ * !
 TYPE-DEF A GES AMEND_PHASE_DESCRIPTION @ MAGNETIC -3 0.28 !
 TYPE-DEF B GES AMEND_PHASE_DESCRIPTION @ MAGNETIC -1 0.4 !
 FUNCTION ZERO      298.15  0;                                         6000 N !
 FUNCTION UN_ASS    298.15  0;                                         6000 N !
 FUNCTION R         298.15  +8.31451;                                  6000 N !
$ ------------------------------------------------------------------------------
$ Element data
$ ------------------------------------------------------------------------------
$ In
$
$ FCC_A1 and TET_ALPHA1 revised in unary 4.1
$ BCT_A5 and RHOMBOHEDRAL_A7 added in unary 4.1
$ TET_ALPHA1 revised in unary 5.0 (using the value from 99Ans)
$ DHCP added in unary 5.0
$
$ There is quite a bit of confusion about TET_ALPHA1_A6. The structure is
$ the same as In (TETRAGONAL_A6), but with a different (presumably) c/a ratio.
$ TET_ALPHA1_A6 is present in Bi-In, In-Pb and In-Sn (possibly more). Between
$ the TETRAGONAL_A6 (In-ss) and TET_ALPHA1_A6 there is a narrow two-phase
$ region. In each system a different G(TET_ALPHA1_A6,IN) lattice stability
$ was used.
$ In 91Din a value from an unpublished revision of the Bi-In system by
$ P.-Y. Chevalier 1990 is included. In SGTE Unary V 4.4 a value from 98Boa
$ for the In-Pb system is included. 98Boa treated the TET_ALPHA1_A6
$ phase in Bi-In and In-Pb as two different phases and used the lattice
$ stability from 88Che0 for the Bi-In branch of this phase. Finally, SGTE
$ unary V 5.0 uses a value from an unpublished evaluation by 99Ans of the
$ In-Sn system. Due to the close proximity of the TETRAGONAL_A6 and
$ TET_ALPHA1_A6 phases in these systems, any change of lattice stability
$ will cause a distortion of the phase diagram and require reoptimisation.
$
$ The DHCP phase is labelled D0_24 in 03Liu and alpha-prime in 92Ans. The
$ phase is present between the fcc and hcp phases in the Au-Sn and Au-In
$ systems.
$
 PAR  G(TETRAGONAL_A6,IN),,             +GHSERIN;                3800 N 91Din !
 PAR  G(FCC_A1,IN:VA),,                 +GHSERIN+162.061;        3800 N 98Boa !
$PAR  G(FCC_A1,IN:VA),,                 +GHSERIN+123-0.1988*T;   3800 N 91Din !
 PAR  G(BCC_A2,IN:VA),,                 +GHSERIN+800-0.8*T;      3800 N 91Din !
 PAR  G(HCP_A3,IN:VA),,                 +GHSERIN+533-0.6868*T;   3800 N 91Din !
$PAR  G(DHCP,IN),,                      +GHSERIN+520-0.384*T;    3800 N 92Ans !
$PAR  G(TET_ALPHA1_A6,IN),,             +GHSERIN+123-0.1988*T;   3800 N 99Ans !
$PAR  G(TET_ALPHA1_A6,IN),,             +GHSERIN+0.31*T;         3800 N 98Boa !
$PAR  G(TET_ALPHA1_A6,IN),,             +GHSERIN+193-0.16479*T;  3800 N 91Din !
$PAR  G(TET_ALPHA1_A6,IN),,             +GHSERIN-33+0.16*T;      3800 N 88Che0 !
$PAR  G(BCT_A5,IN),,                    +GHSERIN
$            +5040.87-3.33969*T;                                 3800 N 99Ans !
$PAR  G(RHOMBOHEDRAL_A7,IN),,           +GHSERIN+4184;           3800 N 88Che0 !
 PAR  G(LIQUID,IN),,                    +GLIQIN;                 3800 N 91Din !
$
 FUNCTION GHSERIN   298.15  -6978.89+92.338115*T-21.8386*T*LN(T)
       -0.00572566*T**2-2.120321E-06*T**3-22906*T**(-1);
       429.75  Y  -7033.516+124.476588*T-27.4562*T*LN(T)
       +5.4607E-04*T**2-8.367E-08*T**3-211708*T**(-1)+3.53116E+22*T**(-9);
      3800.00  N !
 FUNCTION GLIQIN    298.15  +3282.092-7.63686*T+GHSERIN-5.59058E-20*T**7;
       429.75  Y  +3283.706-7.640804*T+GHSERIN-3.53116E+22*T**(-9);
      3800.00  N !
$ ------------------------------------------------------------------------------
$ Se
$
 PAR  G(HEXAGONAL_A8,SE),,              +GHSERSE;                1000 N 91Din !
 PAR  G(LIQUID,SE),,                    +GLIQSE;                 1000 N 91Din !
$
 FUNCTION GHSERSE   298.15  -9376.371+174.205877*T-33.6527*T*LN(T)
       +0.02424314*T**2-1.5318461E-05*T**3+102249*T**(-1);
       494.00  Y  -37546.134+507.111538*T-81.2006585*T*LN(T)
       +0.037144892*T**2-5.611026E-06*T**3+2614263*T**(-1);
       800.00  Y  -12193.47+197.770166*T-35.1456*T*LN(T);
      1000.00  N !
 FUNCTION GLIQSE    298.15  +50533.347-1178.28824*T+194.107439*T*LN(T)
       -0.390268991*T**2+1.19219297E-04*T**3-2224398*T**(-1); 
       494.00  Y  -5228.304+183.72559*T-35.1456*T*LN(T);
      1000.00  N !
$ ------------------------------------------------------------------------------
$ Binary system
$
$ J.-B. Li, M.-C. Record, J.-C. Tedenac, Z. Metallkd., 94, 381-89(2003).
$
$ Checked against paper. Checked at 6000 K.
$
 PAR  G(LIQUID,IN2SE3),,                -272236.26+503.792*T
             -111.375*T*LN(T)-0.019365*T**2;,,                        N 03Li !
 PAR  L(LIQUID,IN,IN2SE3;0),,           -52581-20.4119*T;,,           N 03Li !
 PAR  L(LIQUID,IN,IN2SE3;1),,           +7016.18;,,                   N 03Li !
 PAR  L(LIQUID,IN,IN2SE3;2),,           +45827.2-13.8701*T;,,         N 03Li !
 PAR  L(LIQUID,IN2SE3,SE;0),,           +75360.9-63.2364*T;,,         N 03Li !
 PAR  L(LIQUID,IN2SE3,SE;1),,           -11429.75;,,                  N 03Li !
$
 PAR  G(IN4SE3,IN:SE),,                 -428700+1006.8085*T
             -191.58472*T*LN(T)-0.0028902*T**2+622466*T**(-1);,,      N 03Li !
 PAR  G(INSE,IN:SE),,                   -136000+258.0795*T
             -49.63283*T*LN(T)-0.0017233*T**2+66669.7*T**(-1);,,      N 03Li !
 PAR  G(IN6SE7,IN:SE),,                 -871681.3+1593.086*T
             -313.18435*T*LN(T)-0.02663564*T**2+317164*T**(-1);,,     N 03Li !
 PAR  G(IN9SE11,IN:SE),,                -1323124.8+2430.0626*T
             -481.82208*T*LN(T)-0.040978*T**2+487944.6*T**(-1);,,     N 03Li !
 PAR  G(IN5SE7,IN:SE),,                 -763000+1466.967*T
             -295.3357*T*LN(T)-0.021428*T**2+418284*T**(-1);,,        N 03Li !
 PAR  G(IN2SE3_C33,IN:SE),,             -309500+608.4013*T
             -123.05656*T*LN(T)-0.0089283*T**2+174285*T**(-1);,,      N 03Li !
 PAR  G(IN2SE3_BETA,IN:SE),,            -302911.4+513.0762*T
             -109.5*T*LN(T)-0.019365*T**2;,,                          N 03Li !
 PAR  G(IN2SE3_GAMMA,IN:SE),,           -302649+527.6976*T
             -111.375*T*LN(T)-0.019365*T**2;,,                        N 03Li !
 PAR  G(IN2SE3_DELTA,IN:SE),,           -297441.5+522.582*T
             -111.375*T*LN(T)-0.019365*T**2;,,                        N 03Li !
$ ------------------------------------------------------------------------------
$
$
 LIST-OF-REFERENCE
 NUMBER  SOURCE
  Null   'Unknown source'
  Same   'Same or similar interaction as in the corresponding stable phase'
  COST   'COST 507 database'
  88Che0 'P.-Y Chevalier, Calphad, 12, 383-92(1988)
          SGTE unary database V.4.1, 1999; In'
  91Din  'A.T. Dinsdale, Calphad, 15, 317-425(1991).'
  92Ans  'I. Ansara, J.-Ph. Nabot, Calphad, 16, 13-18(1992),
          SGTE unary database V.5.0, 2009; In'
  98Boa  'D. Boa, I. Ansara, Thermochim. Acta, 314, 79-86(1998),
          SGTE unary database V.4.1, 1999; In, Pb'
  99Ans  'I. Ansara, S.G. Fries, H.L. Lukas, unpublished, 1999,
          SGTE unary database V.5.0, 2009; In, Sn, In-Sn'
  03Li   'J.-B. Li, M.-C. Record, J.-C. Tedenac,
          Z. Metallkd., 94, 381-89(2003); In-Se'
!
