$
$ Database for Cu-U from L. Soldi et al. 2019.
$
$ L. Soldi, S. Gosse, A. Laplace, P. Bonnaillie, J. Schorne-Pinto, M. Roskosz,
$ J. Alloys Compd., 799, 239-46(2019).
$
$ Dataset created 2021.06.27 by Bengt Hallstedt.
$
$ Probable misprint for the fcc interaction. No solubility in fcc-Cu is shown
$ in the phase diagram, but the printed interaction results in about 2 at.%
$ solubility. Trailing zero added.
$
$ ------------------------------------------------------------------------------
 TEMP-LIM 298.15 6000.00 !
$
$ELEMENT NAME  REF. STATE               ATOMIC MASS H298-H0    S298    !
$
 ELEMENT VA   VACUUM                      0.0          0.0      0.0    ! 
 ELEMENT CU   FCC_A1                     63.546     5004.      33.15   !
 ELEMENT U    ORTHORHOMBIC_A20          238.0289    6364.      50.20   ! 
$ ------------------------------------------------------------------------------
$ Phase definitions
$
 PHASE LIQUID:L % 1 1 !
 CONST LIQUID:L : CU U : !
$
$ Fcc (cF4, Fm-3m) and MeX (cF8, Fm-3m)
$
 PHASE FCC_A1 %A 2 1 1 !
 CONST FCC_A1 : CU% U : VA : !
$
$ Bcc (cI2, Im-3m)
$
 PHASE BCC_A2 %B 2 1 3 !
 CONST BCC_A2 : CU U% : VA : !
$
$ Hcp (hP2, P6_3/mmc) and Me2X (NiAs-type, hP4, P6_3/mmc, B8_1)
$
 PHASE HCP_A3 %A 2 1 0.5 !
 CONST HCP_A3 : CU U : VA : !
$
$ Prototype alpha-U (oC4, Cmcm)
$
 PHASE ORTHORHOMBIC_A20 % 1 1 !
 CONST ORTHORHOMBIC_A20 : CU U% : !
$
$ Prototype beta-U (tP30, P4_2/mnm, SB: A_b)
$
 PHASE TETRAGONAL_U % 1 1 !
 CONST TETRAGONAL_U : CU U% : !
$
$ Prototype AuBe5 (cF24, F-43m)
$
 PHASE CU5U_C15B % 2 5 1 !
 CONST CU5U_C15B : CU : U : !
$ ------------------------------------------------------------------------------
$ Defaults
$
 DEFINE-SYSTEM-DEFAULT ELEMENT 2 !
 DEFAULT-COM DEFINE_SYSTEM_ELEMENT VA !
 TYPE-DEF % SEQ * !
 TYPE-DEF A GES AMEND_PHASE_DESCRIPTION @ MAGNETIC -3 0.28 !
 TYPE-DEF B GES AMEND_PHASE_DESCRIPTION @ MAGNETIC -1 0.4 !
 FUNCTION ZERO      298.15  0;                                         6000 N !
 FUNCTION UN_ASS    298.15  0;                                         6000 N !
 FUNCTION R         298.15  +8.31451;                                  6000 N !
$ ------------------------------------------------------------------------------
$ Element data
$ ------------------------------------------------------------------------------
$ Cu
$
$ ORTHORHOMBIC_A20 and TETRAGONAL_U from 19Sol not in unary
$
 PAR  G(FCC_A1,CU:VA),,                 +GHSERCU;                3200 N 91Din !
 PAR  G(BCC_A2,CU:VA),,                 +GHSERCU+4017-1.255*T;   3200 N 91Din !
 PAR  G(HCP_A3,CU:VA),,                 +GHSERCU+600+0.2*T;      3200 N 91Din !
 PAR  G(ORTHORHOMBIC_A20,CU),,          +GHSERCU+5000;           3200 N 19Sol !
 PAR  G(TETRAGONAL_U,CU),,              +GHSERCU+5000;           3200 N 19Sol !
 PAR  G(LIQUID,CU),,                    +GLIQCU;                 3200 N 91Din !
$
 FUNCTION GHSERCU   298.15  -7770.458+130.485235*T-24.112392*T*LN(T)
       -0.00265684*T**2+1.29223E-07*T**3+52478*T**(-1);
      1357.77  Y  -13542.026+183.803828*T-31.38*T*LN(T)+3.64167E+29*T**(-9);
      3200.00  N !
 FUNCTION GLIQCU    298.15  +12964.735-9.511904*T+GHSERCU-5.8489E-21*T**7;
      1357.77  Y  -46.545+173.881484*T-31.38*T*LN(T);
      3200.00  N !
$ ------------------------------------------------------------------------------
$ U
$
$ FCC_A1 and HCP_A3 added in unary 4.1
$
$ HCP_A3 from 04Che not in unary
$
 PAR  G(ORTHORHOMBIC_A20,U),,           +GHSERUU;                3000 N 91Din !
 PAR  G(TETRAGONAL_U,U),,               +GTETUU;                 3000 N 91Din !
 PAR  G(BCC_A2,U:VA),,                  +GBCCUU;                 3000 N 91Din !
 PAR  G(FCC_A1,U:VA),,                  +GHSERUU+5000;           3000 N 99SGUN !
 PAR  G(HCP_A3,U:VA),,                  +GBCCUU+5000-0.008*T;    3000 N 99SGUN !
$PAR  G(HCP_A3,U:VA),,                  +GHSERUU+50000;          3000 N 04Che3 !
 PAR  G(LIQUID,U),,                     +GHSERUU
             +12355.5-10.3239*T;                                 3000 N 91Din !
$
 FUNCTION GHSERUU   298.15  -8407.734+130.955151*T-26.9182*T*LN(T)
       +0.00125156*T**2-4.42605E-06*T**3+38568*T**(-1);
       955.00  Y  -22521.8+292.121093*T-48.66*T*LN(T);
      3000.00  N !
 FUNCTION GTETUU    298.15  -5156.136+106.976316*T-22.841*T*LN(T)
       -0.01084475*T**2+2.7889E-08*T**3+81944*T**(-1);
       941.50  Y  -14327.309+244.16802*T-42.9278*T*LN(T);
      3000.00  N !
 FUNCTION GBCCUU    298.15  -752.767+131.5381*T-27.5152*T*LN(T)
       -0.00835595*T**2+9.67907E-07*T**3+204611*T**(-1);
      1049.00  Y  -4698.365+202.685635*T-38.2836*T*LN(T);
      3000.00  N !
 FUNCTION GLIQUU    298.15  +GHSERUU+12355.5-10.3239*T;                3000 N !
$ ------------------------------------------------------------------------------
$ Binary system
$
$ L. Soldi, S. Gosse, A. Laplace, P. Bonnaillie, J. Schorne-Pinto, M. Roskosz,
$ J. Alloys Compd., 799, 239-46(2019).
$
$ Checked against paper. Checked at 6000 K.
$
$ Probable misprint for the fcc interaction. No solubility in fcc-Cu is shown
$ in the phase diagram, but the printed interaction results in about 2 at.%
$ solubility. Trailing zero added.
$
 PAR  L(LIQUID,CU,U;0),,                +74118-30.51*T;,,             N 19Sol !
 PAR  L(LIQUID,CU,U;1),,                -23863+0.58*T;,,              N 19Sol !
 PAR  L(LIQUID,CU,U;2),,                -28744;,,                     N 19Sol !
$
 PAR  L(FCC_A1,CU,U:VA;0),,             +161920;,,                    N 19Sol !
 PAR  L(BCC_A2,CU,U:VA;0),,             +37540;,,                     N 19Sol !
 PAR  L(ORTHORHOMBIC_A20,CU,U;0),,      +129564;,,                    N 19Sol !
 PAR  L(TETRAGONAL_U,CU,U;0),,          +34061;,,                     N 19Sol !
$
 PAR  G(CU5U_C15B,CU:U),,               +5*GHSERCU+GHSERUU
             +5761-22.84*T;,,                                         N 19Sol !
$
$ Metastable
$
 PAR  L(HCP_A3,CU,U:VA;0),,             +37540;,,                     N Same !
$ ------------------------------------------------------------------------------
$
$
 LIST-OF-REFERENCE
 NUMBER  SOURCE
  Null   'Unknown source'
  Same   'Same or similar interaction as in the corresponding stable phase'
  91Din  'A.T. Dinsdale, Calphad, 15, 317-425(1991).'
  99SGUN 'SGTE unary database V.4.1, 1999.'
  01SGUN 'SGTE unary database V.4.4, 2001.'
  08Wan  'C.P. Wang, Y.F. Li, X.J. Liu, K. Ishida,
          J. Alloys Compd., 458, 208-13(2008); Cu-Th'
  19Sol  'L. Soldi, S. Gosse, A. Laplace, P. Bonnaillie, J. Schorne-Pinto,
          M. Roskosz, J. Alloys Compd., 799, 239-46(2019); Cu, Cu-U'
!
