$
$ Database for Ce-O from M. Zinkevich et al. 2006
$
$ M. Zinkevich, D. Djurovic, F. Aldinger,
$ Solid State Ionics, 177, 989-1001(2006).
$
$ Dataset created 2010.11.12 by Bengt Hallstedt.
$ 2020.12.25: Modified for use with GES6.
$
$ There is a miscibility gap in the A_R2O3 phase and the CeO (i.e. x(O)=0.5)
$ composition is marginally stable below 1086 K.
$
$ The A+C+F equilibrium is at 1657 K instead of 1676 K. A+C+Ce7O12 is at 892 K
$ instead of 885 K. C+Ce7O12+F ist at 1316 K instead of 1321 K.
$ Changing sign of L(C_R2O3,CE+3,CE+4:O-2:O-2;1) does not help.
$
$ All stoichiometric phases except Ce7O12 become unstable below 400 to 450 K.
$ 
$ ------------------------------------------------------------------------------
 TEMP-LIM 298.15 6000.00 !
$
$ELEMENT NAME  REF. STATE               ATOMIC MASS H298-H0    S298    !
$
 ELEMENT /-   ELECTRON_GAS                0.0          0.0      0.0    ! 
 ELEMENT VA   VACUUM                      0.0          0.0      0.0    ! 
 ELEMENT CE   FCC_A1                    140.12      7280.16    69.454  ! 
 ELEMENT O    1/2_MOLE_O2(G)             15.999     4341.0    102.52   ! 
$ ------------------------------------------------------------------------------
$ Species
$
 SPECIE  CE+2                               CE/+2 !
 SPECIE  CE+3                               CE/+3 !
 SPECIE  CE+4                               CE/+4 !
 SPECIE  CEO                                CE1O1 !
 SPECIE  CEO1.5                             CE1O1.5 !
 SPECIE  CEO2                               CE1O2 !
 SPECIE  O-2                                O/-2 !
 SPECIE  O2                                 O2 !
 SPECIE  O3                                 O3 !
$ ------------------------------------------------------------------------------
$ Phase definitions
$
 PHASE LIQUID:L % 1 1 !
 CONST LIQUID:L : CE CEO1.5 CEO2 : !
$
 PHASE ION:Y % 2 1 1 !
 CONST ION:Y : CE+3 CE+4 : O-2 VA : !
$
$ Fcc (cF4, Fm-3m) and MeX (cF8, Fm-3m)
$
 PHASE FCC_A1 % 2 1 1 !
 CONST FCC_A1 : CE% : O VA% : !
$
$ Bcc (cI2, Im-3m)
$ Note! not standard bcc model
$
 PHASE BCC_A2 % 2 1 1 !
 CONST BCC_A2 : CE : O VA% : !
$
$ Hcp (hP2, P6_3/mmc) and Me2X (NiAs-type, hP4, P6_3/mmc, B8_1)
$
 PHASE HCP_A3 % 2 1 0.5 !
 CONST HCP_A3 : CE : O VA% : !
$
$ Prototype alpha-La (hP4, P6_3/mmc, SB A3')
$
 PHASE DHCP % 2 1 0.5 !
 CONST DHCP : CE : O VA% : !
$
$ Prototype CaF2 (cF12, Fm-3m)
$
 PHASE FLUORITE_C1:I % 2 2 4 !
 CONST FLUORITE_C1:I : CE+3 CE+4% : O-2% VA : !
$
$ Prototype A-La2O3 (hP5, P-3m1)
$
 PHASE A_R2O3_D52:I % 3 2 2 1 !
 CONST A_R2O3_D52:I : CE+2 CE+3% : O-2 : O-2% VA : !
$
$ Prototype Mn2O3 (cI80, Ia-3)
$
 PHASE C_R2O3_D53:I % 3 2 3 1 !
 CONST C_R2O3_D53:I : CE+3% CE+4 : O-2% : O-2 VA% : !
$
$ Prototype H-La2O3 (hP10, P6_3/mmc)
$
 PHASE H_R2O3:I % 3 2 2 1 !
 CONST H_R2O3:I : CE+2 CE+3% : O-2 : O-2% VA : !
$
$ Prototype Nd2O3 (cI26, Im-3m)
$
 PHASE X_R2O3:I % 3 2 2 1 !
 CONST X_R2O3:I : CE+2 CE+3% : O-2 : O-2% VA : !
$
$ Prototype Pr7O12 (hR19, R-3)
$
 PHASE CE7O12:I % 3 4 3 12 !
 CONST CE7O12:I : CE+3 : CE+4 : O-2 : !
$
$
$
 PHASE CE9O16:I % 3 4 5 16 !
 CONST CE9O16:I : CE+3 : CE+4 : O-2 : !
$
$ triclinic (aP*)
$
 PHASE CE19O34:I % 3 8 11 34 !
 CONST CE19O34:I : CE+3 : CE+4 : O-2 : !
$
$
$
 PHASE CE40O72:I % 3 16 24 72 !
 CONST CE40O72:I : CE+3 : CE+4 : O-2 : !
$
$
$
 PHASE CE62O112:I % 3 24 38 112 !
 CONST CE62O112:I : CE+3 : CE+4 : O-2 : !
$
$ Prototype Tb11O20 (aP31, P-1)
$
 PHASE CE11O20:I % 3 4 7 20 !
 CONST CE11O20:I : CE+3 : CE+4 : O-2 : !
$
 PHASE O2GAS % 1 1 !
 CONST O2GAS : O2 :!
$
 PHASE GAS:G % 1 1 !
 CONST GAS:G : CE CEO O O2 O3 : !
$ ------------------------------------------------------------------------------
$ Defaults
$
 DEFINE-SYSTEM-DEFAULT ELEMENT 2 !
 DEFAULT-COM DEFINE_SYSTEM_ELEMENT VA /- !
 DEFAULT-COM REJECT-PHASE LIQUID !
 TYPE-DEF % SEQ * !
 FUNCTION ZERO      298.15  0;                                         6000 N !
 FUNCTION UN_ASS    298.15  0;                                         6000 N !
 FUNCTION R         298.15  +8.31451;                                  6000 N !
 FUNCTION RTLNP     298.15  +8.31451*T*LN(1E-05*P);                    6000 N !
$ ------------------------------------------------------------------------------
$ Element data
$ ------------------------------------------------------------------------------
$ Ce
$
$ HCP_A3 and DHCP added in unary 3.0
$ HCP_A3 and DHCP revised in unary 4.4
$
 PAR  G(FCC_A1,CE:VA),,                 +GHSERCE;                4000 N 91Din !
 PAR  G(BCC_A2,CE:VA),,                 +GBCCCE;                 4000 N 91Din !
 PAR  G(HCP_A3,CE:VA),,                 +GHSERCE+300;            4000 N Frank !
$PAR  G(HCP_A3,CE:VA),,                 +GHSERCE+50000;          4000 N 96SGUN !
 PAR  G(DHCP,CE:VA),,                   +GHSERCE
             -122.539+0.433*T;                                   4000 N 99Gsc !
$PAR  G(DHCP,CE),,                      +GHSERCE-190+0.56886*T;  4000 N 96SGUN !
 PAR  G(LIQUID,CE),,                    +GLIQCE;                 4000 N 91Din !
$
 PAR  G(ION,CE+3:VA),,                  +GLIQCE;                 4000 N 91Din !
 PAR  G(ION,CE+4:VA),,                  +2*GLIQCE+3*GLIQCEO2
             -2*GLICE2O3;,,                                           N 06Zin !
 PAR  G(GAS,CE),,                       +F5574T+RTLNP;,,              N 94SUB !
$
 FUNCTION GHSERCE   298.15  -7160.519+84.23022*T-22.3664*T*LN(T)
       -0.0067103*T**2-3.20773E-07*T**3-18117*T**(-1);
      1000.00  Y  -79678.506+659.4604*T-101.32248*T*LN(T)
       +0.026046487*T**2-1.930297E-06*T**3+11531707*T**(-1);
      2000.00  Y  -14198.639+190.370192*T-37.6978*T*LN(T);
      4000.00  N !
 FUNCTION GBCCCE    298.15  -1354.69-5.21501*T-7.7305867*T*LN(T)
       -0.029098402*T**2+4.784299E-06*T**3-196303*T**(-1);
      1000.00  Y  -12101.106+187.449688*T-37.6142*T*LN(T);
      1072.00  Y  -11950.375+186.333811*T-37.4627992*T*LN(T)
       -5.7145E-05*T**2+2.348E-09*T**3-25897*T**(-1);
      4000.00  N !
 FUNCTION GLIQCE    298.15  +4117.865-11.423898*T-7.5383948*T*LN(T)
       -0.02936407*T**2+4.827734E-06*T**3-198834*T**(-1);
      1000.00  Y  -6730.605+183.023193*T-37.6978*T*LN(T);
      4000.00  N !
$ Ce(g)
 FUNCTION F5574T    298.15  +415522.823-162.335296*T-2.278004*T*LN(T)
       -0.03027047*T**2+4.49130167E-06*T**3-235655.4*T**(-1);
       800.00  Y  +394890.236+79.9289911*T-38.12366*T*LN(T)
       -0.002449024*T**2+4.15102E-07*T**3+1999448*T**(-1);
      1500.00  Y  +390359.041+141.264497*T-47.09829*T*LN(T)
       +0.0033852315*T**2-2.141025E-07*T**3+1961344*T**(-1);
      3200.00  Y  +435081.796-76.3952519*T-19.26359*T*LN(T)
       -0.0038954345*T**2+1.30156067E-07*T**3-10269705*T**(-1);
      5900.00  Y  +209079.977+456.525021*T-81.18395*T*LN(T)
       +0.00366283*T**2-4.30937833E-08*T**3+1.449331E+08*T**(-1);
     10000.00  N !
$ ------------------------------------------------------------------------------
$ O
$
$ GHSEROO modified in unary 3.0
$
 PAR  G(O2GAS,O2),,                     +2*GHSEROO+RTLNP;,,           N 91Din !
$
 PAR  G(GAS,O),,                        +F7397T+RTLNP;,,              N 92SUB !
 PAR  G(GAS,O2),,                       +2*GHSEROO+RTLNP;,,           N 91Din ! 
 PAR  G(GAS,O3),,                       +F7683T+RTLNP;,,              N 92SUB !
$
$ 1/2 O2(g)
 FUNCTION GHSEROO   298.15  -3480.87-25.503038*T-11.1355*T*LN(T)
       -0.005098875*T**2+6.61845833E-07*T**3-38365*T**(-1);
      1000.00  Y  -6568.763+12.659879*T-16.8138*T*LN(T)
       -5.957975E-04*T**2+6.781E-09*T**3+262905*T**(-1);
      3300.00  Y  -13986.728+31.259624*T-18.9536*T*LN(T)
       -4.25243E-04*T**2+1.0721E-08*T**3+4383200*T**(-1);
      6000.00  N !
$ O(g)
 FUNCTION F7397T    298.15  +243206.529-42897.0876*T**(-1)-20.7513421*T
       -21.0155542*T*LN(T)+1.26870532E-04*T**2-1.23131285E-08*T**3;
      2950.00  Y  +252301.473-3973170.33*T**(-1)-51.974853*T
       -17.2118798*T*LN(T)-5.41356254E-04*T**2+7.64520703E-09*T**3;
      6000.00  N !
$ O3(g)
 FUNCTION F7683T    298.15  +133772.042-11328.9959*T**(-1)-84.8602165*T
       -19.8314069*T*LN(T)-0.0392015696*T**2+7.90727187E-06*T**3;  
       600.00  Y  +120765.524+997137.156*T**(-1)+120.113376*T
       -51.8410152*T*LN(T)-0.00353983136*T**2+3.20640143E-07*T**3;
      1500.00  Y  +115412.196+1878139.02*T**(-1)+164.679664*T
       -58.069736*T*LN(T)-2.84399032E-04*T**2+5.95650279E-10*T**3;
      6000.00  N !
$ ------------------------------------------------------------------------------
$ Binary system
$
$ M. Zinkevich, D. Djurovic, F. Aldinger,
$ Solid State Ionics, 177, 989-1001(2006).
$
$ Checked against paper. Checked at 6000 K.
$ 
$ There is a miscibility gap in the A_R2O3 phase and the CeO (i.e. x(O)=0.5)
$ composition is marginally stable below 1086 K.
$
$ The A+C+F equilibrium is at 1657 K instead of 1676 K. A+C+Ce7O12 is at 892 K
$ instead of 885 K. C+Ce7O12+F ist at 1316 K instead of 1321 K.
$ Changing sign of L(C_R2O3,CE+3,CE+4:O-2:O-2;1) does not help.
$
$ All stoichiometric phases except Ce7O12 become unstable below 400 to 450 K.
$
 PAR  G(LIQUID,CEO1.5),,                +0.5*GCE2O3A
             +63327-27.2485*T;,,                                      N 06Zin !
 PAR  G(LIQUID,CEO2),,                  +GCEO2+87177-29.059*T;,,      N 06Zin !
 PAR  L(LIQUID,CE,CEO1.5;0),,           +32515;,,                     N 08Dju !
 PAR  L(LIQUID,CEO1.5,CEO2;0),,         -53967;,,                     N 08Dju !
 PAR  L(LIQUID,CEO1.5,CEO2;1),,         -14645;,,                     N 08Dju !
$
 PAR  G(ION,CE+3:O-2),,                 +GLICE2O3;,,                  N 06Zin !
 PAR  G(ION,CE+4:O-2),,                 +2*GLIQCEO2;,,                N 06Zin !
 PAR  L(ION,CE+3,CE+4:O-2;0),,          -105398;,,                    N 06Zin !
 PAR  L(ION,CE+3,CE+4:O-2;1),,          -35158;,,                     N 06Zin !
 PAR  L(ION,CE+3:O-2,VA;0),,            +114250;,,                    N 06Zin !
$
 PAR  G(FCC_A1,CE:O),,                  +GHSERCE+GHSEROO
             -525009+67.7626*T;,,                                     N 06Zin !
$
 PAR  G(BCC_A2,CE:O),,                  +GBCCCE+GHSEROO
             -521242+67.7626*T;,,                                     N 06Zin !
$
 PAR  G(FLUORITE,CE+3:O-2),,            +GCE2O3F+GHSEROO
             +18.702165*T;,,                                          N 06Zin !
 PAR  G(FLUORITE,CE+3:VA),,             +GCE2O3F-3*GHSEROO
             +18.702165*T;,,                                          N 06Zin !
 PAR  G(FLUORITE,CE+4:O-2),,            +2*GCEO2;,,                   N 06Zin !
 PAR  G(FLUORITE,CE+4:VA),,             +2*GCEO2-4*GHSEROO;,,         N 06Zin !
 PAR  L(FLUORITE,CE+3,CE+4:O-2;0),,     -117572+25.9745*T;,,          N 06Zin !
 PAR  L(FLUORITE,CE+3,CE+4:VA;0),,      -117572+25.9745*T;,,          N 06Zin !
 PAR  L(FLUORITE,CE+3,CE+4:O-2;1),,     -115033+31.1026*T;,,          N 06Zin !
 PAR  L(FLUORITE,CE+3,CE+4:VA;1),,      -115033+31.1026*T;,,          N 06Zin !
$
 PAR  G(A_R2O3,CE+2:O-2:O-2),,          +GCE2O2+GHSEROO;,,            N 06Zin !
 PAR  G(A_R2O3,CE+2:O-2:VA),,           +GCE2O2;,,                    N 06Zin !
 PAR  G(A_R2O3,CE+3:O-2:O-2),,          +GCE2O3A;,,                   N 07Zin !
 PAR  G(A_R2O3,CE+3:O-2:VA),,           +GCE2O3A-GHSEROO;,,           N 06Zin !
 PAR  L(A_R2O3,CE+2,CE+3:O-2:O-2;0),,   +102206;,,                    N 06Zin !
 PAR  L(A_R2O3,CE+2,CE+3:O-2:VA;0),,    +102206;,,                    N 06Zin !
$
 PAR  G(C_R2O3,CE+3:O-2:O-2),,          +GCE2O3C+GHSEROO;,,           N 06Zin !
 PAR  G(C_R2O3,CE+3:O-2:VA),,           +GCE2O3C;,,                   N 07Zin !
 PAR  G(C_R2O3,CE+4:O-2:O-2),,          +2*GCEO2+19140;,,             N 06Zin !
 PAR  G(C_R2O3,CE+4:O-2:VA),,           +2*GCEO2-GHSEROO+19140;,,     N 06Zin !
 PAR  L(C_R2O3,CE+3,CE+4:O-2:O-2;0),,   -7178-17.7264*T;,,            N 06Zin !
 PAR  L(C_R2O3,CE+3,CE+4:O-2:VA;0),,    -7178-17.7264*T;,,            N 06Zin !
 PAR  L(C_R2O3,CE+3,CE+4:O-2:O-2;1),,   -25591+22.2801*T;,,           N 06Zin !
 PAR  L(C_R2O3,CE+3,CE+4:O-2:VA;1),,    -25591+22.2801*T;,,           N 06Zin !
$
 PAR  G(H_R2O3,CE+2:O-2:O-2),,          +GCE2O2+GHSEROO;,,            N 06Zin !
 PAR  G(H_R2O3,CE+2:O-2:VA),,           +GCE2O2;,,                    N 06Zin !
 PAR  G(H_R2O3,CE+3:O-2:O-2),,          +GCE2O3H;,,                   N 07Zin !
 PAR  G(H_R2O3,CE+3:O-2:VA),,           +GCE2O3H-GHSEROO;,,           N 06Zin !
 PAR  L(H_R2O3,CE+2,CE+3:O-2:O-2),,     +102206;,,                    N 06Zin !
 PAR  L(H_R2O3,CE+2,CE+3:O-2:VA),,      +102206;,,                    N 06Zin !
$
 PAR  G(X_R2O3,CE+2:O-2:O-2),,          +GCE2O2+GHSEROO;,,            N 06Zin !
 PAR  G(X_R2O3,CE+2:O-2:VA),,           +GCE2O2;,,                    N 06Zin !
 PAR  G(X_R2O3,CE+3:O-2:O-2),,          +GCE2O3X;,,                   N 07Zin !
 PAR  G(X_R2O3,CE+3:O-2:VA),,           +GCE2O3X-GHSEROO;,,           N 06Zin !
 PAR  L(X_R2O3,CE+2,CE+3:O-2:O-2),,     +102206;,,                    N 06Zin !
 PAR  L(X_R2O3,CE+2,CE+3:O-2:VA),,      +102206;,,                    N 06Zin !
$
 PAR  G(CE7O12,CE+3:CE+4:O-2),,         +2*GCE2O3F+3*GCEO2
             -133719-11.0961*T;,,                                     N 06Zin !
 PAR  G(CE9O16,CE+3:CE+4:O-2),,         +2*GCE2O3F+5*GCEO2
             -125351-31.333*T;,,                                      N 06Zin !
 PAR  G(CE19O34,CE+3:CE+4:O-2),,        +4*GCE2O3F+11*GCEO2
             -247150-71*T;,,                                          N 06Zin !
 PAR  G(CE40O72,CE+3:CE+4:O-2),,        +8*GCE2O3F+24*GCEO2
             -488650-155*T;,,                                         N 06Zin !
 PAR  G(CE62O112,CE+3:CE+4:O-2),,       +12*GCE2O3F+38*GCEO2
             -730900-237.3*T;,,                                       N 06Zin !
 PAR  G(CE11O20,CE+3:CE+4:O-2),,        +2*GCE2O3F+7*GCEO2
             -121419-40.45*T;,,                                       N 06Zin !
$
 PAR  G(GAS,CEO),,                      +F5626T+RTLNP;,,              N 94SUB !
$
$ metastable
$
 PAR  G(HCP_A3,CE:O),,                  +GHSERCE+300+0.5*GHSEROO;,,   N 08Dju !
$
 PAR  G(DHCP,CE:O),,                    +GHSERCE-122.539+0.433*T
             +0.5*GHSEROO;,,                                          N 08Dju !
$
 PAR  G(B_R2O3,CE+3:O-2),,              +GCE2O3B;,,                   N 07Zin !
$
 FUNCTION GLICE2O3  298.15  +GCE2O3A+126654-54.497*T;                  6000 N !
 FUNCTION GLIQCEO2  298.15  +GCEO2+87177-29.059*T;                     6000 N !
 FUNCTION GCEO2     298.15  -1116518+434.8839*T-72.866*T*LN(T)
       -0.003992*T**2+602000*T**(-1);
      6000.00  N !
 FUNCTION GCE2O3A   298.15  -1832858+667.3307*T-119.855*T*LN(T)
       -0.012155*T**2+546000*T**(-1);
      6000.00  N !
 FUNCTION GCE2O3B   298.15  +GCE2O3A+2283+1.961*T;                     6000 N !
 FUNCTION GCE2O3C   298.15  +GCE2O3A+4390+7.232*T;                     6000 N !
 FUNCTION GCE2O3H   298.15  +GCE2O3A+32699-13.986*T;                   6000 N !
 FUNCTION GCE2O3X   298.15  +GCE2O3A+43724-18.555*T;                   6000 N !
 FUNCTION GCE2O3F   298.15  -1804481+1067.043*T-175.3336*T*LN(T)
       -6.498627E-04*T**2+546000*T**(-1);
      6000.00  N !
 FUNCTION GCE2O2    298.15  +0.66666667*GCE2O3A+0.66666667*GHSERCE;    6000 N !
$ CeO(g)
 FUNCTION F5626T    298.15  -140721.775-55.35698*T-26.80191*T*LN(T)
       -0.018793285*T**2+3.20697333E-06*T**3+78887.25*T**(-1);
       800.00  Y  -156451.4+135.868596*T-55.26216*T*LN(T)
       +0.004151018*T**2-2.71056167E-07*T**3+1712598*T**(-1);
      2800.00  Y  -145347.823+72.3320205*T-46.90508*T*LN(T)
       +0.0014029315*T**2-1.06263967E-07*T**3-1106602.5*T**(-1);
      6000.00  N !
$ ------------------------------------------------------------------------------
$
$
 LIST-OF-REFERENCE
 NUMBER  SOURCE
  Null   'Unknown source'
  Frank  'Peter Franke, unpublished, SGTE unary database V.4.4, 2001; Ce'
  91Din  'A.T. Dinsdale, Calphad, 15, 317-425(1991).'
  92SUB  'SGTE Substance Database, version 1992'
  94SUB  'SGTE Substance Database, version 1994'
  96SGUN 'SGTE unary database V.3.0, 1996.'
  99Gsc  'K.A. Gschneidner, Jr., V.K. Pecharsky, J. Phase Equilib.,
          20, 612-14(1999), SGTE unary database V.4.4, 2001; Ce'
  06Zin  'M. Zinkevich, D. Djurovic, F. Aldinger,
          Solid State Ionics, 177, 989-1001(2006); Ce-O'
  07Zin  'M. Zinkevich, Prog. Mater. Sci., 52, 597-647(2007); R2O3'
  08Dju  'D. Djurovic, M. Zinkevich, F. Aldinger,
          Solid State Ionics, 179, 1902-11(2008); Ce-Y, Ce-Y-O'
!
