$
$ Database for Eu-Ga from F. Li et al. 2020.
$
$ F. Li, J. Liu, Q. Li, C. Guo, X. Zhang, J. Xiao,
$ Int. J. Mater. Res., 111, 214-19(2020).
$
$ Dataset created 2021.07.15 by Bengt Hallstedt.
$
$ In the paper a version with EuGa2 associates is also provided, but the
$ Gibbs energy for the associate is not given. The results with the associates
$ also seem somewhat strange.
$
$ Temperature dependencies seem too strong.
$
$ There is an inverse miscibility gap with a minimum at 1712 K and x(Ga)=0.08.
$
$ There is some misprint in the EuGa2 parameter. The L + EuGa2 --> Eu2Ga3
$ equilibrium is at 1040 K instead of 1063 K.
$
$ There is disagreement concerning composition (and crystal structure?)
$ between the paper and the Pauling file for the phases Eu5Ga3, Eu2Ga3 and
$ Eu2Ga5. The paper cites OQMD and Materials project, but does not provide
$ crystal structures. Crystal structures here are cited from the Pauling file
$ at Springer Materials.
$
$ ------------------------------------------------------------------------------
 TEMP-LIM 298.15 6000.00 !
$
$ELEMENT NAME  REF. STATE               ATOMIC MASS H298-H0    S298    !
$
 ELEMENT VA   VACUUM                      0.0          0.0      0.0    ! 
 ELEMENT EU   BCC_A2                    151.96      8004.0     80.79304! 
 ELEMENT GA   ORTHORHOMBIC_GA            69.72      5572.0     40.7271 ! 
$ ------------------------------------------------------------------------------
$ Phase definitions
$
 PHASE LIQUID:L % 1 1 !
 CONST LIQUID:L : EU GA : !
$
$ Fcc (cF4) and MeX (cF8)
$
 PHASE FCC_A1 %A 2 1 1 !
 CONST FCC_A1 : GA : VA : !
$
$ Bcc (cI2, Im-3m)
$
 PHASE BCC_A2 %B 2 1 3 !
 CONST BCC_A2 : EU% GA : VA : !
$
$ Hcp (hP2, P6_3/mmc) and Me2X (NiAs-type, hP4, P6_3/mmc, B8_1)
$
 PHASE HCP_A3 %A 2 1 0.5 !
 CONST HCP_A3 : GA : VA : !
$
$ alpha-Ga (oC8, Cmca)
$
 PHASE ORTHORHOMBIC_A11 % 1 1 !
 CONST ORTHORHOMBIC_A11 : GA : !
$
$ Prototype Ga3Y5 (mC32, C2/m, 12)
$
 PHASE EU5GA3 % 2 5 3 !
 CONST EU5GA3 : EU : GA : !
$
$ Prototype EuGa (aP8, P-1, 2)
$
 PHASE EUGA % 2 1 1 !
 CONST EUGA : EU : GA : !
$
$ Prototype Eu3Ga5 (oC32, Amm2, 38)
$
 PHASE EU2GA3 % 2 2 3 !
 CONST EU2GA3 : EU : GA : !
$
$ Prototype AlB2 (hP3, P6/mmm), ht and Hg2K (oI12, Imma), lt
$
 PHASE EUGA2 % 2 1 2 !
 CONST EUGA2 : EU : GA : !
$
$ Prototype Eu3Ga8 (oI22, Immm, 71)
$
 PHASE EU2GA5 % 2 2 5 !
 CONST EU2GA5 : EU : GA : !
$
$ Prototype Al4Ba (tI10, I4/mmm)
$
 PHASE EUGA4_D13 % 2 1 4 !
 CONST EUGA4_D13 : EU : GA : !
$ ------------------------------------------------------------------------------
$ Defaults
$
 DEFINE-SYSTEM-DEFAULT ELEMENT 2 !
 DEFAULT-COM DEFINE_SYSTEM_ELEMENT VA !
 TYPE-DEF % SEQ * !
 TYPE-DEF A GES AMEND_PHASE_DESCRIPTION @ MAGNETIC -3 0.28 !
 TYPE-DEF B GES AMEND_PHASE_DESCRIPTION @ MAGNETIC -1 0.4 !
 FUNCTION ZERO      298.15  0;                                         6000 N !
 FUNCTION UN_ASS    298.15  0;                                         6000 N !
 FUNCTION R         298.15  +8.31451;                                  6000 N !
$ ------------------------------------------------------------------------------
$ Element data
$ ------------------------------------------------------------------------------
$ Eu
$
$ BCC_A2 modified in unary 5.0
$ (upper T interval added + trailing decimals added)
$
$ TETRAGONAL_A6 from 11Gao not included in unary
$
 PAR  G(BCC_A2,EU:VA),,                 +GHSEREU;                1900 N 91Din !
$PAR  G(TETRAGONAL_A6,EU),,             +GHSEREU+1000;           1900 N 11Gao !
 PAR  G(LIQUID,EU),,                    +GLIQEU;                 1900 N 91Din !
$
 FUNCTION GHSEREU   298.15  -9864.965+135.836737*T-32.8418896*T*LN(T)
       +0.00931735*T**2-4.006564E-06*T**3+102717*T**(-1);
      1095.00  Y  -287423.476+2174.733036*T-309.3571009*T*LN(T)
       +0.114530917*T**2-8.809866E-06*T**3+48455305*T**(-1);
      1900.00  Y  -13663.125+182.113799*T-38.11624*T*LN(T);
      1901.00  N !
 FUNCTION GLIQEU    298.15  +8382.505-7.175215*T+GHSEREU;
       400.00  Y  +10972.726-103.688201*T+4.3501554*T*LN(T)
       -0.036811218*T**2+5.452934E-06*T**3-646908*T**(-1);
      1095.00  Y  -6890.641+175.517247*T-38.11624*T*LN(T);
      1900.00  N !
$ ------------------------------------------------------------------------------
$ Ga
$
$ DIAMOND_A4 added in unary 5.0
$
$ Changed name from ORTHORHOMBIC_GA to ORTHORHOMBIC_A11
$
 PAR  G(ORTHORHOMBIC_A11,GA)    200.00  +GHSERGA;                4000 N 91Din !
 PAR  G(FCC_A1,GA:VA)           200.00  +GHSERGA+3800-10.2*T;    4000 N 91Din !
 PAR  G(BCC_A2,GA:VA)           200.00  +GHSERGA+4500-11.7*T;    4000 N 91Din !
 PAR  G(HCP_A3,GA:VA)           200.00  +GHSERGA+4500-9.5*T;     4000 N 91Din !
$PAR  G(DIAMOND_A4,GA)          200.00  +GHSERGA+20900-2*T;      4000 N 09SGUN !
$PAR  G(BCT_A5,GA)              200.00  +GHSERGA+3846-9.8*T;     4000 N 91Din !
$PAR  G(TETRAGONAL_A6,GA)       200.00  +GHSERGA+3500-10*T;      4000 N 91Din !
 PAR  G(LIQUID,GA)              200.00  +GLIQGA;                 4000 N 91Din !
$
 FUNCTION GHSERGA   200.00  -21312.331+585.263691*T-108.228783*T*LN(T)
       +0.227155636*T**2-1.18575257E-04*T**3+439954*T**(-1);
       302.91  Y  -7055.643+132.73019*T-26.0692906*T*LN(T)
       +1.506E-04*T**2-4.0173E-08*T**3-118332*T**(-1)+1.64547E+23*T**(-9);
      4000.00  N !
 FUNCTION GLIQGA    200.00  +5491.298-18.073995*T+GHSERGA-7.0171E-17*T**7;
       302.91  Y  +5666.455-18.681147*T+GHSERGA-1.64547E+23*T**(-9);
      4000.00  N !
 FUNCTION GHCPGA    298.15  +GHSERGA+4500-9.5*T;                       6000 N !
$ ------------------------------------------------------------------------------
$ Binary system
$
$ F. Li, J. Liu, Q. Li, C. Guo, X. Zhang, J. Xiao,
$ Int. J. Mater. Res., 111, 214-19(2020).
$
$ Checked against paper. Checked at 6000 K.
$
$ In the paper a version with EuGa2 associates is also provided, but the
$ Gibbs energy for the associate is not given. The results with the associates
$ also seem somewhat strange.
$
$ Temperature dependencies seem too strong.
$
$ There is an inverse miscibility gap with a minimum at 1712 K and x(Ga)=0.08.
$
$ There is some misprint in the EuGa2 parameter. The L + EuGa2 --> Eu2Ga3
$ equilibrium is at 1040 K instead of 1063 K.
$
$ There is disagreement concerning composition (and crystal structure?)
$ between the paper and the Pauling file for the phases Eu5Ga3, Eu2Ga3 and
$ Eu2Ga5. The paper cites OQMD and Materials project, but does not provide
$ crystal structures. Crystal structures here are cited from the Pauling file
$ at Springer Materials.
$
 PAR  L(LIQUID,EU,GA;0),,               -103215.2+11.572*T;,,         N 20Li !
 PAR  L(LIQUID,EU,GA;1),,               -17523.2+33.215*T;,,          N 20Li !
 PAR  L(LIQUID,EU,GA;2),,               -27012.3+15.842*T;,,          N 20Li !
 PAR  L(LIQUID,EU,GA;3),,               +23654.2;,,                   N 20Li !
$
 PAR  L(BCC_A2,EU,GA:VA;0),,            +UN_ASS;,,                    N !
$
 PAR  G(EU5GA3,EU:GA),,                 +5*GHSEREU+3*GHSERGA
             -376169.6+154.688*T;,,                                   N 20Li !
 PAR  G(EUGA,EU:GA),,                   +GHSEREU+GHSERGA
             -107042.4+35.07*T;,,                                     N 20Li !
 PAR  G(EU2GA3,EU:GA),,                 +2*GHSEREU+3*GHSERGA
             -284311+74.88*T;,,                                       N 20Li !
$ Misprinted parameter in paper below
$PAR  G(EUGA2,EU:GA),,                  +GHSEREU+2*GHSERGA
$            -163563.6+71.658*T;,,                                    N 20Li !
$ Corrected parameter below
 PAR  G(EUGA2,EU:GA),,                  +GHSEREU+2*GHSERGA
             -163563.6+29.41*T;,,                                     N 20Li !
 PAR  G(EU2GA5,EU:GA),,                 +2*GHSEREU+5*GHSERGA
             -369608.4+64.841*T;,,                                    N 20Li !
 PAR  G(EUGA4_D13,EU:GA),,              +GHSEREU+4*GHSERGA
             -206277.5+16.295*T;,,                                    N 20Li !
$ ------------------------------------------------------------------------------
$
$
 LIST-OF-REFERENCE
 NUMBER  SOURCE
  Null   'Unknown source'
  Same   'Same or similar interaction as in the corresponding stable phase'
  COST   'COST 507 database'
  91Din  'A.T. Dinsdale, Calphad, 15, 317-425(1991).'
  09SGUN 'SGTE unary database V.5.0, 2009.'
  11Gao  'F. Gao, S.L. Wang, C.P. Wang, X.J. Liu,
          Calphad, 35, 1-5(2011); Eu'
  20Li   'F. Li, J. Liu, Q. Li, C. Guo, X. Zhang, J. Xiao,
          Int. J. Mater. Res., 111, 214-19(2020); Eu-Ga'
!
