$
$ Database for Ba-Eu from H. Okamoto 1991 (included in LB Vol. 2)
$
$ H. Okamoto, J. Phase Equilib., 12, 698(1991).
$
$ Dataset created 2014.01.18 by Bengt Hallstedt.
$ 2020.12.22: Modified for use with GES6.
$
$ ------------------------------------------------------------------------------
 TEMP-LIM 298.15 6000.00 !
$
$ELEMENT NAME  REF. STATE               ATOMIC MASS H298-H0    S298    !
$
 ELEMENT VA   VACUUM                      0.0          0.0      0.0    ! 
 ELEMENT BA   BCC_A2                    137.33      6910.0     62.50   ! 
 ELEMENT EU   BCC_A2                    151.96      8004.0     80.79304! 
$ ------------------------------------------------------------------------------
$ Phase definitions
$
 PHASE LIQUID:L % 1 1 !
 CONST LIQUID:L : BA EU : !
$
$ Fcc (cF4, Fm-3m) and MeX (cF8, Fm-3m)
$
 PHASE FCC_A1 %A 2 1 1 !
 CONST FCC_A1 : BA : VA : !
$
$ Bcc (cI2, Im-3m)
$
 PHASE BCC_A2 %B 2 1 3 !
 CONST BCC_A2 : BA% EU% : VA : !
$
$ Hcp (hP2, P6_3/mmc) and Me2X (NiAs-type, hP4, P6_3/mmc, B8_1)
$
 PHASE HCP_A3 %A 2 1 0.5 !
 CONST HCP_A3 : BA : VA : !
$ ------------------------------------------------------------------------------
$ Defaults
$
 DEFINE-SYSTEM-DEFAULT ELEMENT 2 !
 DEFAULT-COM DEFINE_SYSTEM_ELEMENT VA !
 TYPE-DEF % SEQ * !
 TYPE-DEF A GES AMEND_PHASE_DESCRIPTION @ MAGNETIC -3 0.28 !
 TYPE-DEF B GES AMEND_PHASE_DESCRIPTION @ MAGNETIC -1 0.4 !
 FUNCTION ZERO      298.15  0;                                         6000 N !
 FUNCTION UN_ASS    298.15  0;                                         6000 N !
 FUNCTION R         298.15  +8.31451;                                  6000 N !
$ ------------------------------------------------------------------------------
$ Element data
$ ------------------------------------------------------------------------------
$ Ba
$
 PAR  G(BCC_A2,BA:VA),,                 +GHSERBA;                4000 N 91Din !
 PAR  G(HCP_A3,BA:VA),,                 +GHSERBA+2000+1.3*T;     4000 N 91Din !
 PAR  G(FCC_A1,BA:VA),,                 +GHSERBA+1800+0.6*T;     4000 N 91Din !
 PAR  G(LIQUID,BA),,                    +GLIQBA;                 4000 N 91Din !
$
 FUNCTION GHSERBA   298.15  -17685.226+233.78606*T-42.889*T*LN(T)
       -0.0018314*T**2-9.5E-11*T**3+705880*T**(-1);
      1000.00  Y  -64873.614+608.188389*T-94.2824199*T*LN(T)
       +0.019504772*T**2-1.051353E-06*T**3+8220192*T**(-1);
      2995.00  Y  +8083.889+136.780042*T-32.2*T*LN(T);
      4000.00  N !
 FUNCTION GLIQBA    298.15  -9738.988+229.540143*T-43.4961089*T*LN(T)
       -0.002346416*T**2+9.91223E-07*T**3+723016*T**(-1);
      1000.00  Y  -7381.093+235.49642*T-45.103*T*LN(T)
       +0.002154*T**2+2.7E-11*T**3-365*T**(-1);
      2995.00  Y  +3856.393-4.568042*T+GHSERBA;
      4000.00  N !
$ ------------------------------------------------------------------------------
$ Eu
$
$ BCC_A2 modified in unary 5.0
$ (upper T interval added + trailing decimals added)
$
 PAR  G(BCC_A2,EU:VA),,                 +GHSEREU;                1900 N 91Din !
 PAR  G(LIQUID,EU),,                    +GLIQEU;                 1900 N 91Din !
$
 FUNCTION GHSEREU   298.15  -9864.965+135.836737*T-32.8418896*T*LN(T)
       +0.00931735*T**2-4.006564E-06*T**3+102717*T**(-1);
      1095.00  Y  -287423.476+2174.733036*T-309.3571009*T*LN(T)
       +0.114530917*T**2-8.809866E-06*T**3+48455305*T**(-1);
      1900.00  Y  -13663.125+182.113799*T-38.11624*T*LN(T);
      1901.00  N !
 FUNCTION GLIQEU    298.15  +8382.505-7.175215*T+GHSEREU;
       400.00  Y  +10972.726-103.688201*T+4.3501554*T*LN(T)
       -0.036811218*T**2+5.452934E-06*T**3-646908*T**(-1);
      1095.00  Y  -6890.641+175.517247*T-38.11624*T*LN(T);
      1900.00  N !
$ ------------------------------------------------------------------------------
$ Binary system
$
$ From from H. Okamoto 1991 (included in LB Vol. 2)
$
$ H. Okamoto, J. Phase Equilib., 12, 698(1991).
$
$ Checked against LB and paper. Checked at 6000 K.
$
 PAR  L(LIQUID,BA,EU;0),,               +ZERO;,,                      N 91Oka !
$
 PAR  L(BCC_A2,BA,EU:VA;0),,            +500;,,                       N 91Oka !
$ ------------------------------------------------------------------------------
$
 ASSESSED_SYSTEM
  BA-EU(TDB -* +LIQUID +BCC_A2 ;P3 TMM:800/1200 *) !
$
$
 LIST-OF-REFERENCE
 NUMBER  SOURCE
  Null   'Unknown source'
  Same   'Same or similar interaction as in the corresponding stable phase'
  COST   'COST 507 database'
  91Din  'A.T. Dinsdale, Calphad, 15, 317-425(1991).'
  91Oka  'H. Okamoto, J. Phase Equilib., 12, 698(1991); Ba-Eu'
!
