$
$ Database for Cd-Te from J. Yang et al. 1995.
$
$ J. Yang, N.J. Silk, A. Watson, A.W. Bryant, B.B. Argent,
$ Calphad, 19, 399-414(1995).
$
$ Dataset created 2019.12.07 by Bengt Hallstedt.
$
$ ------------------------------------------------------------------------------
 TEMP-LIM 298.15 6000.00 !
$
$ELEMENT NAME  REF. STATE               ATOMIC MASS H298-H0    S298    !
$
 ELEMENT VA   VACUUM                      0.0          0.0      0.0    ! 
 ELEMENT CD   HCP_A3                    112.41      6247.      51.80   ! 
 ELEMENT TE   HEXAGONAL_A8              127.60      6080.      49.221  ! 
$ ------------------------------------------------------------------------------
$ Species
$
 SPECIE  CDTE                               CD1TE1 !
 SPECIE  TE2                                TE2 !
 SPECIE  TE3                                TE3 !
 SPECIE  TE4                                TE4 !
 SPECIE  TE5                                TE5 !
 SPECIE  TE6                                TE6 !
 SPECIE  TE7                                TE7 !
$ ------------------------------------------------------------------------------
$ Phase definitions
$
 PHASE LIQUID:L % 1 1 !
 CONST LIQUID:L : CD CDTE TE : !
$
$ Fcc (cF4, Fm-3m) and MeX (cF8, Fm-3m)
$
 PHASE FCC_A1 %A 2 1 1 !
 CONST FCC_A1 : CD : VA : !
$
$ Bcc (cI2, Im-3m)
$
 PHASE BCC_A2 %B 2 1 3 !
 CONST BCC_A2 : CD : VA : !
$
$ Hcp (hP2, P6_3/mmc) and Me2X (NiAs-type, hP4, P6_3/mmc, B8_1)
$
 PHASE HCP_A3 %A 2 1 0.5 !
 CONST HCP_A3 : CD% : VA : !
$
$ Prototype gamma-Se (hP3, P3_121)
$ The phase is named HEXAGONAL_A8 in the SGTE unary database and
$ TRIGONAL_A8 in LB.
$
 PHASE HEXAGONAL_A8 % 1 1 !
 CONST HEXAGONAL_A8 : TE : !
$
$ Prototype ZnS (cF8, F-43m)
$
 PHASE ZINCBLENDE_B3 % 2 1 1 !
 CONST ZINCBLENDE_B3 : CD : TE : !
$
 PHASE GAS:G % 1 1 !
 CONST GAS:G : CD TE TE2 TE3 TE4 TE5 TE6 TE7 : !
$ ------------------------------------------------------------------------------
$ Defaults
$
 DEFINE-SYSTEM-DEFAULT ELEMENT 2 !
 DEFAULT-COM DEFINE_SYSTEM_ELEMENT VA !
 TYPE-DEF % SEQ * !
 TYPE-DEF A GES AMEND_PHASE_DESCRIPTION @ MAGNETIC -3 0.28 !
 TYPE-DEF B GES AMEND_PHASE_DESCRIPTION @ MAGNETIC -1 0.4 !
 FUNCTION ZERO      298.15  0;                                         6000 N !
 FUNCTION UN_ASS    298.15  0;                                         6000 N !
 FUNCTION R         298.15  +8.31451;                                  6000 N !
 FUNCTION RTLNP     298.15  +8.31451*T*LN(1E-05*P);                    6000 N !
$ ------------------------------------------------------------------------------
$ Element data
$ ------------------------------------------------------------------------------
$ Cd
$
$ FCC_A1 and TETRAGONAL_A6 added in unary 3.0
$ BCT_A5 and RHOMBO_A10 added in unary 4.1
$ BCC_A2 added in unary 5.0
$
 PAR  G(HCP_A3,CD:VA),,                 +GHSERCD;                1600 N 91Din !
 PAR  G(FCC_A1,CD:VA),,                 +GHSERCD+892.3-0.92*T;   1600 N 93Zak !
 PAR  G(BCC_A2,CD:VA),,                 +GHSERCD+1000;           1600 N 04Che1 !
$PAR  G(TETRAGONAL_A6,CD),,             +GHSERCD+892.3-0.92*T;   1600 N 93Zak !
$PAR  G(BCT_A5,CD),,                    +GHSERCD+5000;           1600 N 95Yan2 !
$PAR  G(RHOMBO_A10,CD),,                +GHSERCD+800-0.62*T;     1600 N 95Yan2 !
 PAR  G(LIQUID,CD),,                    +GLIQCD;                 1600 N 91Din !
$
 PAR  G(GAS,CD),,                       +FCD+RTLNP;,,                 N 99SUB !
$
 FUNCTION GHSERCD   298.15  -7083.469+99.506198*T-22.0442408*T*LN(T)
       -0.006273908*T**2-6966*T**(-1);
       594.22  Y  -20064.971+256.812233*T-45.1611543*T*LN(T)
       +0.008832011*T**2-8.99604E-07*T**3+1241290*T**(-1);
      1500.00  Y  -9027.489+148.20548*T-29.7064*T*LN(T);
      1600.00  N !
 FUNCTION GLIQCD    298.15  +6128.444-10.296916*T+GHSERCD;
       400.00  Y  +21716.884-371.046869*T+53.1313898*T*LN(T)
       -0.115159917*T**2+2.8899781E-05*T**3-1271815*T**(-1);
       594.22  Y  -3252.303+138.251107*T-29.7064*T*LN(T);
      1500.00  Y  +5775.186-9.954373*T+GHSERCD;
      1600.00  N !
 FUNCTION GBCCCD    298.15  +GHSERCD+1000;                             6000 N !
$ Cd (g) :
 FUNCTION FCD       298.15  +105599.121-28.5240179*T-20.78611*T*LN(T); 1500 N !
$ ------------------------------------------------------------------------------
$ Te
$
$ HEXAGONAL_A8 and LIQUID revised in unary 3.0
$
 PAR  G(HEXAGONAL_A8,TE),,              +GHSERTE;                2000 N 95Dav !
 PAR  G(LIQUID,TE),,                    +GLIQTE;                 2000 N 95Dav !
$
 PAR  G(GAS,TE),,                       +FTE+RTLNP;,,                 N 00SUB !
 PAR  G(GAS,TE2),,                      +FTE2+RTLNP;,,                N 00SUB !
 PAR  G(GAS,TE3),,                      +FTE3+RTLNP;,,                N 00SUB !
 PAR  G(GAS,TE4),,                      +FTE4+RTLNP;,,                N 00SUB !
 PAR  G(GAS,TE5),,                      +FTE5+RTLNP;,,                N 00SUB !
 PAR  G(GAS,TE6),,                      +FTE6+RTLNP;,,                N 00SUB !
 PAR  G(GAS,TE7),,                      +FTE7+RTLNP;,,                N 00SUB !
$
 FUNCTION GHSERTE   298.15  -10544.679+183.372894*T-35.6687*T*LN(T)
       +0.01583435*T**2-5.240417E-06*T**3+155015*T**(-1);
       722.66  Y  +9160.595-129.265373*T+13.004*T*LN(T)
       -0.0362361*T**2+5.006367E-06*T**3-1286810*T**(-1);
      1150.00  Y  -12781.349+174.901226*T-32.5596*T*LN(T);
      1600.00  N !
 FUNCTION GLIQTE    298.15  -17554.731+685.877639*T-126.318*T*LN(T)
       +0.2219435*T**2-9.42075E-05*T**3+827930*T**(-1);
       626.49  Y  -3165763.48+46756.357*T-7196.41*T*LN(T)
       +7.09775*T**2-0.00130692833*T**3+2.58051E+08*T**(-1);
       722.66  Y  +180326.959-1500.57909*T+202.743*T*LN(T)
       -0.142016*T**2+1.6129733E-05*T**3-24238450*T**(-1);
      1150.00  Y  +19110.036-26.1929273*T+GHSERTE;
      1600.00  N !
$ Te (g) :
 FUNCTION FTE       298.15  +203077-39.3937*T-21.4658*T*LN(T)
       +0.00106813*T**2-3.03132E-07*T**3+9080.15*T**(-1);
      1300.00  Y  +204434-64.4228*T-17.6757*T*LN(T)
       -0.00193648*T**2+8.01703E-08*T**3+123672*T**(-1);
      4100.00  Y  +169215+51.7696*T-31.8142*T*LN(T)
       +6.2125E-04*T**2-7.38245E-09*T**3+16889800*T**(-1);
     10000.00  N !
$ Te2 (g) :
 FUNCTION FTE2      298.15  +155823-93.7413*T-23.3943*T*LN(T)
       -0.0186449*T**2+2.81237E-06*T**3-164708*T**(-1);
      1000.00  Y  +141003+90.3569*T-50.7498*T*LN(T)
       +0.0026634*T**2-1.91725E-07*T**3+1217270*T**(-1);
      2600.00  Y  +136052+57.9731*T-45.6215*T*LN(T)
       -6.77045E-04*T**2+6.52445E-08*T**3+7374000*T**(-1);
      5800.00  Y  +128152+120.993*T-53.6328*T*LN(T)
       +0.00102992*T**2+9.34818E-09*T**3-1196190*T**(-1);
      6000.00  N !
$ Te3 (g) :
 FUNCTION FTE3      298.15  +185372+54.5927*T-58.1833*T*LN(T)
       -4.42972E-06*T**2+1.7586E-10*T**3+75006*T**(-1);
      6000.00  N !
$ Te4 (g) :
 FUNCTION FTE4      298.15  +191687+179.006*T-83.1138*T*LN(T)
       -7.69355E-06*T**2+3.07578E-10*T**3+127262*T**(-1);
      6000.00  N !
$ Te5 (g) :
 FUNCTION FTE5      298.15  +187059+263.053*T-108.07*T*LN(T)
       -4.33393E-06*T**2+1.71808E-10*T**3+111272*T**(-1);
      6000.00  N !
$ Te6 (g) :
 FUNCTION FTE6      298.15  +186041+400.857*T-133.016*T*LN(T)
       -3.74116E-06*T**2+1.49701E-10*T**3+128382*T**(-1);
      6000.00  N !
$ Te7 (g) :
 FUNCTION FTE7      298.15  +206091+501.61*T-157.955*T*LN(T)
       -4.85134E-06*T**2+1.92685E-10*T**3+156512*T**(-1);
      6000.00  N !
$ ------------------------------------------------------------------------------
$ Binary system
$
$ J. Yang, N.J. Silk, A. Watson, A.W. Bryant, B.B. Argent,
$ Calphad, 19, 399-414(1995).
$
$ Checked against paper. Checked at 6000 K.
$
 PAR  G(LIQUID,CDTE),,                  +GLIQCD+GLIQTE
             -74791.7+4.48582*T;,,                                    N 95Yan1 !
 PAR  L(LIQUID,CD,CDTE;0),,             +50245.05-28.03484*T;,,       N 95Yan1 !
 PAR  L(LIQUID,CD,TE;0),,               +ZERO;,,                      N 95Yan1 !
 PAR  L(LIQUID,CDTE,TE;0),,             +4006.43+0.67542*T;,,         N 95Yan1 !
 PAR  L(LIQUID,CDTE,TE;1),,             +4741.89-7.27527*T;,,         N 95Yan1 !
$
 PAR  G(ZINCBLENDE_B3,CD:TE),,          -119675.66+268.36806*T
             -52.509202*T*LN(T)-0.0094977*T**2+368192*T**(-1);,,      N 95Yan1 !
$ ------------------------------------------------------------------------------
$
 ASSESSED_SYSTEM
  CD-TE(TDB -* +LIQ +HCP_A3 +GAS +ZINCBLENDE_B3 +HEXAGONAL_A8
  ;P3 TMM:300/2000 *) !
$
$
 LIST-OF-REFERENCE
 NUMBER  SOURCE
  Null   'Unknown source'
  Same   'Same or similar interaction as in the corresponding stable phase'
  COST   'COST 507 database'
  Ansar  'Himo Ansara, unpublished; In, Sn'
  91Din  'A.T. Dinsdale, Calphad, 15, 317-425(1991).'
  93Zak  'W. Zakulski, Z. Moser, K. Rzyman, H.L. Lukas, S.G. Fries,
          M. Sukiennik, R. Kaczmarczyk, R. Castanet,
          J. Phase Equilib., 14, 184-96(1993),
          SGTE unary database V.3.0, 1996; Cd'
  95Dav  'A.V. Davydov, M.H. Rand, B.B. Argent, Calphad, 19, 375-87(1995),
          SGTE unary database V.3.0, 1996; Te'
  95Yan1 'J. Yang, N.J. Silk, A. Watson, A.W. Bryant, B.B. Argent,
          Calphad, 19, 399-414(1995); Cd-Te'
  95Yan2 'J. Yang, N.J. Silk, A. Watson, A.W. Bryant, T.G. Chart, B.B. Argent,
          Calphad, 19, 415-30(1995), SGTE unary database V.4.1, 1999; Cd, Hg'
  99SUB  'SGTE Substance Database, version 1999'
  00SUB  'SGTE Substance Database, version 2000'
  04Che1 'P.-Y. Chevalier, unpublished, Thermodata, 2004,
          SGTE unary database V.5.0, 2009; Cd'
!
