$
$ Database for Pd-Sn from J. Vizdal et al. 2006.
$
$ J. Vizdal, A. Kroupa, J. Popovic, A. Zemanova,
$ Adv. Eng. Mater., 8, 164-76(2006).
$
$ Dataset created 2024.03.26 by Bengt Hallstedt.
$
$ This is 99Gho with a slightly changed fcc interaction to match the changed
$ fcc-Sn. The interaction is different from the LB version, but with the same
$ effect.
$
$ There is an inverse miscibility gap with a minimum at 4039 K and x(Sn)=0.48.
$
$ ------------------------------------------------------------------------------
 TEMP-LIM 298.15 6000.00 !
$
$ELEMENT NAME  REF. STATE               ATOMIC MASS H298-H0    S298    !
$
 ELEMENT VA   VACUUM                      0.0          0.0      0.0    ! 
 ELEMENT PD   FCC_A1                    106.42      5468.488   37.8234 ! 
 ELEMENT SN   BCT_A5                    118.69      6323.      51.18   ! 
$ ------------------------------------------------------------------------------
$ Phase definitions
$
 PHASE LIQUID:L % 1 1 !
 CONST LIQUID:L : PD SN : !
$
$ Fcc (cF4, Fm-3m) and MeX (cF8, Fm-3m)
$
 PHASE FCC_A1 %A 2 1 1 !
 CONST FCC_A1 : PD% SN : VA : !
$
$ Bcc (cI2, Im-3m)
$
 PHASE BCC_A2 %B 2 1 3 !
 CONST BCC_A2 : PD SN : VA : !
$
$ Hcp (hP2, P6_3/mmc) and Me2X (NiAs-type, hP4, P6_3/mmc, B8_1)
$
 PHASE HCP_A3 %A 2 1 0.5 !
 CONST HCP_A3 : PD SN : VA : !
$
$ Prototype C (cF8, Fd-3m)
$
 PHASE DIAMOND_A4 % 1 1 !
 CONST DIAMOND_A4 : SN : !
$
$ Prototype beta-Sn (tI4, I4_1/amd)
$
 PHASE BCT_A5 % 1 1 !
 CONST BCT_A5 : PD SN% : !
$
$ Prototype AuCu3 (cP4, Pm-3m)
$
 PHASE PD3SN_L12 % 2 0.75 0.25 !
 CONST PD3SN_L12 : PD% SN : PD SN% : !
$
$ Prototype Co2Si (oP12, Pnma)
$
 PHASE PD2SN_C37 % 2 0.667 0.333 !
 CONST PD2SN_C37 : PD : SN : !
$
$ Prototype InNi2 (hP6, P6_3/mmc)
$
 PHASE PD2SN_B82 % 3 1 1 1 !
 CONST PD2SN_B82 : PD : SN : PD VA : !
$
$ Prototype Pd13Sn9 (hP66, P3_121)
$
 PHASE PD20SN13 % 2 0.6 0.4 !
 CONST PD20SN13 : PD% SN : PD SN% : !
$
$ unknown structure
$
 PHASE PD3SN2_ALPHA % 2 0.6 0.4 !
 CONST PD3SN2_ALPHA : PD : SN : !
$
$ unknown structure
$
 PHASE PD3SN2_BETA % 2 0.6 0.4 !
 CONST PD3SN2_BETA : PD : SN : !
$
$ unknown structure
$
 PHASE PD3SN2_DELTA % 2 0.59 0.41 !
 CONST PD3SN2_DELTA : PD : SN : !
$
$ Prototype MnP (oP8, Pnma)
$
 PHASE PDSN_B31 % 2 0.5 0.5 !
 CONST PDSN_B31 : PD% VA : PD SN% : !
$
$ Prototype PdSn2 (tI48, I4_1/acd)
$
 PHASE PDSN2 % 2 0.333 0.667 !
 CONST PDSN2 : PD% SN : SN : !
$
$ Prototype PdSn3 (oC32, Cmce)
$
 PHASE PDSN3 % 2 0.25 0.75 !
 CONST PDSN3 : PD : PD SN% : !
$
$ Prototype PtSn4 (oC20, Ccce)
$
 PHASE PDSN4_D1C % 2 0.2 0.8 !
 CONST PDSN4_D1C : PD : PD SN% : !
$ ------------------------------------------------------------------------------
$ Defaults
$
 DEFINE-SYSTEM-DEFAULT ELEMENT 2 !
 DEFAULT-COM DEFINE_SYSTEM_ELEMENT VA !
 TYPE-DEF % SEQ * !
 TYPE-DEF A GES AMEND_PHASE_DESCRIPTION @ MAGNETIC -3 0.28 !
 TYPE-DEF B GES AMEND_PHASE_DESCRIPTION @ MAGNETIC -1 0.4 !
 FUNCTION ZERO      298.15  0;                                         6000 N !
 FUNCTION UN_ASS    298.15  0;                                         6000 N !
 FUNCTION R         298.15  +8.31451;                                  6000 N !
$ ------------------------------------------------------------------------------
$ Element data
$ ------------------------------------------------------------------------------
$ Pd
$
$ RHOMBOHEDRAL_A7 added in unary 5.0
$
$ BCT_A5 from 99Gho (used in SGSOL 5.0) not included in unary
$
 PAR  G(FCC_A1,PD:VA),,                 +GHSERPD;                4000 N 91Din !
 PAR  G(BCC_A2,PD:VA),,                 +GHSERPD+10500-1.8*T;    4000 N 91Din !
 PAR  G(HCP_A3,PD:VA),,                 +GHSERPD+2000+0.1*T;     4000 N 91Din !
 PAR  G(BCT_A5,PD),,                    +GHSERPD+2139+5.76*T;    4000 N 99Gho !
$PAR  G(RHOMBOHEDRAL_A7,PD),,           +GHSERPD+4000;           4000 N 06Vre !
 PAR  G(LIQUID,PD),,                    +GLIQPD;                 4000 N 91Din !
$
 PAR  G(PD3SN_L12,PD:PD),,              +GHSERPD+10;,,                N 99Gho !
 PAR  G(PD20SN13,PD:PD),,               +GHSERPD+5000;,,              N 99Gho !
 PAR  G(PDSN_B31,PD:PD),,               +GHSERPD+5000;,,              N 99Gho !
 PAR  G(PDSN_B31,VA:PD),,               +0.5*GHSERPD+8000;,,          N 99Gho !
 PAR  G(PDSN3,PD:PD),,                  +GHSERPD+6000;,,              N 99Gho !
 PAR  G(PDSN4_D1C,PD:PD),,              +GHSERPD+5000;,,              N 99Gho !
$
 FUNCTION GHSERPD   298.15  -10204.027+176.076315*T-32.211*T*LN(T)
       +0.007120975*T**2-1.919875E-06*T**3+168687*T**(-1);
       900.00  Y  +917.062+49.659892*T-13.5708*T*LN(T)
       -0.00717522*T**2+1.91115E-07*T**3-1112465*T**(-1);
      1828.00  Y  -67161.018+370.102147*T-54.2067086*T*LN(T)
       +0.002091396*T**2-6.2811E-08*T**3+18683526*T**(-1);
      4000.00  N !
 FUNCTION GLIQPD    298.15  +11506.758-5.112162*T+GHSERPD;
       600.00  Y  +23405.778-116.918419*T+10.8922031*T*LN(T)
       -0.027266568*T**2+2.430675E-06*T**3-1853674*T**(-1);
      1828.00  Y  -12373.637+251.416903*T-41.17*T*LN(T);
      4000.00  N !
$ ------------------------------------------------------------------------------
$ Sn
$
$ FCC_A1 revised in unary 3.0
$ HCP_A3 revised in unary 4.1
$ TETRAGONAL_A6 added in unary 4.1
$ CBCC_A12 and CUB_A13 added in unary 4.4
$ FCC_A1 modified in unary 5.0
$ DHCP and TET_ALPHA1_A6 added in unary 5.0
$
$ The DHCP phase is labelled D0_24 in 03Liu and alpha-prime in 92Ans. The
$ phase is present between the fcc and hcp phases in the Au-Sn and Au-In
$ systems.
$
 PAR  G(BCT_A5,SN)              100.00  +GHSERSN;                3000 N 91Din !
 PAR  G(DIAMOND_A4,SN)          100.00  +GDIASN;                 3000 N 91Din !
 PAR  G(FCC_A1,SN:VA)           100.00  +GHSERSN+5510-8.46*T;    3000 N 89Fec !
$PAR  G(FCC_A1,SN:VA)           100.00  +GHSERSN+4150-5.2*T;     3000 N 91Din !
 PAR  G(BCC_A2,SN:VA)           100.00  +GHSERSN+4400-6*T;       3000 N 91Din !
 PAR  G(HCP_A3,SN:VA)           100.00  +GHSERSN+3900-7.646*T;   3000 N Ansar !
$PAR  G(HCP_A3,SN:VA)           100.00  +GHSERSN+3900-4.4*T;     3000 N 91Din !
$PAR  G(DHCP,SN)                100.00  +GHSERSN+3803.52-3.46*T; 3000 N 03Liu !
$PAR  G(RHOMBOHEDRAL_A7,SN)     100.00  +GHSERSN+2035;           3000 N 91Din !
$PAR  G(TETRAGONAL_A6,SN)       100.00  +GHSERSN+5387-8.26212*T; 3000 N 99Ans !
$PAR  G(CBCC_A12,SN:VA)         100.00  +GHSERSN+2000;           3000 N 01Mie !
$PAR  G(CUB_A13,SN:VA)          100.00  +GHSERSN+2000;           3000 N 01Mie !
$PAR  G(TET_ALPHA1_A6,SN)       100.00  +GHSERSN+5510-8.46*T;    3000 N 99Ans !
 PAR  G(LIQUID,SN)              100.00  +GLIQSN;                 3000 N 91Din !
$
 PAR  G(PD3SN_L12,SN:SN),,              +GFCCSN;,,                    N 99Gho !
 PAR  G(PD20SN13,SN:SN),,               +GHSERSN+5000;,,              N 99Gho !
 PAR  G(PDSN_B31,VA:SN),,               +0.5*GHSERSN+15000;,,         N 99Gho !
 PAR  G(PDSN2,SN:SN),,                  +GHSERSN+5000;,,              N 99Gho !
$
 FUNCTION GHSERSN   100.00  -7958.517+122.765451*T-25.858*T*LN(T)
       +5.1185E-04*T**2-3.192767E-06*T**3+18440*T**(-1);
       250.00  Y  -5855.135+65.443315*T-15.961*T*LN(T)
       -0.0188702*T**2+3.121167E-06*T**3-61960*T**(-1);
       505.08  Y  +2524.724+4.005269*T-8.2590486*T*LN(T)
       -0.016814429*T**2+2.623131E-06*T**3-1081244*T**(-1)-1.2307E+25*T**(-9);
       800.00  Y  -8256.959+138.99688*T-28.4512*T*LN(T)-1.2307E+25*T**(-9);
      3000.00  N !
 FUNCTION GDIASN    100.00  -9579.608+114.007785*T-22.972*T*LN(T)
       -0.00813975*T**2+2.7288E-06*T**3+25615*T**(-1);
       298.15  Y  -9063.001+104.84654*T-21.5750771*T*LN(T)
       -0.008575282*T**2+1.784447E-06*T**3-2544*T**(-1);
       800.00  Y  -10909.351+147.396535*T-28.4512*T*LN(T);
      3000.00  N !
 FUNCTION GLIQSN    100.00  +7103.092-14.087767*T+GHSERSN+1.47031E-18*T**7;
       505.08  Y  +6971.586-13.814383*T+GHSERSN+1.2307E+25*T**(-9);
       800.00  Y  -1285.372+125.182498*T-28.4512*T*LN(T);
      3000.00  N !
 FUNCTION GBCCSN    298.15  +GHSERSN+4400-6*T;                         3000 N !
 FUNCTION GFCCSN    298.15  +GHSERSN+5510-8.46*T;                      3000 N !
$ ------------------------------------------------------------------------------
$ Binary system
$
$ J. Vizdal, A. Kroupa, J. Popovic, A. Zemanova,
$ Adv. Eng. Mater., 8, 164-76(2006).
$
$ Checked against paper. Checked at 6000 K.
$
$ This is 99Gho with a slightly changed fcc interaction to match the changed
$ fcc-Sn. The interaction is different from the LB version, but with the same
$ effect.
$
$ There is an inverse miscibility gap with a minimum at 4039 K and x(Sn)=0.48.
$
 PAR  L(LIQUID,PD,SN;0),,               -227190.46+63.4836*T;,,       N 99Gho !
 PAR  L(LIQUID,PD,SN;1),,               -150359.51+39.069*T;,,        N 99Gho !
 PAR  L(LIQUID,PD,SN;2),,               -45899.92+2.0704*T;,,         N 99Gho !
$
 PAR  L(FCC_A1,PD,SN:VA;0),,            -212475.7+58.606*T;,,         N 06Viz !
 PAR  L(FCC_A1,PD,SN:VA;1),,            -123870.9+1.2494*T;,,         N 99Gho !
$
 PAR  L(BCT_A5,PD,SN;0),,               -75000;,,                     N 99Gho !
$
 PAR  G(PD3SN_L12,PD:SN),,              +0.75*GHSERPD+0.25*GHSERSN
             -58976.5+9.6478*T;,,                                     N 99Gho !
 PAR  G(PD3SN_L12,SN:PD),,              +0.75*GHSERSN+0.25*GHSERPD
             +63126.5-14.8476*T;,,                                    N 99Gho !
 PAR  L(PD3SN_L12,PD,SN:SN;0),,         -34611.84+15.3728*T;,,        N 99Gho !
 PAR  L(PD3SN_L12,PD:PD,SN;0),,         -3603.5+0.3215*T;,,           N 99Gho !
$ Original interaction from 99Gho below; misprint?
$PAR  L(PD3SN_L12,PD:PD,SN;0),,         -6603.5+0.3215*T;,,           N 99Gho !
$
 PAR  G(PD2SN_C37,PD:SN),,              +0.667*GHSERPD+0.333*GHSERSN
             -64221.5+11.2839*T;,,                                    N 99Gho !
$
 PAR  G(PD2SN_B82,PD:SN:PD),,           +2*GHSERPD+GHSERSN
             -189084.4+31.4182*T;,,                                   N 99Gho !
 PAR  G(PD2SN_B82,PD:SN:VA),,           +GHSERPD+GHSERSN
             -105800.6+24.8709*T;,,                                   N 99Gho !
 PAR  G(PD2SN_B82,PD:SN:PD,VA;0),,      -17204;,,                     N 99Gho !
 PAR  G(PD2SN_B82,PD:SN:PD,VA;1),,      -3392;,,                      N 99Gho !
$
 PAR  G(PD20SN13,PD:SN),,               +0.6*GHSERPD+0.4*GHSERSN
             -64517.3+11.9527*T;,,                                    N 99Gho !
 PAR  G(PD20SN13,SN:PD),,               +0.6*GHSERSN+0.4*GHSERPD
             +74517.3-11.9527*T;,,                                    N 99Gho !
 PAR  L(PD20SN13,PD,SN:SN;0),,          -40247.4+27.4914*T;,,         N 99Gho !
 PAR  L(PD20SN13,PD:PD,SN;0),,          -65482.7+14.3893*T;,,         N 99Gho !
 PAR  L(PD20SN13,PD:PD,SN;1),,          +6128.8-4.2626*T;,,           N 99Gho !
$
 PAR  G(PD3SN2_ALPHA,PD:SN),,           +0.6*GHSERPD+0.4*GHSERSN
             -64574.5+11.9898*T;,,                                    N 99Gho !
 PAR  G(PD3SN2_BETA,PD:SN),,            +0.6*GHSERPD+0.4*GHSERSN
             -64502.5+11.9023*T;,,                                    N 99Gho !
 PAR  G(PD3SN2_DELTA,PD:SN),,           +0.59*GHSERPD+0.41*GHSERSN
             -64286.4+12.1216*T;,,                                    N 99Gho !
$
 PAR  G(PDSN_B31,PD:SN),,               +0.5*GHSERPD+0.5*GHSERSN
             -60997+12.9446*T;,,                                      N 99Gho !
 PAR  L(PDSN_B31,PD,VA:SN;0),,          -11149.4+3.8314*T;,,          N 99Gho !
 PAR  L(PDSN_B31,PD:PD,SN;0),,          -45149+1.831*T;,,             N 99Gho !
$
 PAR  G(PDSN2,PD:SN),,                  +0.333*GHSERPD+0.667*GHSERSN
             -44104+8.8978*T;,,                                       N 99Gho !
 PAR  L(PDSN2,PD,SN:SN;0),,             -2523.4+1.745*T;,,            N 99Gho !
$
 PAR  G(PDSN3,PD:SN),,                  +0.25*GHSERPD+0.75*GHSERSN
             -34826.1+8.8553*T;,,                                     N 99Gho !
 PAR  L(PDSN3,PD:PD,SN;0),,             -64086.8+6.289*T;,,           N 99Gho !
 PAR  L(PDSN3,PD:PD,SN;1),,             +54086.8-6.289*T;,,           N 99Gho !
$
 PAR  G(PDSN4_D1C,PD:SN),,              +0.2*GHSERPD+0.8*GHSERSN
             -28560+7.9287*T;,,                                       N 99Gho !
 PAR  L(PDSN4_D1C,PD:PD,SN;0),,         -61230.5+7.435*T;,,           N 99Gho !
 PAR  L(PDSN4_D1C,PD:PD,SN;1),,         +51230.5-7.435*T;,,           N 99Gho !
$
$ Metastable
$
 PAR  L(BCC_A2,PD,SN:VA;0),,            -212475.7+58.606*T;,,         N Same !
 PAR  L(BCC_A2,PD,SN:VA;1),,            -123870.9+1.2494*T;,,         N Same !
$
 PAR  L(HCP_A3,PD,SN:VA;0),,            -212475.7+58.606*T;,,         N Same !
 PAR  L(HCP_A3,PD,SN:VA;1),,            -123870.9+1.2494*T;,,         N Same !
$ ------------------------------------------------------------------------------
$
 ASSESSED_SYSTEM
  PD-SN(TDB -* +LIQUID +FCC_A1 +BCT_A5 +PD2SN_B82 +PD20SN13 +PD2SN_C37
  +PD3SN_L12 +PD3SN2_A +PD3SN2_B +PD3SN2_D +PDSN_B31 +PDSN2 +PDSN3 +PDSN4_D1C 
  ;P3 TMM:300/2500 STP:.4/1200/-1  STP:0.395/400/1 STP:0.405/700/1) !
$
$
 LIST-OF-REFERENCE
 NUMBER  SOURCE
  Null   'Unknown source'
  Same   'Same or similar interaction as in the corresponding stable phase'
  COST   'COST 507 database'
  Ansar  'Himo Ansara, unpublished, SGTE unary database V.4.1, 1999; Sn'
  89Fec  'H.J. Fecht, M.X. Zhang, Y.A. Chang, J.H. Perepezko,
          Metall. Trans. A, 20A, 795-803(1989),
          SGTE unary database V.3.0, 1996; Sn'
  91Din  'A.T. Dinsdale, Calphad, 15, 317-425(1991).'
  99Ans  'I. Ansara, S.G. Fries, H.L. Lukas, unpublished, 1999,
          SGTE unary database V.5.0, 2009; In, Sn'
  99Gho  'G. Ghosh, Metall. Mater. Trans. A, 30A, 5-18(1999); Pd, Pd-Sn'
  01Mie  'J. Miettinen, Calphad, 25, 43-58(2001),
          SGTE unary database V.4.4, 2001; Sn, Zn'
  03Liu  'H.S. Liu, C.L. Liu, K. Ishida, Z.P. Jin, J. Electron. Mater.,
          32, 1290-96(2003), SGTE unary database V.5.0, 2009; Sn'
  06Viz  'J. Vizdal, A. Kroupa, J. Popovic, A. Zemanova,
          Adv. Eng. Mater., 8, 164-76(2006); Pd-Sn'
  06Vre  'J. Vrestal, J. Pinkas, A. Watson, A. Scott, J. Houserova, A. Kroupa,
          Calphad, 30, 14-17(2006), SGTE unary database V.5.0, 2009; Pd'
!
