$
$ Database for Pb-Pu from Z.S. Li et al. 2010.
$
$ Z.S. Li, X.J. Liu, C.P. Wang, J. Nucl. Mater., 403, 1-6(2010).
$
$ Dataset created 2024.03.20 by Bengt Hallstedt.
$
$ ------------------------------------------------------------------------------
 TEMP-LIM 298.15 6000.00 !
$
$ELEMENT NAME  REF. STATE               ATOMIC MASS H298-H0    S298    !
$
 ELEMENT VA   VACUUM                      0.0          0.0      0.0    ! 
 ELEMENT PB   FCC_A1                    207.2       6870.      64.80   ! 
 ELEMENT PU   ALPHA_PU                  244.        6902.0     54.4610 ! 
$ ------------------------------------------------------------------------------
$ Phase definitions
$
 PHASE LIQUID:L % 1 1 !
 CONST LIQUID:L : PB PU : !
$
$ Fcc (cF4, Fm-3m) and MeX (cF8, Fm-3m)
$
 PHASE FCC_A1 %A 2 1 1 !
 CONST FCC_A1 : PB% PU% : VA : !
$
$ Bcc (cI2, Im-3m)
$
 PHASE BCC_A2 %B 2 1 3 !
 CONST BCC_A2 : PB PU% : VA : !
$
$ Hcp (hP2, P6_3/mmc) and Me2X (NiAs-type, hP4, P6_3/mmc, B8_1)
$
 PHASE HCP_A3 %A 2 1 0.5 !
 CONST HCP_A3 : PB : VA: !
$
$ Prototype In (tI2, I4/mmm), delta-prime
$
 PHASE TETRAGONAL_A6 % 1 1 !
 CONST TETRAGONAL_A6 : PB PU% : !
$
$ Prototype alpha-Pu (mP16, P2_1/m)
$
 PHASE ALPHA_PU % 1 1 !
 CONST ALPHA_PU : PU : !
$
$ Prototype beta-Pu (mC34, C2/m)
$
 PHASE BETA_PU % 1 1 !
 CONST BETA_PU : PU : !
$
$ Prototype gamma-Pu (oF8, Fddd)
$
 PHASE GAMMA_PU % 1 1 !
 CONST GAMMA_PU : PU : !
$
$ Prototype AuCu3 (cP4, Pm-3m)
$
 PHASE PB3PU_L12 % 2 3 1 !
 CONST PB3PU_L12 : PB : PU : !
$
$ Prototype Ga2Hf (tI24, I4_1/amd)
$
 PHASE PB2PU_ALPHA % 2 2 1 !
 CONST PB2PU_ALPHA : PB : PU : !
$
$ unknown structure
$
 PHASE PB2PU_BETA % 2 2 1 !
 CONST PB2PU_BETA : PB : PU : !
$
$ Pearson hP*, P6_322
$
 PHASE PB5PU4 % 2 5 4 !
 CONST PB5PU4 : PB% PU : PB PU% : !
$
$ Prototype Ga4Ti5 (hP18, P6_3/mcm)
$
 PHASE PB4PU5 % 2 4 5 !
 CONST PB4PU5 : PB : PU : !
$
$ Prototype Si3W5 (tI32, I4/mcm)
$
 PHASE PB3PU5_D8M % 2 3 5 !
 CONST PB3PU5_D8M : PB : PU : !
$
$ Prototype AuCu3 (cP4, Pm-3m)
$
 PHASE PBPU3_L12 % 2 1 3 !
 CONST PBPU3_L12 : PB : PU : !
$ ------------------------------------------------------------------------------
$ Defaults
$
 DEFINE-SYSTEM-DEFAULT ELEMENT 2 !
 DEFAULT-COM DEFINE_SYSTEM_ELEMENT VA !
 TYPE-DEF % SEQ * !
 TYPE-DEF A GES AMEND_PHASE_DESCRIPTION @ MAGNETIC -3 0.28 !
 TYPE-DEF B GES AMEND_PHASE_DESCRIPTION @ MAGNETIC -1 0.4 !
 FUNCTION ZERO      298.15  0;                                         6000 N !
 FUNCTION UN_ASS    298.15  0;                                         6000 N !
 FUNCTION R         298.15  +8.31451;                                  6000 N !
$ ------------------------------------------------------------------------------
$ Element data
$ ------------------------------------------------------------------------------
$ Pb
$
$ RHOMBOHEDRAL_A7 and TETRAGONAL_A6 added in unary 3.0
$ RHOMBOHEDRAL_A7, TETRAGONAL_A6 and TET_ALPHA1_A6 revised in unary 4.1
$ RHOMBO_A10 added in unary 5.0
$
$ RHOMBOHEDRAL_A7 from 98Yoo not included in unary
$ ORTHORHOMBIC_A20 and TETRAGONAL_U from 10Li not included in unary
$
 PAR  G(FCC_A1,PB:VA),,                 +GHSERPB;                2100 N 91Din !
 PAR  G(BCC_A2,PB:VA),,                 +GHSERPB+2400-1.1*T;     2100 N 91Din !
 PAR  G(HCP_A3,PB:VA),,                 +GHSERPB+300+T;          2100 N 91Din !
$PAR  G(BCT_A5,PB),,                    +GHSERPB+489+3.52*T;     2100 N 91Din !
 PAR  G(TETRAGONAL_A6,PB),,             +GHSERPB+4493.235;       2100 N 98Boa !
$PAR  G(TETRAGONAL_A6,PB),,             +GHSERPB+473.23+3.5531*T
$            -0.0396834*T*LN(T)+2.1489E-05*T**2;                 2100 N 96SGUN !
$PAR  G(TET_ALPHA1_A6,PB),,             +GHSERPB
$            +1903.3-2.0602*T;                                   2100 N 98Boa !
$PAR  G(TET_ALPHA1_A6,PB),,             +GHSERPB+183.2+0.45314*T
$            -0.0396834*T*LN(T)+2.149E-06*T**2;                  2100 N 91Din !
$PAR  G(RHOMBOHEDRAL_A7,PB),,           +GHSERPB+300+T;          2100 N 99SGUN !
$PAR  G(RHOMBOHEDRAL_A7,PB),,           +GHSERPB+4900+3.52*T;    2100 N 96SGUN !
$PAR  G(RHOMBOHEDRAL_A7,PB),,           +GHSERPB+15000;          2100 N 98Yoo !
$PAR  G(RHOMBO_A10,PB),,                +GHSERPB+10;             2100 N 09SGUN !
$PAR  G(ORTHORHOMBIC_A20,PB),,          +GHSERPB+20000;          2100 N 10Li !
$PAR  G(TETRAGONAL_U,PB),,              +GHSERPB+5000;           2100 N 10Li !
 PAR  G(LIQUID,PB),,                    +GLIQPB;                 2100 N 91Din !
$
 PAR  G(PB5PU4,PB:PB),,                 +9*GHSERPB+270000;,,          N 10Li !
$
 FUNCTION GHSERPB   298.15  -7650.085+101.700244*T-24.5242231*T*LN(T)
       -0.00365895*T**2-2.4395E-07*T**3;
       600.61  Y  -10531.095+154.243182*T-32.4913959*T*LN(T)
       +0.00154613*T**2+8.05448E+25*T**(-9);
      1200.00  Y  +4157.616+53.139072*T-18.9640637*T*LN(T)
       -0.002882943*T**2+9.8144E-08*T**3-2696755*T**(-1)+8.05448E+25*T**(-9);
      2100.00  N !
 FUNCTION GLIQPB    298.15  +4672.124-7.750683*T+GHSERPB-6.019E-19*T**7;
       600.61  Y  +4853.137-8.067136*T+GHSERPB-8.05448E+25*T**(-9);
      2100.00  N !
$ ------------------------------------------------------------------------------
$ Pu
$
 PAR  G(ALPHA_PU,PU),,                  +GHSERPU;                3000 N 91Din !
 PAR  G(BCC_A2,PU:VA),,                 +GBCCPU;                 3000 N 91Din !
 PAR  G(BETA_PU,PU),,                   +GBETPU;                 3000 N 91Din !
 PAR  G(FCC_A1,PU:VA),,                 +GFCCPU;                 3000 N 91Din !
 PAR  G(GAMMA_PU,PU),,                  +GGAMPU;                 3000 N 91Din !
 PAR  G(TETRAGONAL_A6,PU),,             +GTETPU;                 3000 N 91Din !
 PAR  G(LIQUID,PU),,                    +GHSERPU
             +6608.1-12.5133*T;                                  3000 N 91Din !
$
 PAR  G(PB5PU4,PU:PU),,                 +9*GHSERPU+90000;,,           N 10Li !
$
 FUNCTION GHSERPU   298.15  -7396.309+80.301382*T-18.1258*T*LN(T)
       -0.02241*T**2;
       400.00  Y  -16605.962+236.786603*T-42.4187*T*LN(T)
       -0.00134493*T**2+2.63443E-07*T**3+579325*T**(-1);
       944.00  Y  -14462.156+232.961553*T-42.248*T*LN(T);
      3000.00  N !
 FUNCTION GBCCPU    298.15  -1358.984+116.603882*T-27.094*T*LN(T)
       -0.009105*T**2+2.061667E-06*T**3+20863*T**(-1);
       745.00  Y  -2890.817+156.878957*T-33.72*T*LN(T);
       956.00  Y  +29313.619-132.788248*T+6.921*T*LN(T)
       -0.02023305*T**2+1.426922E-06*T**3-4469245*T**(-1);
      2071.00  Y  -938.429-5.539698*T+GHSERPU;
      3000.00  N !
 FUNCTION GBETPU    298.15  -4873.654+123.249151*T-27.416*T*LN(T)
       -0.00653*T**2;
       679.50  Y  +2435.094+43.566585*T-15.7351*T*LN(T)
       -0.0154772*T**2+1.524942E-06*T**3-864940*T**(-1);
      1464.00  Y  +503.094-4.739938*T+GHSERPU;
      3000.00  N !
 FUNCTION GFCCPU    298.15  -3920.781+127.586536*T-28.4781*T*LN(T)
       -0.0054035*T**2;
       990.00  Y  +3528.208+41.52572*T-15.7351*T*LN(T)
       -0.0154772*T**2+1.524942E-06*T**3-864940*T**(-1);
      1464.00  Y  +1596.208-6.780803*T+GHSERPU;
      3000.00  N !
 FUNCTION GGAMPU    298.15  -16766.303+419.402655*T-77.5802*T*LN(T)
       +0.0816415*T**2-2.8103833E-05*T**3+574825*T**(-1);
       487.90  Y  -2942.77+88.325069*T-22.0233*T*LN(T)-0.0114795*T**2;
       593.90  Y  -9336.967+160.314641*T-32.3405*T*LN(T)
       -0.0070383*T**2+6.92887E-07*T**3+630600*T**(-1);
      1179.00  Y  +2026.406-6.829936*T+GHSERPU;
      3000.00  N !
 FUNCTION GTETPU    298.15  -496.178+54.586547*T-16.43*T*LN(T)
       -0.024006*T**2+5.166667E-06*T**3-158470*T**(-1);
       736.00  Y  -6122.307+173.35008*T-35.56*T*LN(T);
       757.00  Y  +3982.078+63.890352*T-19.756*T*LN(T)
       -0.00937295*T**2+6.59882E-07*T**3-1112565*T**(-1);
      2157.00  Y  -738.383-4.905143*T+GHSERPU;
      3000.00  N !
$ ------------------------------------------------------------------------------
$ Binary system
$
$ Z.S. Li, X.J. Liu, C.P. Wang, J. Nucl. Mater., 403, 1-6(2010).
$
$ Checked against paper. Checked at 6000 K.
$
 PAR  L(LIQUID,PB,PU;0),,               -77296+25*T;,,                N 10Li !
 PAR  L(LIQUID,PB,PU;1),,               -3563-0.503*T;,,              N 10Li !
 PAR  L(LIQUID,PB,PU;2),,               +32516-3.866*T;,,             N 10Li !
$
 PAR  L(FCC_A1,PB,PU:VA;0),,            +ZERO;,,                      N 10Li !
 PAR  L(BCC_A2,PB,PU:VA;0),,            +50000;,,                     N 10Li !
 PAR  L(TETRAGONAL_A6,PB,PU;0),,        +ZERO;,,                      N 10Li !
$
 PAR  G(PB3PU_L12,PB:PU),,              +3*GHSERPB+GHSERPU
             -86400+0.92*T;,,                                         N 10Li !
 PAR  G(PB2PU_ALPHA,PB:PU),,            +2*GHSERPB+GHSERPU
             -74880+1.158*T;,,                                        N 10Li !
 PAR  G(PB2PU_BETA,PB:PU),,             +2*GHSERPB+GHSERPU
             -74565+0.93*T;,,                                         N 10Li !
$
 PAR  G(PB5PU4,PB:PU),,                 +5*GHSERPB+4*GHSERPU
             -265500+13.86*T;,,                                       N 10Li !
 PAR  G(PB5PU4,PU:PB),,                 +5*GHSERPU+4*GHSERPB+90000;,, N 10Li !
 PAR  L(PB5PU4,PB:PB,PU;0),,            -252000-56.7*T;,,             N 10Li !
$
 PAR  G(PB4PU5,PB:PU),,                 +4*GHSERPB+5*GHSERPU
             -299707.2+19.17*T;,,                                     N 10Li !
 PAR  G(PB3PU5_D8M,PB:PU),,             +3*GHSERPB+5*GHSERPU
             -286800+36.96*T;,,                                       N 10Li !
 PAR  G(PBPU3_L12,PB:PU),,              +GHSERPB+3*GHSERPU
             -92480+0.4*T;,,                                          N 10Li !
$ ------------------------------------------------------------------------------
$
$
 LIST-OF-REFERENCE
 NUMBER  SOURCE
  Null   'Unknown source'
  Same   'Same or similar interaction as in the corresponding stable phase'
  COST   'COST 507 database'
  91Din  'A.T. Dinsdale, Calphad, 15, 317-425(1991).'
  96SGUN 'SGTE unary database V.3.0, 1996.'
  98Boa  'D. Boa, I. Ansara, Thermochim. Acta, 314, 79-86(1998),
          SGTE unary database V.4.1, 1999; In, Pb'
  98Yoo  'S.W. Yoon, H.M. Lee, Calphad, 22, 167-78(1998); Pb'
  99SGUN 'SGTE unary database V.4.1, 1999.'
  09SGUN 'SGTE unary database V.5.0, 2009.'
  10Li   'Z.S. Li, X.J. Liu, C.P. Wang,
          J. Nucl. Mater., 403, 1-6(2010); Pb, Pb-Pu'
!
