$
$ Database for Al-Ta from V.T. Witusiewicz et al. 2010.
$
$ V.T. Witusiewicz, A.A. Bondar, U. Hecht, J. Zollinger, V.M. Petyukh,
$ O.S. Fomichov, V.M. Voblikov, S. Rex, Intermetallics, 18, 92-106(2010).
$
$ Dataset created 2018.02.04 by Bengt Hallstedt.
$ 2020.12.22: Modified for use with GES6.
$
$ The sigma=Ta39Al69+Al38Ta48 equilibrium is at 1728 K instead of 1737 K,
$ possibly a rounding error in the sigma phase, which is represented with
$ three decimals in the paper. The other phases have four decimals for the
$ composition.
$
$ The temperature dependence of the fcc interaction seems too large.
$
$ ------------------------------------------------------------------------------
 TEMP-LIM 298.15 6000.00 !
$
$ELEMENT NAME  REF. STATE               ATOMIC MASS H298-H0    S298    !
$
 ELEMENT VA   VACUUM                      0.0          0.0      0.0    ! 
 ELEMENT AL   FCC_A1                     26.98154   4540.      28.30   ! 
 ELEMENT TA   BCC_A2                    180.9479    5681.872   41.4718 ! 
$ ------------------------------------------------------------------------------
$ Phase definitions
$
 PHASE LIQUID:L % 1 1 !
 CONST LIQUID:L : AL TA : !
$
$ Fcc (cF4, Fm-3m) and MeX (cF8, Fm-3m)
$
 PHASE FCC_A1 %A 2 1 1 !
 CONST FCC_A1 : AL TA : VA : !
$
$ Bcc (cI2, Im-3m)
$
 PHASE BCC_A2 %B 2 1 3 !
 CONST BCC_A2 : AL TA : VA : !
$
$ Hcp (hP2, P6_3/mmc) and Me2X (NiAs-type, hP4, P6_3/mmc, B8_1)
$
 PHASE HCP_A3 %A 2 1 0.5 !
 CONST HCP_A3 : AL TA : VA : !
$
$ Prototype Al3Ti (tI8, I4/mmm), epsilon
$
 PHASE AL3TA_D022 % 2 3 1 !
 CONST AL3TA_D022 : AL : AL TA% : !
$
$ Prototype Al69Ta39 (cF444, F-43m)
$
 PHASE AL69TA39 % 2 69 39 !
 CONST AL69TA39 : AL% TA : AL TA% : !
$
$ Prototype Al38Ta48 (mP86, P2_1/c, 14), phi
$
 PHASE AL38TA48 % 2 38 48 !
 CONST AL38TA48 : AL% TA : AL TA% : !
$
$ Prototype CrFe (tP30, P4_2/mnm), also known as AlTa2
$
 PHASE SIGMA_D8B % 3 10 4 16 !
 CONST SIGMA_D8B : AL% TA : TA : AL TA : !
$ ------------------------------------------------------------------------------
$ Defaults
$
 DEFINE-SYSTEM-DEFAULT ELEMENT 2 !
 DEFAULT-COM DEFINE_SYSTEM_ELEMENT VA !
 TYPE-DEF % SEQ * !
 TYPE-DEF A GES AMEND_PHASE_DESCRIPTION @ MAGNETIC -3 0.28 !
 TYPE-DEF B GES AMEND_PHASE_DESCRIPTION @ MAGNETIC -1 0.4 !
 FUNCTION ZERO      298.15  0;                                         6000 N !
 FUNCTION UN_ASS    298.15  0;                                         6000 N !
 FUNCTION R         298.15  +8.31451;                                  6000 N !
$ ------------------------------------------------------------------------------
$ Element data
$ ------------------------------------------------------------------------------
$ Al
$
$ BCT_A5 and DIAMOND_A4 added in unary 3.0
$
 PAR  G(FCC_A1,AL:VA),,                 +GHSERAL;                2900 N 91Din !
 PAR  G(BCC_A2,AL:VA),,                 +GHSERAL+10083-4.813*T;  2900 N 91Din !
 PAR  G(HCP_A3,AL:VA),,                 +GHSERAL+5481-1.8*T;     2900 N 91Din !
$PAR  G(CBCC_A12,AL:VA),,               +GHSERAL
$            +10083.4-4.813*T;                                   2900 N 91Din !
$PAR  G(CUB_A13,AL:VA),,                +GHSERAL
$            +10920.44-4.8116*T;                                 2900 N 91Din !
$PAR  G(BCT_A5,AL),,                    +GHSERAL+10083-4.813*T;  2900 N SGCOST !
$PAR  G(DIAMOND_A4,AL),,                +GHSERAL+30*T;           2900 N SGCOST !
 PAR  G(LIQUID,AL),,                    +GLIQAL;                 2900 N 91Din !
$
 PAR  G(AL3TA_D022,AL:AL),,             +4*GHSERAL+80000;,,           N 10Wit !
 PAR  G(AL69TA39,AL:AL),,               +108*GHSERAL+324000;,,        N 10Wit !
 PAR  G(AL38TA48,AL:AL),,               +86*GHSERAL+21500;,,          N 10Wit !
$
 FUNCTION GHSERAL   298.15  -7976.15+137.093038*T-24.3671976*T*LN(T)
       -0.001884662*T**2-8.77664E-07*T**3+74092*T**(-1);
       700.00  Y  -11276.24+223.048446*T-38.5844296*T*LN(T)
       +0.018531982*T**2 -5.764227E-06*T**3+74092*T**(-1);
       933.47  Y  -11278.361+188.684136*T-31.748192*T*LN(T)
       -1.230622E+28*T**(-9);
      2900.00  N !
 FUNCTION GLIQAL    298.15  +11005.045-11.84185*T+GHSERAL+7.9337E-20*T**7;
       933.47  Y  -795.991+177.430209*T-31.748192*T*LN(T);
      2900.00  N !
$ ------------------------------------------------------------------------------
$ Ta
$
 PAR  G(BCC_A2,TA:VA),,                 +GHSERTA;,,                   N 91Din !
 PAR  G(FCC_A1,TA:VA),,                 +GHSERTA+16000+1.7*T;,,       N 91Din !
 PAR  G(HCP_A3,TA:VA),,                 +GHSERTA+12000+2.4*T;,,       N 91Din !
 PAR  G(LIQUID,TA),,                    +GLIQTA;,,                    N 91Din !
$
 PAR  G(AL69TA39,TA:TA),,               +108*GHSERTA+972000;,,        N 10Wit !
 PAR  G(AL38TA48,TA:TA),,               +86*GHSERTA+967500;,,         N 10Wit !
 PAR  G(SIGMA_D8B,TA:TA:TA),,           +30*GHSERTA+73.497*T;,,       N 10Wit !
$
 FUNCTION GHSERTA   298.15  -7285.889+119.139857*T-23.7592624*T*LN(T)
       -0.002623033*T**2+1.70109E-07*T**3-3293*T**(-1);
      1300.00  Y  -22389.955+243.88676*T-41.137088*T*LN(T)
       +0.006167572*T**2-6.55136E-07*T**3+2429586*T**(-1);
      2500.00  Y  +229382.886-722.59722*T+78.5244752*T*LN(T)
       -0.017983376*T**2+1.95033E-07*T**3-93813648*T**(-1);
      3290.00  Y  -1042384.01+2985.49125*T-362.159132*T*LN(T)
       +0.043117795*T**2-1.055148E-06*T**3+5.54714342E+08*T**(-1);
      6000.00  N !
 FUNCTION GLIQTA    298.15  +29160.975-7.578729*T+GHSERTA;
      1000.00  Y  +43884.339-61.981795*T+0.0279523*T*LN(T)
       -0.012330066*T**2+6.14599E-07*T**3-3523338*T**(-1);
      3290.00  Y  -6314.543+258.110873*T-41.84*T*LN(T);
      6000.00  N !
$ ------------------------------------------------------------------------------
$ Binary system
$
$ V.T. Witusiewicz, A.A. Bondar, U. Hecht, J. Zollinger, V.M. Petyukh,
$ O.S. Fomichov, V.M. Voblikov, S. Rex, Intermetallics, 18, 92-106(2010).
$
$ Checked against paper. Checked at 6000 K.
$
$ The sigma=Ta39Al69+Al38Ta48 equilibrium is at 1728 K instead of 1737 K,
$ possibly a rounding error in the sigma phase, which is represented with
$ three decimals in the paper. The other phases have four decimals for the
$ composition.
$
$ The temperature dependence of the fcc interaction seems too large.
$
 PAR  L(LIQUID,AL,TA;0),,               -55024.6+9.4894*T;,,          N 10Wit !
 PAR  L(LIQUID,AL,TA;1),,               -32750.1+19.6888*T;,,         N 10Wit !
 PAR  L(LIQUID,AL,TA;2),,               +26570-4.667*T;,,             N 10Wit !
$
 PAR  L(FCC_A1,AL,TA:VA;0),,            -125394.8+78.85*T;,,          N 10Wit !
 PAR  L(BCC_A2,AL,TA:VA;0),,            -578.90066;,,                 N 10Wit !
$
 PAR  G(AL3TA_D022,AL:TA),,             +3*GHSERAL+GHSERTA
             -119800+26.304*T;,,                                      N 10Wit !
 PAR  L(AL3TA_D022,AL:AL,TA;0),,        -5976-42.4844*T;,,            N 10Wit !
$
 PAR  G(AL69TA39,AL:TA),,               +69*GHSERAL+39*GHSERTA
             -2797632+378.216*T;,,                                    N 10Wit !
 PAR  G(AL69TA39,TA:AL),,               +69*GHSERTA+39*GHSERAL;,,     N 10Wit !
$
 PAR  G(AL38TA48,AL:TA),,               +38*GHSERAL+48*GHSERTA
             -2119900+215.903*T;,,                                    N 10Wit !
 PAR  G(AL38TA48,TA:AL),,               +38*GHSERTA+48*GHSERAL;,,     N 10Wit !
 PAR  L(AL38TA48,AL,TA:TA;0),,          -1199510.8+365.5215*T;,,      N 10Wit !
 PAR  L(AL38TA48,AL:AL,TA;0),,          -2257500+1409.9356*T;,,       N 10Wit !
$
 PAR  G(SIGMA_D8B,AL:TA:AL),,           +26*GHSERAL+4*GHSERTA
             -342090+212.976*T;,,                                     N 10Wit !
 PAR  G(SIGMA_D8B,AL:TA:TA),,           +10*GHSERAL+20*GHSERTA
             -661440+91.953*T;,,                                      N 10Wit !
 PAR  G(SIGMA_D8B,TA:TA:AL),,           +16*GHSERAL+14*GHSERTA;,,     N 10Wit !
 PAR  L(SIGMA_D8B,AL:TA:AL,TA;0),,      -662055;,,                    N 10Wit !
$
$ Metastable
$
 PAR  L(HCP_A3,AL,TA:VA;0),,            -578.90066;,,                 N Same !
$ ------------------------------------------------------------------------------
$
$
 LIST-OF-REFERENCE
 NUMBER  SOURCE
  Null   'Unknown source'
  Same   'Same or similar interaction as in the corresponding stable phase'
  SGCOST 'COST 507 database, SGTE unary database V.3.0, 1996; Al, B, Nd, Ti, Zn'
  91Din  'A.T. Dinsdale, Calphad, 15, 317-425(1991).'
  10Wit  'V.T. Witusiewicz, A.A. Bondar, U. Hecht, J. Zollinger, V.M. Petyukh,
          O.S. Fomichov, V.M. Voblikov, S. Rex,
          Intermetallics, 18, 92-106(2010); Al-Ta'
!
