$
$ Database for Bi-Ga from C. Girard 1985 (included in LB Vol. 2)
$
$ C. Girard, PhD Thesis, University of Provence, Marseille, 1985.
$
$ Dataset created 2015.03.15 by Bengt Hallstedt.
$ 2020.12.25: Modified for use with GES6.
$ 2023.02.24: Unary Bi changed from V4.4 to V5.0.
$
$ ------------------------------------------------------------------------------
 TEMP-LIM 298.15 6000.00 !
$
$ELEMENT NAME  REF. STATE               ATOMIC MASS H298-H0    S298    !
$
 ELEMENT VA   VACUUM                      0.0          0.0      0.0    ! 
 ELEMENT BI   RHOMBOHEDRAL_A7           208.98      6426.6     56.735  !
 ELEMENT GA   ORTHORHOMBIC_GA            69.72      5572.0     40.7271 ! 
$ ------------------------------------------------------------------------------
$ Phase definitions
$
 PHASE LIQUID:L % 1 1 !
 CONST LIQUID:L : BI GA : !
$
$ Fcc (cF4, Fm-3m) and MeX (cF8, Fm-3m)
$
 PHASE FCC_A1 %A 2 1 1 !
 CONST FCC_A1 : BI GA : VA : !
$
$ Bcc (cI2, Im-3m)
$
 PHASE BCC_A2 %B 2 1 3 !
 CONST BCC_A2 : BI GA : VA : !
$
$ Hcp (hP2, P6_3/mmc) and Me2X (NiAs-type, hP4, P6_3/mmc, B8_1)
$
 PHASE HCP_A3 %A 2 1 0.5 !
 CONST HCP_A3 : BI GA : VA: !
$
$ Prototype alpha-As (hR2, R-3m)
$
 PHASE RHOMBOHEDRAL_A7 % 1 1 !
 CONST RHOMBOHEDRAL_A7 : BI : !
$
$ alpha-Ga (oC8, Cmca)
$
 PHASE ORTHORHOMBIC_A11 % 1 1 !
 CONST ORTHORHOMBIC_A11 : GA : !
$ ------------------------------------------------------------------------------
$ Defaults
$
 DEFINE-SYSTEM-DEFAULT ELEMENT 2 !
 DEFAULT-COM DEFINE_SYSTEM_ELEMENT VA !
 TYPE-DEF % SEQ * !
 TYPE-DEF A GES AMEND_PHASE_DESCRIPTION @ MAGNETIC -3 0.28 !
 TYPE-DEF B GES AMEND_PHASE_DESCRIPTION @ MAGNETIC -1 0.4 !
 FUNCTION ZERO      298.15  0;                                         6000 N !
 FUNCTION UN_ASS    298.15  0;                                         6000 N !
 FUNCTION R         298.15  +8.31451;                                  6000 N !
$ ------------------------------------------------------------------------------
$ Element data
$ ------------------------------------------------------------------------------
$ Bi
$
$ RHOMBOHEDRAL_A7 and LIQUID modified in unary 5.0
$ DIAMOND_A4 added in unary 5.0
$
 PAR  G(RHOMBOHEDRAL_A7,BI),,           +GHSERBI;                3000 N 09SGUN !
 PAR  G(FCC_A1,BI:VA),,                 +GHSERBI+9900-12.5*T;    3000 N 91Din !
 PAR  G(BCC_A2,BI:VA),,                 +GHSERBI+11297-13.9*T;   3000 N 91Din !
 PAR  G(HCP_A3,BI:VA),,                 +GHSERBI+9900-11.8*T;    3000 N 91Din !
$PAR  G(DIAMOND_A4,BI),,                +GHSERBI
$            +11296.8+9.253655*T;                                3000 N 88Che2 !
$PAR  G(BCT_A5,BI),,                    +GHSERBI+4184.07;        3000 N 91Din !
$PAR  G(TETRAGONAL_A6,BI),,             +GHSERBI+4184.07;        3000 N 91Din !
$PAR  G(TET_ALPHA1_A6,BI),,             +GHSERBI+4234;           3000 N 91Din !
 PAR  G(LIQUID,BI),,                    +GLIQBI;                 3000 N 09SGUN ! 
$
 FUNCTION GHSERBI   298.15  -7817.776+128.418925*T-28.4096529*T*LN(T)
       +0.012338888*T**2-8.381598E-6*T**3;
       544.55  Y  +29293.369-379.605174*T+49.678*T*LN(T)
       -0.0730245*T**2+1.3052833E-5*T**3-3544705*T**(-1)+1.66309E+25*T**(-9);
       800.00  Y  -11085.609+182.955328*T-36.041*T*LN(T)
       +7.4641E-3*T**2-1.05047E-6*T**3+5175*T**(-1)+1.66309E+25*T**(-9);
      1200.00  Y  -7580.864+124.770814*T-27.196*T*LN(T)+1.66309E+25*T**(-9);
      3000.00  N !
 FUNCTION GLIQBI    298.15  +11246.017-20.636399*T+GHSERBI-5.9608E-19*T**7;
       544.55  Y  +40629.667-400.415652*T+49.678*T*LN(T)
       -0.0730245*T**2+1.3052833E-5*T**3-3544705*T**(-1);
       800.00  Y  +250.689+162.14485*T-36.041*T*LN(T)
       +0.0074641*T**2-1.05047E-6*T**3+5175*T**(-1);
      1200.00  Y  +3755.434+103.960336*T-27.196*T*LN(T);
      3000.00 N !
$ ------------------------------------------------------------------------------
$ Ga
$
$ DIAMOND_A4 added in unary 5.0
$
$ Changed name from ORTHORHOMBIC_GA to ORTHORHOMBIC_A11
$
 PAR  G(ORTHORHOMBIC_A11,GA)    200.00  +GHSERGA;                4000 N 91Din !
 PAR  G(FCC_A1,GA:VA)           200.00  +GHSERGA+3800-10.2*T;    4000 N 91Din !
 PAR  G(BCC_A2,GA:VA)           200.00  +GHSERGA+4500-11.7*T;    4000 N 91Din !
 PAR  G(HCP_A3,GA:VA)           200.00  +GHSERGA+4500-9.5*T;     4000 N 91Din !
$PAR  G(DIAMOND_A4,GA)          200.00  +GHSERGA+20900-2*T;      4000 N 09SGUN !
$PAR  G(BCT_A5,GA)              200.00  +GHSERGA+3846-9.8*T;     4000 N 91Din !
$PAR  G(TETRAGONAL_A6,GA)       200.00  +GHSERGA+3500-10*T;      4000 N 91Din !
 PAR  G(LIQUID,GA)              200.00  +GLIQGA;                 4000 N 91Din !
$
 FUNCTION GHSERGA   200.00  -21312.331+585.263691*T-108.228783*T*LN(T)
       +0.227155636*T**2-1.18575257E-04*T**3+439954*T**(-1);
       302.91  Y  -7055.643+132.73019*T-26.0692906*T*LN(T)
       +1.506E-04*T**2-4.0173E-08*T**3-118332*T**(-1)+1.64547E+23*T**(-9);
      4000.00  N !
 FUNCTION GLIQGA    200.00  +5491.298-18.073995*T+GHSERGA-7.0171E-17*T**7;
       302.91  Y  +5666.455-18.681147*T+GHSERGA-1.64547E+23*T**(-9);
      4000.00  N !
 FUNCTION GHCPGA    298.15  +GHSERGA+4500-9.5*T;                       6000 N !
$ ------------------------------------------------------------------------------
$ Binary system
$
$ From C. Girard 1985 (included in LB Vol. 2)
$
$ C. Girard, PhD Thesis, University of Provence, Marseille, 1985.
$
$ Checked against LB. Checked at 6000 K.
$
 PAR  L(LIQUID,BI,GA;0),,               +8401.6+0.996135*T;,,         N 85Gir !
 PAR  L(LIQUID,BI,GA;1),,               -560.9-2.43423*T;,,           N 85Gir !
 PAR  L(LIQUID,BI,GA;2),,               +754.8-.682275*T;,,           N 85Gir !
 PAR  L(LIQUID,BI,GA;3),,               -1162.5;,,                    N 85Gir !
$
$ Metastable
$
 PAR  L(FCC_A1,BI,GA:VA;0),,            +UN_ASS;,,                    N !
 PAR  L(BCC_A2,BI,GA:VA;0),,            +UN_ASS;,,                    N !
 PAR  L(HCP_A3,BI,GA:VA;0),,            +UN_ASS;,,                    N !
$ ------------------------------------------------------------------------------
$
 ASSESSED_SYSTEM
  BI-GA(TDB -* +LIQ +ORTHO_A11 +RHOM_A7 ;G5 MAJ:LIQ/BI C_S:LIQ/GA
  ;P3 TMM:200/800 STP:.6/450) !
$
$
 LIST-OF-REFERENCE
 NUMBER  SOURCE
  Null   'Unknown source'
  Same   'Same or similar interaction as in the corresponding stable phase'
  COST   'COST 507 database'
  85Gir  'C. Girard, PhD Thesis, University of Provence, Marseille, 1985; Bi-Ga'
  88Che2 'P.-Y. Chevalier, Thermochim. Acta, 132, 111-16(1988),
          SGTE unary database V.5.0, 2009; Bi' 
  91Din  'A.T. Dinsdale, Calphad, 15, 317-425(1991).'
  09SGUN 'SGTE unary database V.5.0, 2009.'
!
