$
$ Database for Sb-Y from L.G. Zhang et al. 2009
$
$ L.G. Zhang, H.M. Chen, H.Q. Dong, G.X. Huang, L.B. Liu, Z.P. Jin,
$ J. Alloys Compd., 475, 233-37(2009).
$
$ Dataset created 2017.07.08 by Bengt Hallstedt.
$ 2021.02.05: Modified for use with GES6.
$
$ Wrong sign for L(LIQUID,SB,Y;2) in the paper.
$
$ Invariant equilibria with Sb3Y4 differ by up to 4 K, other by up to 1 K.
$
$ There is an inverse miscibility gap with a minimum at 3765 K and x(Sb)=0.09.
$
$ ------------------------------------------------------------------------------
 TEMP-LIM 298.15 6000.00 !
$
$ELEMENT NAME  REF. STATE               ATOMIC MASS H298-H0    S298    !
$
 ELEMENT VA   VACUUM                      0.0          0.0      0.0    ! 
 ELEMENT SB   RHOMBOHEDRAL_A7           121.75      5870.152   45.5219 ! 
 ELEMENT Y    HCP_A3                     88.9059    5983.457   44.7875 ! 
$ ------------------------------------------------------------------------------
$ Phase definitions
$
 PHASE LIQUID:L % 1 1 !
 CONST LIQUID:L : SB Y : !
$
$ Fcc (cF4, Fm-3m) and MeX (cF8, Fm-3m)
$
 PHASE FCC_A1 %A 2 1 1 !
 CONST FCC_A1 : SB Y : VA : !
$
$ Bcc (cI2, Im-3m)
$
 PHASE BCC_A2 %B 2 1 3 !
 CONST BCC_A2 : SB Y% : VA : !
$
$ Hcp (hP2, P6_3/mmc) and Me2X (NiAs-type, hP4, P6_3/mmc, B8_1)
$
 PHASE HCP_A3 %A 2 1 0.5 !
 CONST HCP_A3 : SB Y% : VA : !
$
$ Prototype alpha-As (hR2, R-3m)
$
 PHASE RHOMBOHEDRAL_A7 % 1 1 !
 CONST RHOMBOHEDRAL_A7 : SB : !
$
$ Prototype NaCl (cF8, Fm-3m)
$
 PHASE SBY_B1 % 2 1 1 !
 CONST SBY_B1 : SB : Y : !
$
$ Prototype Th3P4 (cI28, I-43d)
$
 PHASE SB3Y4_D73 % 2 3 4 !
 CONST SB3Y4_D73 : SB : Y : !
$
$ Prototype Mn5Si3 (hP16, P6_3/mcm)
$
 PHASE SB3Y5_D88 % 2 3 5 !
 CONST SB3Y5_D88 : SB : Y : !
$
$ Prototype Ti3P (tP32, P4_2/n)
$
 PHASE SBY3 % 2 1 3 !
 CONST SBY3 : SB : Y : !
$ ------------------------------------------------------------------------------
$ Defaults
$
 DEFINE-SYSTEM-DEFAULT ELEMENT 2 !
 DEFAULT-COM DEFINE_SYSTEM_ELEMENT VA !
 TYPE-DEF % SEQ * !
 TYPE-DEF A GES AMEND_PHASE_DESCRIPTION @ MAGNETIC -3 0.28 !
 TYPE-DEF B GES AMEND_PHASE_DESCRIPTION @ MAGNETIC -1 0.4 !
 FUNCTION ZERO      298.15  0;                                         6000 N !
 FUNCTION UN_ASS    298.15  0;                                         6000 N !
 FUNCTION R         298.15  +8.31451;                                  6000 N !
$ ------------------------------------------------------------------------------
$ Element data
$ ------------------------------------------------------------------------------
$ Sb
$
$ BCT_A5 revised in unary 3.0
$
$ BCT_A5 the value from 91Din is used in LBall-v7+fun.tdb.
$ BCT_A5 the value from 96SGUN is used in SGSOL 5.0.
$ It is only needed in Sb-Sn.
$
 PAR  G(RHOMBOHEDRAL_A7,SB),,           +GHSERSB;                2000 N 91Din !
 PAR  G(FCC_A1,SB:VA),,                 +GHSERSB+19874-13.7*T;   2000 N 91Din !
 PAR  G(BCC_A2,SB:VA),,                 +GHSERSB+19874-15.1*T;   2000 N 91Din !
 PAR  G(HCP_A3,SB:VA),,                 +GHSERSB+19874-13*T;     2000 N 91Din !
$PAR  G(BCT_A5,SB),,                    +GHSERSB+13000-8*T;      2000 N 96SGUN !
$PAR  G(BCT_A5,SB),,                    +GHSERSB+1000;           2000 N 91Din !
 PAR  G(LIQUID,SB),,                    +GLIQSB;                 2000 N 91Din !
$
 FUNCTION GHSERSB   298.15  -9242.858+156.154689*T-30.5130752*T*LN(T)
       +0.007748768*T**2-3.003415E-06*T**3+100625*T**(-1);
       903.78  Y  -11738.83+169.485872*T-31.38*T*LN(T)+1.616849E+27*T**(-9);
      2000.00  N !
 FUNCTION GLIQSB    298.15  +19822.328-21.923164*T+GHSERSB-1.74847E-20*T**7;
       903.78  Y  +8175.359+147.455986*T-31.38*T*LN(T);
      2000.00  N !
$ ------------------------------------------------------------------------------
$ Y
$
$ HCP_A3, BCC_A2 and LIQUID revised in unary 3.0
$ FCC_A1 added in unary 4.1
$
 PAR  G(HCP_A3,Y:VA)            100.00  +GHSERYY;                3700 N 95She3 !
 PAR  G(BCC_A2,Y:VA)            100.00  +GBCCYY;                 3700 N 95She3 !
 PAR  G(FCC_A1,Y:VA)            100.00  +GHSERYY+6000;           3700 N Frie2 !
 PAR  G(LIQUID,Y)               100.00  +GLIQYY;                 3700 N 95She3 !
$
 FUNCTION GHSERYY   100.00  -8011.09379+128.572856*T-25.6656992*T*LN(T)
       -0.00175716414*T**2-4.17561786E-07*T**3+26911.509*T**(-1);
      1000.00  Y  -7179.74574+114.497104*T-23.4941827*T*LN(T)
       -0.0038211802*T**2-8.2534534E-08*T**3;
      1795.15  Y  -67480.7761+382.124727*T-56.9527111*T*LN(T)
       +0.00231774379*T**2-7.22513088E-08*T**3+18077162.6*T**(-1);
      3700.00  N !
 FUNCTION GBCCYY    100.00  -833.658863+123.667346*T-25.5832578*T*LN(T)
       -0.00237175965*T**2+9.10372497E-09*T**3+27340.0687*T**(-1);
      1000.00  Y  -1297.79829+134.528352*T-27.3038477*T*LN(T)
       -5.41757644E-04*T**2-3.05012175E-07*T**3;
      1795.15  Y  +15389.4975+0.981325399*T-8.88296647*T*LN(T)
       -0.00904576576*T**2+4.02944768E-07*T**3-2542575.96*T**(-1);
      3700.00  N !
 FUNCTION GLIQYY    100.00  +2098.50738+119.41873*T-24.6467508*T*LN(T)
       -0.00347023463*T**2-8.12981167E-07*T**3+23713.7332*T**(-1);
      1000.00  Y  +7386.44846+19.4520171*T-9.0681627*T*LN(T)
       -0.0189533369*T**2+1.7595327E-06*T**3;
      1795.15  Y  -12976.5957+257.400783*T-43.0952*T*LN(T);
      3700.00  N !
$ ------------------------------------------------------------------------------
$ Binary system
$
$ L.G. Zhang, H.M. Chen, H.Q. Dong, G.X. Huang, L.B. Liu, Z.P. Jin,
$ J. Alloys Compd., 475, 233-37(2009).
$
$ Checked against paper. Checked at 6000 K.
$
$ Wrong sign for L(LIQUID,SB,Y;2) in the paper.
$
$ Invariant equilibria with Sb3Y4 differ by up to 4 K, other by up to 1 K.
$
$ There is an inverse miscibility gap with a minimum at 3765 K and x(Sb)=0.09.
$
 PAR  L(LIQUID,SB,Y;0),,                -283141+10.6446*T;,,          N 09Zha !
 PAR  L(LIQUID,SB,Y;1),,                -33814.3+28.5517*T;,,         N 09Zha !
 PAR  L(LIQUID,SB,Y;2),,                +83240.7;,,                   N 09Zha !
$
 PAR  L(BCC_A2,SB,Y:VA;0),,             -191265.1;,,                  N 09Zha !
 PAR  L(HCP_A3,SB,Y:VA;0),,             -181277.2;,,                  N 09Zha !
$
 PAR  G(SBY_B1,SB:Y),,                  +GHSERSB+GHSERYY
             -235252+12.75418*T;,,                                    N 09Zha !
 PAR  G(SB3Y4_D73,SB:Y),,               +3*GHSERSB+4*GHSERYY
             -603017.8-27.35082*T;,,                                  N 09Zha !
 PAR  G(SB3Y5_D88,SB:Y),,               +3*GHSERSB+5*GHSERYY
             -732286.4+26.77816*T;,,                                  N 09Zha !
 PAR  G(SBY3,SB:Y),,                    +GHSERSB+3*GHSERYY
             -259678.4+18.51324*T;,,                                  N 09Zha !
$
$ Metastable
$
 PAR  L(FCC_A1,SB,Y:VA;0),,             -181277.2;,,                  N Same !
$ ------------------------------------------------------------------------------
$
$
 LIST-OF-REFERENCE
 NUMBER  SOURCE
  Null   'Unknown source'
  Same   'Same or similar interaction as in the corresponding stable phase'
  COST   'COST 507 database'
  Frie2  'Suzana Fries and Leo Lukas, unpublished,
          SGTE unary database V.4.1, 1999; Y'
  91Din  'A.T. Dinsdale, Calphad, 15, 317-425(1991).'
  95She3 'H. Shen, W. Zhang, G. Liu, R. Wang, Z. Du, Report F-95-03,
          University of Science and Technology, Beijing, May 1995,
          SGTE unary database V.3.0, 1996; Y'
  96SGUN 'SGTE unary database V.3.0, 1996.'
  09Zha  'L.G. Zhang, H.M. Chen, H.Q. Dong, G.X. Huang, L.B. Liu, Z.P. Jin,
          J. Alloys Compd., 475, 233-37(2009); Sb-Y'
!
