$
$ Database for Tm-O from M. Zinkevich 2007.
$
$ M. Zinkevich, Prog. Mater. Sci., 52, 597-647(2007).
$
$ Dataset created 2024.10.15 by Bengt Hallstedt.
$
$ This dataset contains the Tm2O3 data from 07Zin. The O solubility in solid
$ Tm can be expected to be low. The liquid interaction was set similar to
$ Pr-O from 23Nak.
$
$ Gas phase (except O2) is not included.
$
$ ------------------------------------------------------------------------------
 TEMP-LIM 298.15 6000.00 !
$
$ELEMENT NAME  REF. STATE               ATOMIC MASS H298-H0    S298    !
$
 ELEMENT /-   ELECTRON_GAS                0.0          0.0      0.0    ! 
 ELEMENT VA   VACUUM                      0.0          0.0      0.0    ! 
 ELEMENT O    1/2_MOLE_O2(G)             15.999     4341.0    102.52   ! 
 ELEMENT TM   HCP_A3                    168.9342    7397.312   74.01496! 
$ ------------------------------------------------------------------------------
$ Species
$
 SPECIE  O-2                                O/-2 !
 SPECIE  O2                                 O2 !
 SPECIE  TM+3                               TM/+3 !
$ ------------------------------------------------------------------------------
$ Phase definitions
$
 PHASE ION:Y % 2 1 1 !
 CONST ION:Y : TM+3 : O-2 VA : !
$
$ Hcp (hP2, P6_3/mmc) and Me2X (NiAs-type, hP4, P6_3/mmc, B8_1)
$
 PHASE HCP_A3 %A 2 1 0.5 !
 CONST HCP_A3 : TM : VA : !
$
$ Prototype Mn2O3 (cI80, Ia-3)
$
 PHASE C_R2O3_D53:I % 2 2 3 !
 CONST C_R2O3_D53:I : TM+3 : O-2 : !
$
$ Prototype H-La2O3 (hP10, P6_3/mmc)
$
 PHASE H_R2O3:I % 2 2 3 !
 CONST H_R2O3:I : TM+3 : O-2 : !
$
 PHASE O2GAS % 1 1 !
 CONST O2GAS : O2 : !
$ ------------------------------------------------------------------------------
$ Defaults
$
 DEFINE-SYSTEM-DEFAULT ELEMENT 2 !
 DEFAULT-COM DEFINE_SYSTEM_ELEMENT VA /- !
 TYPE-DEF % SEQ * !
 TYPE-DEF A GES AMEND_PHASE_DESCRIPTION @ MAGNETIC -3 0.28 !
 TYPE-DEF B GES AMEND_PHASE_DESCRIPTION @ MAGNETIC -1 0.4 !
 FUNCTION ZERO      298.15  0;                                         6000 N !
 FUNCTION UN_ASS    298.15  0;                                         6000 N !
 FUNCTION R         298.15  +8.31451;                                  6000 N !
 FUNCTION RTLNP     298.15  +8.31451*T*LN(1E-05*P);                    6000 N !
$ ------------------------------------------------------------------------------
$ Element data
$ ------------------------------------------------------------------------------
$ O
$
$ GHSEROO modified in unary 3.0
$
 PAR  G(O2GAS,O2),,                     +2*GHSEROO+RTLNP;,,           N 91Din !
$
$ 1/2 O2(g)
 FUNCTION GHSEROO   298.15  -3480.87-25.503038*T-11.1355*T*LN(T)
       -0.005098875*T**2+6.61845833E-07*T**3-38365*T**(-1);
      1000.00  Y  -6568.763+12.659879*T-16.8138*T*LN(T)
       -5.957975E-04*T**2+6.781E-09*T**3+262905*T**(-1);
      3300.00  Y  -13986.728+31.259624*T-18.9536*T*LN(T)
       -4.25243E-04*T**2+1.0721E-08*T**3+4383200*T**(-1);
      6000.00  N !
$ ------------------------------------------------------------------------------
$ Tm
$
 PAR  G(HCP_A3,TM:VA),,                 +GHSERTM;                2300 N 91Din !
$PAR  G(LIQUID,TM),,                    +GLIQTM;                 2300 N 91Din !
$
 PAR  G(ION,TM+3:VA),,                  +GLIQTM;                 2300 N 91Din !
$
 FUNCTION GHSERTM   298.15  -10016.715+151.037648*T-34.3664974*T*LN(T)
       +0.012110965*T**2-3.831156E-06*T**3+95982*T**(-1);
       700.00  Y  -14701.965+147.957496*T-32.1951269*T*LN(T)
       +4.44753E-04*T**2-3.96694E-07*T**3+1091664*T**(-1);
      1600.00  Y  -8669.227+97.98144*T-25.1816969*T*LN(T)-0.003384563*T**2;
      1818.00  Y  +727125.608-4147.40063*T+534.082763*T*LN(T)
       -0.19093039*T**2+1.1689185E-05*T**3-1.8038222E+08*T**(-1);
      2300.00  N !
 FUNCTION GLIQTM    298.15  +13199.249-6.557671*T+GHSERTM;
       600.00  Y  +22640.028-126.738485*T+6.8744933*T*LN(T)
       -0.025487085*T**2+2.288172E-06*T**3-1585412*T**(-1);
      1818.00  Y  -10090.305+214.184413*T-41.37976*T*LN(T);
      2300.00  N !
$ ------------------------------------------------------------------------------
$ Binary system
$
$ M. Zinkevich, Prog. Mater. Sci., 52, 597-647(2007).
$
$ Checked against paper. Checked at 6000 K.
$
$ This dataset contains the Tm2O3 data from 07Zin. The O solubility in solid
$ Tm can be expected to be low. The liquid interaction was set similar to
$ Pr-O from 23Nak.
$
$ Gas phase (except O2) is not included.
$
 PAR  G(ION,TM+3:O-2),,                 +GTM2O3L;,,                   N 07Zin !
 PAR  L(ION,TM+3:O-2,VA;0),,            +50000;,,                     N Same !
 PAR  L(ION,TM+3:O-2,VA;1),,            -25000;,,                     N Same !
$
 PAR  G(C_R2O3_D53,TM+3:O-2),,          +GTM2O3C;,,                   N 07Zin !
 PAR  G(H_R2O3,TM+3:O-2),,              +GTM2O3H;,,                   N 07Zin !
$
 FUNCTION GTM2O3C   298.15  -1927401+680.6164*T-121.506*T*LN(T)
       -0.005899*T**2+4.0E+07*T**(-2);
      6000.00  N !
 FUNCTION GTM2O3A   298.15  +GTM2O3C+23031-5.328*T;                    6000 N !
 FUNCTION GTM2O3B   298.15  +GTM2O3C+13968-3.800*T;                    6000 N !
 FUNCTION GTM2O3H   298.15  +GTM2O3C+25322-9.654*T;                    6000 N !
 FUNCTION GTM2O3X   298.15  +GTM2O3C+38019-14.223*T;                   6000 N !
 FUNCTION GTM2O3L   298.15  +GTM2O3C+109726-40.938*T;                  6000 N !
$ ------------------------------------------------------------------------------
$
$
 LIST-OF-REFERENCE
 NUMBER  SOURCE
  Null   'Unknown source'
  Same   'Similar interaction as with other R elements'
  COST   'COST 507 database'
  91Din  'A.T. Dinsdale, Calphad, 15, 317-425(1991).'
  07Zin  'M. Zinkevich, Prog. Mater. Sci., 52, 597-647(2007); Tm-O'
!
