$
$ Database for Pt-As from M. Li et al. 2007
$
$ M. Li, C. Li, F. Wang, W. Zhang, J. Alloys Compd., 437, 71-79(2007).
$
$ Dataset created 2010.04.08 by Bengt Hallstedt.
$ 2021.02.05: Modified for use with GES6.
$
$ Gas phase invariants are about 10 K higher. In 07Li the 1994 version of SGSUB
$ was used. Since then the data for gaseous As (and possibly Pt) have changed.
$
$ ------------------------------------------------------------------------------
 TEMP-LIM 298.15 6000.00 !
$
$ELEMENT NAME  REF. STATE               ATOMIC MASS H298-H0    S298    !
$
 ELEMENT VA   VACUUM                      0.0          0.0      0.0    ! 
 ELEMENT AS   RHOMBOHEDRAL_A7            74.922     5117.032   35.6895 ! 
 ELEMENT PT   FCC_A1                    195.08      5723.712   41.6308 !
$ ------------------------------------------------------------------------------
$ Species
$
 SPECIE  AS2                                AS2 !
 SPECIE  AS4                                AS4 !
$ ------------------------------------------------------------------------------
$ Phase definitions
$
 PHASE LIQUID:L % 1 1 !
 CONST LIQUID:L : AS PT : !
$
$ Fcc (cF4, Fm-3m) and MeX (cF8, Fm-3m)
$
 PHASE FCC_A1 %A 2 1 1 !
 CONST FCC_A1 : AS PT% : VA : !
$
$ Bcc (cI2, Im-3m)
$
 PHASE BCC_A2 %B 2 1 3 !
 CONST BCC_A2 : AS PT : VA : !
$
$ Hcp (hP2, P6_3/mmc) and Me2X (NiAs-type, hP4, P6_3/mmc, B8_1)
$
 PHASE HCP_A3 %A 2 1 0.5 !
 CONST HCP_A3 : AS PT : VA : !
$
$ Prototype alpha-As (hR2, R-3m)
$
 PHASE RHOMBOHEDRAL_A7 % 1 1 !
 CONST RHOMBOHEDRAL_A7 : AS : !
$
$ Prototype FeS2 (cP12, Pa-3), sperrylite
$
 PHASE PTAS2_C2 % 2 1 2 !
 CONST PTAS2_C2 : PT : AS : ! 
$
 PHASE GAS:G % 1 1 !
 CONST GAS:G : AS% AS2 AS4 PT : !
$ ------------------------------------------------------------------------------
$ Defaults
$
 DEFINE-SYSTEM-DEFAULT ELEMENT 2 !
 DEFAULT-COM DEFINE_SYSTEM_ELEMENT VA !
 TYPE-DEF % SEQ * !
 TYPE-DEF A GES AMEND_PHASE_DESCRIPTION @ MAGNETIC -3 0.28 !
 TYPE-DEF B GES AMEND_PHASE_DESCRIPTION @ MAGNETIC -1 0.4 !
 FUNCTION ZERO      298.15  0;                                         6000 N !
 FUNCTION UN_ASS    298.15  0;                                         6000 N !
 FUNCTION R         298.15  +8.31451;                                  6000 N !
 FUNCTION RTLNP     298.15  +8.31451*T*LN(1E-05*P);                    6000 N !
$ ------------------------------------------------------------------------------
$ Element data
$ ------------------------------------------------------------------------------
$ As
$
$ RED_P added in unary 4.4
$
 PAR  G(RHOMBOHEDRAL_A7,AS),,           +GHSERAS;                1200 N 91Din !
 PAR  G(FCC_A1,AS:VA),,                 +GHSERAS+24874-14.74*T;  1200 N 91Din !
 PAR  G(BCC_A2,AS:VA),,                 +GHSERAS+24874-16.1*T;   1200 N 91Din !
 PAR  G(HCP_A3,AS:VA),,                 +GHSERAS+24874-14*T;     1200 N 91Din !
$PAR  G(RED_P,AS),,                     +GHSERAS+5782-3.85466*T; 1200 N 01SGUN !
 PAR  G(LIQUID,AS),,                    +GHSERAS
             +24442.9-22.424679*T;                               1200 N 91Din !
$
 PAR  G(GAS,AS),,                       +AS1G+RTLNP;,,                N 00SUB !
 PAR  G(GAS,AS2),,                      +AS2G+RTLNP;,,                N 00SUB !
 PAR  G(GAS,AS4),,                      +AS4G+RTLNP;,,                N 00SUB !
$
 FUNCTION GHSERAS   298.15  -7270.447+122.211069*T-23.3144*T*LN(T)
       -0.00271613*T**2+11600*T**(-1);
      1090.00  Y  -10454.913+163.457433*T-29.216037*T*LN(T);
      1200.00  N !
 FUNCTION AS1G      298.15  +272027.85-32.2533338*T-21.21551*T*LN(T)
       +4.3891495E-04*T**2-7.393995E-08*T**3+9666.555*T**(-1);
      1800.00  Y  +293094.184-133.732322*T-8.281945*T*LN(T)
       -0.002703715*T**2+3.43112833E-08*T**3-6025190*T**(-1);
      3700.00  Y  +260892.566-76.0337618*T-14.46743*T*LN(T)
       -0.002830183*T**2+8.062755E-08*T**3+16685580*T**(-1);
      6400.00  Y  -42687.3967+565.669048*T-87.99118*T*LN(T)
       +0.005136275*T**2-8.21615833E-08*T**3+2.534398E+08*T**(-1);
     60000.00  N !
 FUNCTION AS2G      298.15  +179351.548+10.5519715*T-37.35966*T*LN(T)
       -5.61806E-05*T**2-2.13098E-08*T**3+104881.15*T**(-1);
      2200.00  Y  +190396.109-11.4088459*T-35.19088*T*LN(T)
       +8.55731E-04*T**2-1.59161083E-07*T**3-5169920*T**(-1);
      4500.00  Y  +461366.155-824.888486*T+62.44495*T*LN(T)
       -0.014841615*T**2+3.152775E-07*T**3-1.469506E+08*T**(-1);
      6000.00  N !
 FUNCTION AS4G      298.15  +129731.745+230.754352*T-83.04465*T*LN(T)
       -2.5148475E-05*T**2+1.00444733E-09*T**3+252728.45*T**(-1);   
      6000.00  N !
$ ------------------------------------------------------------------------------
$ Pt
$
 PAR  G(FCC_A1,PT:VA),,                 +GHSERPT;                4000 N 91Din !
 PAR  G(BCC_A2,PT:VA),,                 +GHSERPT+15000-2.4*T;    4000 N 91Din !
 PAR  G(HCP_A3,PT:VA),,                 +GHSERPT+2500+0.1*T;     4000 N 91Din !
 PAR  G(LIQUID,PT),,                    +GLIQPT;                 4000 N 91Din !
$
 PAR  G(GAS,PT),,                       +F14652T+RTLNP;,,             N 97SUB !
$
 FUNCTION GHSERPT   298.15  -7595.631+124.388275*T-24.5526*T*LN(T)
       -0.00248297*T**2-2.0138E-08*T**3+7974*T**(-1);
      1300.00  Y  -9253.174+161.529615*T-30.2527*T*LN(T)
       +0.002321665*T**2-6.56946E-07*T**3-272106*T**(-1);
      2041.50  Y  -222048.216+1019.35892*T-136.192996*T*LN(T)
       +0.020454938*T**2-7.59259E-07*T**3+71539020*T**(-1);
      4000.00  N !
 FUNCTION GLIQPT    298.15  +20114.016-9.275183*T+GHSERPT;
       600.00  Y  +19023.491+32.94182*T-12.3403769*T*LN(T)
       -0.011551507*T**2+9.31516E-07*T**3-601426*T**(-1);
      2041.50  Y  +1404.468+205.858962*T-36.5*T*LN(T);
      4000.00  N !
$ Pt (g)
 FUNCTION F14652T  298.15  +551490.27+78.8512672*T-41.08193*T*LN(T)
       +0.0141941*T**2-1.91836667E-06*T**3+360944.55*T**(-1);
       900.00  Y  +564711.648-61.4000176*T-20.67765*T*LN(T)
       +2.4850965E-05*T**2-4.52473E-08*T**3-1260680*T**(-1);
      2900.00  Y  +541867.612+2.94835054*T-28.22599*T*LN(T)
       +8.239225E-04*T**2-4.12430333E-08*T**3+10149895*T**(-1);
      6800.00  Y  +770860.941-391.157554*T+15.67564*T*LN(T)
       -0.0028168985*T**2+1.32117183E-08*T**3-2.093853E+08*T**(-1);
     10000.00  N !
$ ------------------------------------------------------------------------------
$ Binary system
$
$ M. Li, C. Li, F. Wang, W. Zhang, J. Alloys Compd., 437, 71-79(2007).
$
$ Checked against paper. Checked at 6000K.
$
$ Gas phase invariants are about 10 K higher. In 07Li the 1994 version of SGSUB
$ was used. Since then the data for gaseous As (and possibly Pt) have changed.
$
 PAR  L(LIQUID,AS,PT;0),,               -123343.99-3.1747*T;,,        N 07Li !
 PAR  L(LIQUID,AS,PT;1),,               -4206.64+4.2609*T;,,          N 07Li !
$
 PAR  G(PTAS2_C2,PT:AS),,               +GHSERPT+2*GHSERAS
             -141931.92+1.5144*T;,,                                   N 07Li !
$ ------------------------------------------------------------------------------
$
$
 LIST-OF-REFERENCE
 NUMBER  SOURCE
  Null   'Unknown source'
  Same   'Same or similar interaction as in the corresponding stable phase'
  COST   'COST 507 database'
  91Din  'A.T. Dinsdale, Calphad, 15, 317-425(1991).'
  97SUB  'SGTE substance database, version 1997'
  00SUB  'SGTE substance database, version 2000'
  01SGUN 'SGTE unary database V.4.4, 2001.'
  07Li   'M. Li, C. Li, F. Wang, W. Zhang,
          J. Alloys Compd., 437, 71-79(2007); Pt-As'
!
