$
$ Database for Pb-Pt from Z.H. Long et al. 2009.
$
$ Z.H. Long, X.M. Tao, H.S. Liu, Z.P. Jin,
$ J. Phase Equilib. Diffus., 30, 318-22(2009).
$
$ Dataset created 2018.01.21 by Bengt Hallstedt.
$ 2021.02.03: Modified for use with GES6.
$
$ ------------------------------------------------------------------------------
 TEMP-LIM 298.15 6000.00 !
$
$ELEMENT NAME  REF. STATE               ATOMIC MASS H298-H0    S298    !
$
 ELEMENT VA   VACUUM                      0.0          0.0      0.0    ! 
 ELEMENT PB   FCC_A1                    207.2       6870.      64.80   ! 
 ELEMENT PT   FCC_A1                    195.08      5723.712   41.6308 !
$ ------------------------------------------------------------------------------
$ Phase definitions
$
 PHASE LIQUID:L % 1 1 !
 CONST LIQUID:L : PB PT : !
$
$ Fcc (cF4, Fm-3m) and MeX (cF8, Fm-3m)
$
 PHASE FCC_A1 %A 2 1 1 !
 CONST FCC_A1 : PB PT : VA : !
$
$ Bcc (cI2, Im-3m)
$
 PHASE BCC_A2 %B 2 1 3 !
 CONST BCC_A2 : PB PT : VA : !
$
$ Hcp (hP2, P6_3/mmc) and Me2X (NiAs-type, hP4, P6_3/mmc, B8_1)
$
 PHASE HCP_A3 %A 2 1 0.5 !
 CONST HCP_A3 : PB PT : VA : !
$
$ Prototype Pb4Pt (tP10, P4/nbm)
$
 PHASE PB4PT % 2 4 1 !
 CONST PB4PT : PB : PT : !
$
$ Prototype NiAs (hP4, P6_3/mmc)
$
 PHASE PBPT_B81 % 2 1 1 !
 CONST PBPT_B81 : PB : PT : !
$
$ Prototype AuCu3 (cP4, Pm-3m)
$
 PHASE PBPT3_L12 % 2 1 3 !
 CONST PBPT3_L12 : PB : PT : !
$ ------------------------------------------------------------------------------
$ Defaults
$
 DEFINE-SYSTEM-DEFAULT ELEMENT 2 !
 DEFAULT-COM DEFINE_SYSTEM_ELEMENT VA !
 TYPE-DEF % SEQ * !
 TYPE-DEF A GES AMEND_PHASE_DESCRIPTION @ MAGNETIC -3 0.28 !
 TYPE-DEF B GES AMEND_PHASE_DESCRIPTION @ MAGNETIC -1 0.4 !
 FUNCTION ZERO      298.15  0;                                         6000 N !
 FUNCTION UN_ASS    298.15  0;                                         6000 N !
 FUNCTION R         298.15  +8.31451;                                  6000 N !
$ ------------------------------------------------------------------------------
$ Element data
$ ------------------------------------------------------------------------------
$ Pb
$
$ RHOMBOHEDRAL_A7 and TETRAGONAL_A6 added in unary 3.0
$ RHOMBOHEDRAL_A7, TETRAGONAL_A6 and TET_ALPHA1_A6 revised in unary 4.1
$ RHOMBO_A10 added in unary 5.0
$
 PAR  G(FCC_A1,PB:VA),,                 +GHSERPB;                2100 N 91Din !
 PAR  G(BCC_A2,PB:VA),,                 +GHSERPB+2400-1.1*T;     2100 N 91Din !
 PAR  G(HCP_A3,PB:VA),,                 +GHSERPB+300+T;          2100 N 91Din !
$PAR  G(BCT_A5,PB),,                    +GHSERPB+489+3.52*T;     2100 N 91Din !
$PAR  G(TETRAGONAL_A6,PB),,             +GHSERPB+4493.235;       2100 N 98Boa !
$PAR  G(TETRAGONAL_A6,PB),,             +GHSERPB+473.23+3.5531*T
$            -0.0396834*T*LN(T)+2.1489E-05*T**2;                 2100 N 96SGUN !
$PAR  G(TET_ALPHA1_A6,PB),,             +GHSERPB
$            +1903.3-2.0602*T;                                   2100 N 98Boa !
$PAR  G(TET_ALPHA1_A6,PB),,             +GHSERPB+183.2+0.45314*T
$            -0.0396834*T*LN(T)+2.149E-06*T**2;                  2100 N 91Din !
$PAR  G(RHOMBOHEDRAL_A7,PB),,           +GHSERPB+300+T;          2100 N 99SGUN !
$PAR  G(RHOMBOHEDRAL_A7,PB),,           +GHSERPB+4900+3.52*T;    2100 N 96SGUN !
$PAR  G(RHOMBO_A10,PB),,                +GHSERPB+10;             2100 N 09SGUN !
 PAR  G(LIQUID,PB),,                    +GLIQPB;                 2100 N 91Din !
$
 FUNCTION GHSERPB   298.15  -7650.085+101.700244*T-24.5242231*T*LN(T)
       -0.00365895*T**2-2.4395E-07*T**3;
       600.61  Y  -10531.095+154.243182*T-32.4913959*T*LN(T)
       +0.00154613*T**2+8.05448E+25*T**(-9);
      1200.00  Y  +4157.616+53.139072*T-18.9640637*T*LN(T)
       -0.002882943*T**2+9.8144E-08*T**3-2696755*T**(-1)+8.05448E+25*T**(-9);
      2100.00  N !
 FUNCTION GLIQPB    298.15  +4672.124-7.750683*T+GHSERPB-6.019E-19*T**7;
       600.61  Y  +4853.137-8.067136*T+GHSERPB-8.05448E+25*T**(-9);
      2100.00  N !
$ ------------------------------------------------------------------------------
$ Pt
$
 PAR  G(FCC_A1,PT:VA),,                 +GHSERPT;                4000 N 91Din !
 PAR  G(BCC_A2,PT:VA),,                 +GHSERPT+15000-2.4*T;    4000 N 91Din !
 PAR  G(HCP_A3,PT:VA),,                 +GHSERPT+2500+0.1*T;     4000 N 91Din !
 PAR  G(LIQUID,PT),,                    +GLIQPT;                 4000 N 91Din !
$
 FUNCTION GHSERPT   298.15  -7595.631+124.388275*T-24.5526*T*LN(T)
       -0.00248297*T**2-2.0138E-08*T**3+7974*T**(-1);
      1300.00  Y  -9253.174+161.529615*T-30.2527*T*LN(T)
       +0.002321665*T**2-6.56946E-07*T**3-272106*T**(-1);
      2041.50  Y  -222048.216+1019.35892*T-136.192996*T*LN(T)
       +0.020454938*T**2-7.59259E-07*T**3+71539020*T**(-1);
      4000.00  N !
 FUNCTION GLIQPT    298.15  +20114.016-9.275183*T+GHSERPT;
       600.00  Y  +19023.491+32.94182*T-12.3403769*T*LN(T)
       -0.011551507*T**2+9.31516E-07*T**3-601426*T**(-1);
      2041.50  Y  +1404.468+205.858962*T-36.5*T*LN(T);
      4000.00  N !
 FUNCTION GBCCPT    298.15  +GHSERPT+15000-2.4*T;                      6000 N !
$ ------------------------------------------------------------------------------
$ Binary system
$
$ Z.H. Long, X.M. Tao, H.S. Liu, Z.P. Jin,
$ J. Phase Equilib. Diffus., 30, 318-22(2009).
$
$ Checked against paper. Checked at 6000 K.
$
 PAR  L(LIQUID,PB,PT;0),,               -84177.589+236.106*T
             -26.024*T*LN(T);,,                                       N 09Lon !
 PAR  L(LIQUID,PB,PT;1),,               +4387-4.689*T;,,              N 09Lon !
$
 PAR  L(FCC_A1,PB,PT:VA;0),,            +46000;,,                     N 09Lon !
$
 PAR  G(PB4PT,PB:PT),,                  +4*GHSERPB+GHSERPT
             -66399.035+52.157*T;,,                                   N 09Lon !
 PAR  G(PBPT_B81,PB:PT),,               +GHSERPB+GHSERPT
             -42348.892+22.123*T;,,                                   N 09Lon !
 PAR  G(PBPT3_L12,PB:PT),,              +GHSERPB+3*GHSERPT
             -50562.516+24.555*T;,,                                   N 09Lon !
$
$ Metastable
$
 PAR  L(BCC_A2,PB,PT:VA;0),,            +46000;,,                     N Same !
 PAR  L(HCP_A3,PB,PT:VA;0),,            +46000;,,                     N Same !
$ ------------------------------------------------------------------------------
$
$
 LIST-OF-REFERENCE
 NUMBER  SOURCE
  Null   'Unknown source'
  Same   'Same or similar interaction as in the corresponding stable phase'
  COST   'COST 507 database'
  91Din  'A.T. Dinsdale, Calphad, 15, 317-425(1991).'
  96SGUN 'SGTE unary database V.3.0, 1996.'
  98Boa  'D. Boa, I. Ansara, Thermochim. Acta, 314, 79-86(1998),
          SGTE unary database V.4.1, 1999; In, Pb'
  99SGUN 'SGTE unary database V.4.1, 1999.'
  09Lon  'Z.H. Long, X.M. Tao, H.S. Liu, Z.P. Jin,
          J. Phase Equilib. Diffus., 30, 318-22(2009); Pb-Pt'
  09SGUN 'SGTE unary database V.5.0, 2009.'
!
