$
$ Database for Ru-Sm from S. Kardellass et al. 2023.
$
$ S. Kardellass, C. Corvalan-Moya, V.P. Vassiliev,
$ J. Phase Equilib. Diffus., 44, 300-23(2023).
$
$ Dataset created 2024.02.02 by Bengt Hallstedt.
$
$ The paper includes linear, exponential (Kaptay) and combined expressions for
$ the temperature dependence of the interaction parameters. This dataset
$ contains the exponential expressions, which seem the only reasonable.
$
$ The parameters for RuSm3 are correctly printed in Table 3, but not in the
$ parameter table (Table 5).
$
$ Invariant equilibria differ by up to 2 K.
$
$ ------------------------------------------------------------------------------
 TEMP-LIM 298.15 6000.00 !
$
$ELEMENT NAME  REF. STATE               ATOMIC MASS H298-H0    S298    !
$
 ELEMENT VA   VACUUM                      0.0          0.0      0.0    ! 
 ELEMENT RU   HCP_A3                    101.07      4602.4     28.6144 ! 
 ELEMENT SM   RHOMB_C19                 150.36      7573.04    69.4962 ! 
$ ------------------------------------------------------------------------------
$ Phase definitions
$
 PHASE LIQUID:L % 1 1 !
 CONST LIQUID:L : RU SM : !
$
$ Fcc (cF4, Fm-3m) and MeX (cF8, Fm-3m)
$
 PHASE FCC_A1 %A 2 1 1 !
 CONST FCC_A1 : RU : VA : !
$
$ Bcc (cI2, Im-3m)
$
 PHASE BCC_A2 %B 2 1 3 !
 CONST BCC_A2 : RU SM% : VA : !
$
$ Hcp (hP2, P6_3/mmc) and Me2X (NiAs-type, hP4, P6_3/mmc, B8_1)
$
 PHASE HCP_A3 %A 2 1 0.5 !
 CONST HCP_A3 : RU% SM% : VA : !
$
$ Prototype alpha-Sm (hR9, R-3m)
$
 PHASE RHOMB_C19 % 1 1 !
 CONST RHOMB_C19 : SM : !
$
$ Prototype Cu2Mg (cF24, Fd-3m)
$
 PHASE RU2SM_C15 % 2 2 1 !
 CONST RU2SM_C15 : RU : SM : !
$
$ Prototype Ru25Y44 (oP276, Pnna)
$
 PHASE RU25SM44 % 2 25 44 !
 CONST RU25SM44 : RU : SM : !
$
$ Prototype Mn5C2 (mC28, C2/c)
$
 PHASE RU2SM5 % 2 2 5 !
 CONST RU2SM5 : RU : SM : !
$
$ Prototype Fe3C (oP16, Pnma)
$
 PHASE RUSM3_D011 % 2 1 3 !
 CONST RUSM3_D011 : RU : SM : !
$ ------------------------------------------------------------------------------
$ Defaults
$
 DEFINE-SYSTEM-DEFAULT ELEMENT 2 !
 DEFAULT-COM DEFINE_SYSTEM_ELEMENT VA !
 TYPE-DEF % SEQ * !
 TYPE-DEF A GES AMEND_PHASE_DESCRIPTION @ MAGNETIC -3 0.28 !
 TYPE-DEF B GES AMEND_PHASE_DESCRIPTION @ MAGNETIC -1 0.4 !
 FUNCTION ZERO      298.15  0;                                         6000 N !
 FUNCTION UN_ASS    298.15  0;                                         6000 N !
 FUNCTION R         298.15  +8.31451;                                  6000 N !
$ ------------------------------------------------------------------------------
$ Element data
$ ------------------------------------------------------------------------------
$ Ru
$
$ BCC_A2 revised in unary 4.4
$
 PAR  G(HCP_A3,RU:VA),,                 +GHSERRU;                4500 N 91Din !
 PAR  G(FCC_A1,RU:VA),,                 +GHSERRU+12500-2.4*T;    4500 N 91Din !
 PAR  G(BCC_A2,RU:VA),,                 +GHSERRU+21500-5.05*T;   4500 N 01SGUN !
$PAR  G(BCC_A2,RU:VA),,                 +GHSERRU+26500-6.2*T;    4500 N 91Din !
 PAR  G(LIQUID,RU),,                    +GLIQRU;                 4500 N 91Din !
$
 FUNCTION GHSERRU   298.15  -7561.873+127.866233*T-22.9143287*T*LN(T)
       -0.004062566*T**2+1.7641E-07*T**3+56377*T**(-1);
      1500.00  Y  -59448.103+489.516214*T-72.3241219*T*LN(T)
       +0.018726245*T**2-1.952433E-06*T**3+11063885*T**(-1);
      2607.00  Y  -38588773+168610.517*T-21329.705*T*LN(T)
       +5.221639*T**2-2.40245985E-04*T**3+1.30829926E+10*T**(-1);
      2740.00  Y  -55768.304+364.482314*T-51.8816*T*LN(T);
      4500.00  N !
 FUNCTION GLIQRU    298.15  +27480.616-8.398748*T+GHSERRU;
       800.00  Y  +50827.232-179.818561*T+19.539341*T*LN(T)
       -0.026524167*T**2+1.667839E-06*T**3-3861125*T**(-1);
      2607.00  Y  -17161.807+349.673561*T-51.8816*T*LN(T);
      4500.00  N !
$ ------------------------------------------------------------------------------
$ Sm
$
$ HCP_A3 added in unary 4.4
$ HCP_A3 modified in unary 5.0
$
$ FCC_A1 from 00Du (used in SGSOL 5.0; this value is absurd)
$ not included in unary
$ FCC_A1 from 02Zin and 08Zho not included in unary
$ FCC_A1, CBCC_A12, CUB_A13 from 09Wan1 not included in unary
$
 PAR  G(RHOMB_C19,SM),,                 +GHSERSM;                2100 N 91Din !
 PAR  G(BCC_A2,SM:VA),,                 +GBCCSM;                 2100 N 91Din !
$PAR  G(FCC_A1,SM:VA),,                 +GHSERSM+180946;         2100 N 00Du1 !
$PAR  G(FCC_A1,SM:VA),,                 +GHSERSM+5000;           2100 N 98Su1 !
$PAR  G(FCC_A1,SM:VA),,                 +GHSERSM+890;            2100 N 08Zho !
$PAR  G(FCC_A1,SM:VA),,                 +GHSERSM+1000;           2100 N 09Wan1 !
 PAR  G(HCP_A3,SM:VA),,                 +GHSERSM
             +69.977-0.069491*T;                                 2100 N 98Su2 !
$PAR  G(CBCC_A12,SM:VA),,               +GHSERSM+1000;           2100 N 09Wan1 !
$PAR  G(CUB_A13,SM:VA),,                +GHSERSM+5000;           2100 N 09Wan1 !
 PAR  G(LIQUID,SM),,                    +GLIQSM;                 2100 N 91Din !
$
 FUNCTION GHSERSM   298.15  -3872.013-32.10748*T-1.6485*T*LN(T)
       -0.050254*T**2+1.010345E-05*T**3-82168*T**(-1);
       700.00  Y  -50078.215+627.869894*T-102.665*T*LN(T)
       +0.0474522*T**2-7.538383E-06*T**3+3861770*T**(-1);
      1190.00  Y  +289719.819-2744.50976*T+381.41982*T*LN(T)
       -0.254986338*T**2+2.7512152E-05*T**3-40102102*T**(-1);
      1345.00  Y  -23056.079+282.194375*T-50.208*T*LN(T);
      2100.00  N !
 FUNCTION GBCCSM    298.15  -4368.72+55.972523*T-16.9298494*T*LN(T)
       -0.025446016*T**2+3.579527E-06*T**3+94209*T**(-1);
      1190.00  Y  -15957.862+253.121044*T-46.9445*T*LN(T);
      1345.00  Y  +111191.653-624.680805*T+71.6856914*T*LN(T)
       -0.047314968*T**2+3.329865E-06*T**3-24870276*T**(-1);
      2100.00  N !
 FUNCTION GLIQSM    298.15  +3468.783+20.117456*T-11.6968284*T*LN(T)
       -0.032418177*T**2+4.544272E-06*T**3+23528*T**(-1);
      1190.00  Y  -11728.229+273.487076*T-50.208*T*LN(T);
      2100.00  N !
$ ------------------------------------------------------------------------------
$ Binary system
$
$ S. Kardellass, C. Corvalan-Moya, V.P. Vassiliev,
$ J. Phase Equilib. Diffus., 44, 300-23(2023).
$
$ Checked against paper. Checked at 6000 K.
$
$ The paper includes linear, exponential (Kaptay) and combined expressions for
$ the temperature dependence of the interaction parameters. This dataset
$ contains the exponential expressions, which seem the only reasonable.
$
$ The parameters for RuSm3 are correctly printed in Table 3, but not in the
$ parameter table (Table 5).
$
$ Invariant equilibria differ by up to 2 K.
$
 PAR  L(LIQUID,RU,SM;0),,               -123113.8*EXP(-4.2E-5*T);,,   N 23Kar !
 PAR  L(LIQUID,RU,SM;1),,               -6171.209*EXP(3.37E-4*T);,,   N 23Kar !
 PAR  L(LIQUID,RU,SM;2),,               +9614.009*EXP(2.9E-5*T);,,    N 23Kar !
$
 PAR  L(BCC_A2,RU,SM:VA;0),,            +UN_ASS;,,                    N !
 PAR  L(HCP_A3,RU,SM:VA;0),,            +UN_ASS;,,                    N !
$
 PAR  G(RU2SM_C15,RU:SM),,              +2*GHSERRU+GHSERSM
             -110106.117+1.656*T;,,                                   N 23Kar !
 PAR  G(RU25SM44,RU:SM),,               +25*GHSERRU+44*GHSERSM
             -1814077.62+7.59*T;,,                                    N 23Kar !
 PAR  G(RU2SM5,RU:SM),,                 +2*GHSERRU+5*GHSERSM
             -164308.62+0.0749*T;,,                                   N 23Kar !
 PAR  G(RUSM3_D011,RU:SM),,             +GHSERRU+3*GHSERSM
             -85223.8+0.24584*T;,,                                    N 23Kar !
$ ------------------------------------------------------------------------------
$
$
 LIST-OF-REFERENCE
 NUMBER  SOURCE
  Null   'Unknown source'
  Same   'Same or similar interaction as in the corresponding stable phase'
  REFLAV 'Laves phase convention: G(LAVES,X:X)=+3*GHSERXX+15000'
  91Din  'A.T. Dinsdale, Calphad, 15, 317-425(1991).'
  98Su1  'X. Su, W. Zhang, G. Liu, Z. Du,
          J. Alloys Compd., 267, 149-53(1998); Sm'
  98Su2  'X. Su, W. Zhang, Z. Du, J. Alloys Compd., 278, 182-84(1998)
          SGTE unary database V.4.4, 2001; Sm'
  01SGUN 'SGTE unary database V.4.4, 2001.'
  08Zho  'S.H. Zhou, R.E. Napolitano,
          Metall. Mater. Trans. A, 39A, 502-12(2008); Al, Sm'
  09Wan1 'C.P. Wang, H.L. Zhang, S.L. Wang, Z. Lin, X.J. Liu, A.T. Tang,
          F.S. Pan, J. Alloys Compd., 481, 291-95(2009); Ho, Mn, Sm'
  23Kar  'S. Kardellass, C. Corvalan-Moya, V.P. Vassiliev,
          J. Phase Equilib. Diffus., 44, 300-23(2023); Ru-Sm'
!
