$
$ Database for Cr-Ru from P.-Y. Chevalier and E. Fischer 2005
$ (included in LB Vol. 5)
$
$ P.-Y. Chevalier, E. Fischer, unpublished, 2005.
$
$ Dataset created 2015.05.17 by Bengt Hallstedt.
$ 2020.08.23: Modified for use with GES6.
$
$ ------------------------------------------------------------------------------
 TEMP-LIM 298.15 6000.00 !
$
$ELEMENT NAME  REF. STATE               ATOMIC MASS H298-H0    S298    !
$
 ELEMENT VA   VACUUM                      0.0          0.0      0.0    ! 
 ELEMENT CR   BCC_A2                     51.996     4050.0     23.5429 ! 
 ELEMENT RU   HCP_A3                    101.07      4602.4     28.6144 ! 
$ ------------------------------------------------------------------------------
$ Phase definitions
$
 PHASE LIQUID:L % 1 1 !
 CONST LIQUID:L : CR RU : !
$
$ Fcc (cF4, Fm-3m) and MeX (cF8, Fm-3m)
$
 PHASE FCC_A1 %A 2 1 1 !
 CONST FCC_A1 : CR RU : VA : !
$
$ Bcc (cI2, Im-3m)
$
 PHASE BCC_A2 %B 2 1 3 !
 CONST BCC_A2 : CR% RU : VA : !
$
$ Hcp (hP2, P6_3/mmc) and Me2X (NiAs-type, hP4, P6_3/mmc, B8_1)
$
 PHASE HCP_A3 %A 2 1 0.5 !
 CONST HCP_A3 : CR RU% : VA : !
$
$ Prototype Cr3Si (cP8, Pm-3n)
$
 PHASE CR3RU_A15 % 2 3 1 !
 CONST CR3RU_A15 : CR : RU : !
$
$ Prototype CrFe (tP30, P4_2/mnm) sigma
$
 PHASE CR2RU_D8B % 2 2 1 !
 CONST CR2RU_D8B : CR : RU : !
$ ------------------------------------------------------------------------------
$ Defaults
$
 DEFINE-SYSTEM-DEFAULT ELEMENT 2 !
 DEFAULT-COM DEFINE_SYSTEM_ELEMENT VA !
 TYPE-DEF % SEQ * !
 TYPE-DEF A GES AMEND_PHASE_DESCRIPTION @ MAGNETIC -3 0.28 !
 TYPE-DEF B GES AMEND_PHASE_DESCRIPTION @ MAGNETIC -1 0.4 !
 FUNCTION ZERO      298.15  0;                                         6000 N !
 FUNCTION UN_ASS    298.15  0;                                         6000 N !
 FUNCTION R         298.15  +8.31451;                                  6000 N !
$ ------------------------------------------------------------------------------
$ Element data
$ ------------------------------------------------------------------------------
$ Cr
$
 PAR  G(BCC_A2,CR:VA),,                 +GHSERCR;,,                   N 91Din !
 PAR  TC(BCC_A2,CR:VA),,                 -311.50;,,                   N 91Din !
 PAR  BM(BCC_A2,CR:VA),,                   -0.008;,,                  N 91Din !
 PAR  G(FCC_A1,CR:VA),,                 +GHSERCR+7284+0.163*T;,,      N 91Din !
 PAR  TC(FCC_A1,CR:VA),,                -1109.00;,,                   N 91Din !
 PAR  BM(FCC_A1,CR:VA),,                   -2.46;,,                   N 91Din !
 PAR  G(HCP_A3,CR:VA),,                 +GHSERCR+4438;,,              N 91Din !
 PAR  TC(HCP_A3,CR:VA),,                -1109.00;,,                   N 91Din !
 PAR  BM(HCP_A3,CR:VA),,                   -2.46;,,                   N 91Din !
$PAR  G(CUB_A13,CR:VA),,                +GHSERCR+15899+0.6276*T;,,    N 91Din !
$PAR  G(CBCC_A12,CR:VA),,               +GHSERCR+11087+2.7196*T;,,    N 91Din !
 PAR  G(LIQUID,CR),,                    +GLIQCR;,,                    N 91Din !
$
 FUNCTION GHSERCR   298.15  -8856.94+157.48*T-26.908*T*LN(T)
       +0.00189435*T**2-1.47721E-06*T**3+139250*T**(-1);
      2180.00  Y  -34869.344+344.18*T-50*T*LN(T)-2.88526E+32*T**(-9);
      6000.00  N !
 FUNCTION GLIQCR    298.15  +24339.955-11.420225*T+GHSERCR+2.37615E-21*T**7;
      2180.00  Y  -16459.984+335.616316*T-50*T*LN(T);
      6000.00  N !
 FUNCTION GFCCCR    298.15  +GHSERCR+7284+0.163*T;                     6000 N !
$ ------------------------------------------------------------------------------
$ Ru
$
$ BCC_A2 revised in unary 4.4
$
 PAR  G(HCP_A3,RU:VA),,                 +GHSERRU;                4500 N 91Din !
 PAR  G(FCC_A1,RU:VA),,                 +GHSERRU+12500-2.4*T;    4500 N 91Din !
 PAR  G(BCC_A2,RU:VA),,                 +GHSERRU+21500-5.05*T;   4500 N 01SGUN !
$PAR  G(BCC_A2,RU:VA),,                 +GHSERRU+26500-6.2*T;    4500 N 91Din !
 PAR  G(LIQUID,RU),,                    +GLIQRU;                 4500 N 91Din !
$
 FUNCTION GHSERRU   298.15  -7561.873+127.866233*T-22.9143287*T*LN(T)
       -0.004062566*T**2+1.7641E-07*T**3+56377*T**(-1);
      1500.00  Y  -59448.103+489.516214*T-72.3241219*T*LN(T)
       +0.018726245*T**2-1.952433E-06*T**3+11063885*T**(-1);
      2607.00  Y  -38588773+168610.517*T-21329.705*T*LN(T)
       +5.221639*T**2-2.40245985E-04*T**3+1.30829926E+10*T**(-1);
      2740.00  Y  -55768.304+364.482314*T-51.8816*T*LN(T);
      4500.00  N !
 FUNCTION GLIQRU    298.15  +27480.616-8.398748*T+GHSERRU;
       800.00  Y  +50827.232-179.818561*T+19.539341*T*LN(T)
       -0.026524167*T**2+1.667839E-06*T**3-3861125*T**(-1);
      2607.00  Y  -17161.807+349.673561*T-51.8816*T*LN(T);
      4500.00  N !
$ ------------------------------------------------------------------------------
$ Binary system
$
$ From from P.-Y. Chevalier and E. Fischer 2005 (included in LB Vol. 5)
$
$ P.-Y. Chevalier, E. Fischer, unpublished, 2005.
$
$ Checked against LB. Checked at 6000 K.
$
 PAR  L(LIQUID,CR,RU;0),,               -48523.75;,,                  N 05Che !
 PAR  L(LIQUID,CR,RU;1),,               +17570.72;,,                  N 05Che !
$
 PAR  L(BCC_A2,CR,RU:VA;0),,            -42612.05;,,                  N 05Che !
 PAR  L(BCC_A2,CR,RU:VA;1),,            +17577.32;,,                  N 05Che !
$
 PAR  L(HCP_A3,CR,RU:VA;0),,            -35575.08;,,                  N 05Che !
 PAR  L(HCP_A3,CR,RU:VA;1),,            +36456.12;,,                  N 05Che !
$
 PAR  G(CR3RU_A15,CR:RU),,              +3*GHSERCR+GHSERRU
             -6445.52-21.82416*T;,,                                   N 05Che !
 PAR  G(CR2RU_D8B,CR:RU),,              +2*GHSERCR+GHSERRU
             -8418.3-18.01707*T;,,                                    N 05Che !
$
$ Metastable
$
 PAR  L(FCC_A1,CR,RU:VA;0),,            -35575.08;,,                  N Same !
 PAR  L(FCC_A1,CR,RU:VA;1),,            +36456.12;,,                  N Same !
$ ------------------------------------------------------------------------------
$
 ASSESSED_SYSTEM
  CR-RU(TDB -* +LIQUID +BCC_A2 +HCP_A3 +CR2RU_D8B +CR3RU_A15 ;P3 *) !
$
$
 LIST-OF-REFERENCE
 NUMBER  SOURCE
  Null   'Unknown source'
  Same   'Same or similar interaction as in the corresponding stable phase'
  COST   'COST 507 database'
  91Din  'A.T. Dinsdale, Calphad, 15, 317-425(1991).'
  01SGUN 'SGTE unary database V.4.4, 2001.'
  05Che  'P.-Y. Chevalier, E. Fischer, unpublished, 2005; Cr-Ru'
!
