$
$ Database for Mo-S from C. Cui et al. 2018.
$
$ S. Cui, B. Hu, B. Ouyang, D. Zhao, Thermochim. Acta, 660, 44-55(2018).
$
$ Dataset created 2018.12.09 by Bengt Hallstedt.
$ 2021.01.31: Modified for use with GES6.
$
$ The modelling of the liquid seems questionable.
$
$ ------------------------------------------------------------------------------
 TEMP-LIM 298.15 6000.00 !
$
$ELEMENT NAME  REF. STATE               ATOMIC MASS H298-H0    S298    !
$
 ELEMENT VA   VACUUM                      0.0          0.0      0.0    ! 
 ELEMENT MO   BCC_A2                     95.94      4589.0     28.56   ! 
 ELEMENT S    ORTHORHOMBIC_A16           32.06      4412.0     32.07   ! 
$ ------------------------------------------------------------------------------
$ Species
$
 SPECIE  MO2                                MO2 !
 SPECIE  MOS                                MO1S1 !
 SPECIE  MOS2                               MO1S2 !
 SPECIE  S2                                 S2 !
 SPECIE  S3                                 S3 !
 SPECIE  S4                                 S4 !
 SPECIE  S5                                 S5 !
 SPECIE  S6                                 S6 !
 SPECIE  S7                                 S7 !
 SPECIE  S8                                 S8 !
$ ------------------------------------------------------------------------------
$ Phase definitions
$
 PHASE LIQUID:L % 1 1 !
 CONST LIQUID:L : MO S : !
$
$ Fcc (cF4, Fm-3m) and MeX (cF8, Fm-3m)
$
 PHASE FCC_A1 %A 2 1 1 !
 CONST FCC_A1 : MO : VA : !
$
$ Bcc (cI2, Im-3m)
$
 PHASE BCC_A2 %B 2 1 3 !
 CONST BCC_A2 : MO% S : VA : !
$
$ Hcp (hP2, P6_3/mmc) and Me2X (NiAs-type, hP4, P6_3/mmc, B8_1)
$
 PHASE HCP_A3 %A 2 1 0.5 !
 CONST HCP_A3 : MO : VA : !
$
$ Prototype alpha-S (oF128, Fddd)
$
 PHASE ORTHORHOMBIC_A16 % 1 1 !
 CONST ORTHORHOMBIC_A16 : S : !
$
$ Prototype beta-S (mP48, P2_1/a)
$
 PHASE MONOCLINIC_S % 1 1 !
 CONST MONOCLINIC_S : S : !
$
$ Prototype Mo2S3 (mP10, P2_1/m, 11)
$
 PHASE MO2S3_LT % 2 2 3 !
 CONST MO2S3_LT : MO : S : !
$
$ unknown structure
$
 PHASE MO2S3_HT % 2 2 3 !
 CONST MO2S3_HT : MO : S : !
$
$ Prototype MoS2 (hP6, P6_3/mmc, 194)
$
 PHASE MOS2_C7 % 2 1 2 !
 CONST MOS2_C7 : MO% S : MO S% : !
$
 PHASE GAS:G % 1 1 !
 CONST GAS:G : MO MO2 MOS MOS2 S S2 S3 S4 S5 S6 S7 S8 : !
$ ------------------------------------------------------------------------------
$ Defaults
$
 DEFINE-SYSTEM-DEFAULT ELEMENT 2 !
 DEFAULT-COM DEFINE_SYSTEM_ELEMENT VA !
 TYPE-DEF % SEQ * !
 TYPE-DEF A GES AMEND_PHASE_DESCRIPTION @ MAGNETIC -3 0.28 !
 TYPE-DEF B GES AMEND_PHASE_DESCRIPTION @ MAGNETIC -1 0.4 !
 FUNCTION ZERO      298.15  0;                                         6000 N !
 FUNCTION UN_ASS    298.15  0;                                         6000 N !
 FUNCTION R         298.15  +8.31451;                                  6000 N !
 FUNCTION RTLNP     298.15  +8.31451*T*LN(1E-05*P);                    6000 N !
$ ------------------------------------------------------------------------------
$ Element data
$ ------------------------------------------------------------------------------
$ Mo
$
 PAR  G(BCC_A2,MO:VA),,                 +GHSERMO;                5000 N 91Din !
 PAR  G(FCC_A1,MO:VA),,                 +GHSERMO+15200+0.63*T;   5000 N 91Din !
 PAR  G(HCP_A3,MO:VA),,                 +GHSERMO+11550;          5000 N 91Din !
 PAR  G(LIQUID,MO),,                    +GLIQMO;                 5000 N 91Din !
$
 PAR  G(MOS2_C7,MO:MO),,                +3*GHSERMO+74000-8*T;,,       N 18Cui !
$
 PAR  G(GAS,MO),,                       +F12831T+RTLNP;,,             N 97SUB !
 PAR  G(GAS,MO2),,                      +F12904T+RTLNP;,,             N 97SUB !
$
 FUNCTION GHSERMO   298.15  -7746.302+131.9197*T-23.56414*T*LN(T)
       -0.003443396*T**2+5.66283E-07*T**3+65812*T**(-1)-1.30927E-10*T**4;
      2896.00  Y  -30556.41+283.559746*T-42.63829*T*LN(T)-4.849315E+33*T**(-9);
      5000.00  N !
 FUNCTION GLIQMO    298.15  +41831.347-14.694912*T+GHSERMO+4.24519E-22*T**7;
      2896.00  Y  +3538.963+271.6697*T-42.63829*T*LN(T);
      5000.00  N !
 FUNCTION GFCCMO    298.15  +GHSERMO+15200+0.63*T;                     6000 N !
$ Mo(g)
 FUNCTION F12831T   298.15  +651326.983-41.0946081*T-21.0437*T*LN(T)
       +0.00027252545*T**2-4.77857833E-08*T**3+5594.93*T**(-1);
      1600.00  Y  +633752.125+83.3186552*T-37.98605*T*LN(T)
       +0.007623775*T**2-6.52545667E-07*T**3+3471277.5*T**(-1);
      3500.00  Y  +1134689.66-1617.69443*T+169.6658*T*LN(T)
       -0.03080567*T**2+6.87557667E-07*T**3-224033800*T**(-1);
      5000.00  Y  +1008188.16-1437.30781*T+150.7395*T*LN(T)
       -0.03086233*T**2+7.54569333E-07*T**3-106017750*T**(-1);
      6200.00  Y  -929123.768+2587.60477*T-309.2377*T*LN(T)
       +0.017761425*T**2-2.10949167E-07*T**3+1426406000*T**(-1);
     10000.00  N !
$ Mo2(g)
 FUNCTION F12904T   298.15  +892320.138+5.95304372*T-37.156*T*LN(T)
       +3.61E-05*T**2-1.10858333E-07*T**3+113615*T**(-1);
      1000.00  Y  +878307.025+162.383892*T-60.077*T*LN(T)
       +0.0165846*T**2-2.3378E-06*T**3+1706980*T**(-1);
      1800.00  Y  +1105100.83-1223.34666*T+124.219*T*LN(T)
       -0.05020415*T**2+2.21706167E-06*T**3-50788800*T**(-1);
      3100.00  Y  +641365.422+619.744903*T-105.798*T*LN(T)
       +0.00065385*T**2+1.02916667E-07*T**3+125079000*T**(-1);
      6000.00  N !
$ ------------------------------------------------------------------------------
$ S
$
$ FCC_A1 and BCC_A2 revised in unary 3.0
$ ORTHORHOMBIC_A16 and LIQUID modified in unary 4.1
$ MONOCLINIC revised in unary 4.1
$ ORTHORHOMBIC_A16 and LIQUID revised in unary 4.4
$
 PAR  G(ORTHORHOMBIC_A16,S),,           +GHSERSS;                1300 N 01SGUN !
 PAR  G(MONOCLINIC,S),,                 +GMONSS;                 1300 N 01SGUN !
$PAR  G(FCC_A1,S:VA),,                  +GHSERSS+105000;         1300 N Sundm !
$PAR  G(FCC_A1,S:VA),,                  +GHSERSS+30000+32*T;     1300 N 91Din !
 PAR  G(BCC_A2,S:VA),,                  +GHSERSS+105000;         1300 N Sundm !
$PAR  G(BCC_A2,S:VA),,                  +GHSERSS+31000+32*T;     1300 N 91Din !
 PAR  G(LIQUID,S),,                     +GLIQSS;                 1300 N 01SGUN !
$
 PAR  G(MOS2_C7,S:S),,                  +3*GHSERSS+55000-30*T;,,      N 18Cui !
$
 PAR  G(GAS,S),,                        +F14852T+RTLNP;,,             N 97SUB !
 PAR  G(GAS,S2),,                       +F14964T+RTLNP;,,             N 97SUB !
 PAR  G(GAS,S3),,                       +F15022T+RTLNP;,,             N 97SUB !
 PAR  G(GAS,S4),,                       +F15041T+RTLNP;,,             N 97SUB !
 PAR  G(GAS,S5),,                       +F15047T+RTLNP;,,             N 97SUB !
 PAR  G(GAS,S6),,                       +F15052T+RTLNP;,,             N 97SUB !
 PAR  G(GAS,S7),,                       +F15057T+RTLNP;,,             N 97SUB !
 PAR  G(GAS,S8),,                       +F15061T+RTLNP;,,             N 97SUB !
$
 FUNCTION GHSERSS   298.15  -5198.294+53.913855*T-10.726*T*LN(T)
       -0.0273801*T**2+8.179537E-6*T**3; 
       368.30  Y  -6475.706+94.182332*T-17.8693298*T*LN(T)
       -0.010936877*T**2+1.406467E-6*T**3+36871*T**(-1); 
      1300.00  Y  -12485.546+188.304687*T-32*T*LN(T); 
      1301.00  N !
 FUNCTION GMONSS    298.15  -5725.422+89.544275*T-17.413*T*LN(T)
       -0.00993935*T**2-0.070062E-6*T**3+1250*T**(-1); 
       388.36  Y  -7455.008+114.782945*T-21.1531404*T*LN(T)
       -0.008566163*T**2+1.112484E-6*T**3+122167*T**(-1); 
      1300.00  Y  -11779.415+186.699065*T-32*T*LN(T); 
      1301.00  N !
 FUNCTION GLIQSS    298.15  -4196.575+85.63027*T-17.413*T*LN(T)
       -0.00993935*T**2-0.070062E-6*T**3+1250*T**(-1); 
       335.00  Y  1790361.982-44195.451432*T+7511.6194258*T*LN(T)
       -13.985517511*T**2+4838.738601E-6*T**3-79880891*T**(-1); 
       388.36  Y  -876313.954+23366.872986*T-4028.756*T*LN(T)
       +7.954595*T**2-2908.513333E-6*T**3+33980035*T**(-1); 
       432.25  Y  454088.687-7814.670231*T+1237.001*T*LN(T)
       -1.5607295*T**2+359.883667E-6*T**3-31765395*T**(-1); 
       500.00  Y  18554.561-144.895285*T+16.535*T*LN(T)
       -0.0454119*T**2+8.327402E-6*T**3-2705030*T**(-1); 
       700.00  Y  21243.126-113.298877*T+9.944*T*LN(T)
       -0.0288384*T**2+3.791365E-6*T**3-3507570*T**(-1); 
       900.00  Y  16117.849-32.79523*T-2.425*T*LN(T)
       -0.01712545*T**2+1.84974E-6*T**3-3215170*T**(-1); 
      1300.00  Y  -6461.814+175.590536*T-32*T*LN(T); 
      1301.00  N !
$ S(g)
 FUNCTION F14852T   298.15  +269797.373+2.2810296*T-25.70471*T*LN(T)
       +0.003751372*T**2-5.48887167E-07*T**3+3450.3165*T**(-1);
      1000.00  Y  +273925.002-38.4958652*T-19.81748*T*LN(T)
       -2.300353E-04*T**2-1.18709967E-08*T**3-570436.5*T**(-1);
      3400.00  Y  +257401.532-.943966729*T-24.05931*T*LN(T)
       -5.98546E-07*T**2+2.02961167E-09*T**3+9368165*T**(-1);
     10000.00  N !
$ S2(g)
 FUNCTION F14964T   298.15  +117374.548+2.98629624*T-34.09678*T*LN(T)
       -0.002325464*T**2+1.85480167E-07*T**3+128593.6*T**(-1);
      1000.00  Y  +117352.438+2.50383325*T-34.04744*T*LN(T)
       -0.0021150245*T**2+9.16602333E-08*T**3+175718.45*T**(-1);
      3400.00  Y  +124361.091+14.5182901*T-36.1923*T*LN(T)
       -5.930925E-04*T**2-7.54259333E-09*T**3-7484105*T**(-1);
      6000.00  N !
$ S3(g)
 FUNCTION F15022T   298.15  +126744.315+83.8435689*T-52.94561*T*LN(T)
       -0.0043385055*T**2+6.68300333E-07*T**3+276938.3*T**(-1);
      1000.00  Y  +123958.871+118.720436*T-58.16242*T*LN(T)
       -7.29079E-06*T**2+2.42566833E-10*T**3+558805*T**(-1);
      6000.00  N !
$ S4(g)
 FUNCTION F15041T   298.15  +109847.438+203.904963*T-72.67966*T*LN(T)
       -0.009041155*T**2+1.47148883E-06*T**3+505278*T**(-1);
       900.00  Y  +104526.08+272.793563*T-83.05028*T*LN(T)
       -1.828101E-05*T**2+6.19803333E-10*T**3+1023588.5*T**(-1);
      6000.00  N !
$ S5(g)
 FUNCTION F15047T   298.15  +106276.072+170.263399*T-74.99022*T*LN(T)
       -0.035336475*T**2+5.76872833E-06*T**3+227070.6*T**(-1);
       900.00  Y  +75139.8847+544.891054*T-130.537*T*LN(T)
       +0.007879015*T**2-4.32610333E-07*T**3+3425257*T**(-1);
      2800.00  Y  +114904.753+339.945759*T-103.9801*T*LN(T)
       +2.25877E-05*T**2-7.925025E-10*T**3-7832715*T**(-1);
      6000.00  N !
$ S6(g)
 FUNCTION F15052T   298.15  +57214.7948+523.24074*T-130.1838*T*LN(T)
       -4.152356E-04*T**2-4.27131667E-07*T**3+779118.5*T**(-1);
      1600.00  Y  +8925.72335+728.509037*T-155.3363*T*LN(T)
       +0.002031178*T**2-1.776135E-08*T**3+14908280*T**(-1);
      4200.00  Y  +43158.7838+657.511854*T-147.3935*T*LN(T)
       +0.0015928905*T**2-3.34608333E-08*T**3-8046775*T**(-1);
      6000.00  N !
$ S7(g)
 FUNCTION F15057T   298.15  +59623.0027+634.182529*T-153.2939*T*LN(T)
       -0.003102847*T**2+3.66153167E-07*T**3+940068*T**(-1);
      1500.00  Y  +56671.3245+666.288106*T-157.9591*T*LN(T)
       -2.441417E-06*T**2+7.28532E-11*T**3+1284129.5*T**(-1);
      6000.00  N !
$ S8(g)
 FUNCTION F15061T   298.15  +45619.0277+695.996674*T-166.1987*T*LN(T)
       -0.0109886*T**2-1.38875683E-06*T**3+753634*T**(-1);
       800.00  Y  +22301.584+822.41812*T-181.0091*T*LN(T)
       -0.020252625*T**2+3.04543E-06*T**3+4785936*T**(-1);
      1500.00  Y  +28125.3352+992.470207*T-208.7199*T*LN(T)
       +0.006139635*T**2-2.57977667E-07*T**3-2943090*T**(-1);
      3900.00  Y  +82396.4096+766.112131*T-180.3439*T*LN(T)
       -2.580219E-04*T**2+5.17172833E-09*T**3-21845450*T**(-1);
      6000.00  N !
$ ------------------------------------------------------------------------------
$ Binary system
$
$ S. Cui, B. Hu, B. Ouyang, D. Zhao, Thermochim. Acta, 660, 44-55(2018).
$
$ Checked against paper and author's tdb.
$
$ The modelling of the liquid seems questionable.
$
 PAR  L(LIQUID,MO,S;0),,                -166033.05+2.11*T;,,          N 18Cui !
 PAR  L(LIQUID,MO,S;1),,                +38149.91+40*T;,,             N 18Cui !
 PAR  L(LIQUID,MO,S;2),,                +43472.76-30.73*T;,,          N 18Cui !
$
 PAR  L(BCC_A2,MO,S:VA;0),,             -225000+32.5*T;,,             N 18Cui !
$
 PAR  G(MO2S3_LT,MO:S),,                +GMO2S3;,,                    N 18Cui !
 PAR  G(MO2S3_HT,MO:S),,                +GMO2S3+1833-T;,,             N 18Cui !
$
 PAR  G(MOS2_C7,MO:S),,                 +GMOS2;,,                     N 18Cui !
 PAR  G(MOS2_C7,S:MO),,                 +3*GHSERMO+3*GHSERSS
             +129000-38*T-GMOS2;,,                                    N 18Cui !
 PAR  L(MOS2_C7,MO,S:S;0),,             -43000;,,                     N 18Cui !
 PAR  L(MOS2_C7,MO:MO,S;0),,            -28000;,,                     N 18Cui !
 PAR  L(MOS2_C7,MO:MO,S;1),,            -22000;,,                     N 18Cui !
$
 PAR  G(GAS,MOS),,                      +F12890T+RTLNP;,,             N 97SUB !
 PAR  G(GAS,MOS2),,                     +F12896T+RTLNP;,,             N 97SUB !
$
 FUNCTION GMO2S3    298.15  -439761.4+714.875*T-124.08373*T*LN(T)
       -7.1208711E-04*T**2-1.46894988E-06*T**3+820846.46*T**(-1);   
      6000.00  N !
 FUNCTION GMOS2     298.15  -300558.04+437.796499*T-73.785239*T*LN(T)
       -6.28908896E-04*T**2-8.24179085E-07*T**3+500962.593*T**(-1);   
      6000.00  N !
$ MoS(g)
 FUNCTION F12890T   298.15  +521284.936+.391854028*T-38.62059*T*LN(T)
       +9.007175E-04*T**2-2.02884167E-07*T**3-14959.81*T**(-1);
      2400.00  Y  +556649.563-167.412915*T-17.08367*T*LN(T)
       -0.00514006*T**2+1.26005117E-07*T**3-11268280*T**(-1);
      6000.00  N !
$ MoS2(g)
 FUNCTION F12896T   298.15  +335859.121+71.6984824*T-54.17406*T*LN(T)
       -0.002770827*T**2+2.81911333E-07*T**3+305830.1*T**(-1);
      1100.00  Y  +341897.301+39.1904951*T-50.10202*T*LN(T)
       -0.0029230315*T**2+5.94795167E-08*T**3-978539*T**(-1);
      3300.00  Y  +295877.136+160.587295*T-64.23045*T*LN(T)
       -0.001498448*T**2+6.18884E-08*T**3+23908735*T**(-1);
      6000.00  N !
$ ------------------------------------------------------------------------------
$
$
 LIST-OF-REFERENCE
 NUMBER  SOURCE
  Null   'Unknown source'
  Sundm  'Bosse Sundman, unpublished, SGTE unary database V.3.0, 1996; S'
  91Din  'A.T. Dinsdale, Calphad, 15, 317-425(1991).'
  97SUB  'SGTE Substance Database, version 1997'
  01SGUN 'SGTE unary database V.4.4, 2001.'
  18Cui  'S. Cui, B. Hu, B. Ouyang, D. Zhao,
          Thermochim. Acta, 660, 44-55(2018); Mo-S'
!
