$
$ Database for Fe-Pt from P. Fredriksson and B. Sundman 2001
$ (included in LB Vol. 3)
$
$ P. Fredriksson, B. Sundman, Calphad, 25, 535-48(2001).
$
$ Dataset created 2015.06.07 by Bengt Hallstedt.
$ 2021.01.02: Modified for use with GES6.
$
$ The fcc parameters (both FCC_A1 and FCC_4SL) in LB are different from those
$ in the original paper. This dataset contains the parameters from the paper.
$ There are some differences in the phase diagram, but they are rather limited.
$ None of the parameter sets quite reproduces the phase diagram in the paper.
$
$ The global minimisation in Thermo-Calc found additional ordered states
$ between the L1_2 and L1_0 phases. These only affect equilibria below the
$ previous invariant reactions.
$
$ There is an inverse miscibility gap with a minimum at 3791 K and x(Pt)=0.24.
$
$ ------------------------------------------------------------------------------
 TEMP-LIM 298.15 6000.00 !
$
$ELEMENT NAME  REF. STATE               ATOMIC MASS H298-H0    S298    !
$
 ELEMENT VA   VACUUM                      0.0          0.0      0.0    ! 
 ELEMENT FE   BCC_A2                     55.847     4489.0     27.2797 ! 
 ELEMENT PT   FCC_A1                    195.08      5723.712   41.6308 !
$ ------------------------------------------------------------------------------
$ Phase definitions
$
 PHASE LIQUID:L % 1 1 !
 CONST LIQUID:L : FE PT : !
$
$ Fcc (cF4, Fm-3m) and MeX (cF8, Fm-3m)
$
 PHASE FCC_A1 %A 2 1 1 !
 CONST FCC_A1 : FE PT : VA : !
$
$ Disordered part of L102_FCC, identical to FCC_A1
$
 PHASE A1_FCC %A 2 1 1 !
 CONST A1_FCC : FE PT : VA : !
$
$ Prototype AuCu3 (cP4, Pm-3m, L1_2) and AuCu (tP4, P4/mmm, L1_0)
$
 PHASE FCC_4SL:F %AY 5 0.25 0.25 0.25 0.25 1 !
 CONST FCC_4SL:F : FE PT : FE PT : FE PT : FE PT : VA :  !
$
$ Bcc (cI2, Im-3m)
$
 PHASE BCC_A2 %B 2 1 3 !
 CONST BCC_A2 : FE% PT : VA : !
$
$ Hcp (hP2, P6_3/mmc) and Me2X (NiAs-type, hP4, P6_3/mmc, B8_1)
$
 PHASE HCP_A3 %A 2 1 0.5 !
 CONST HCP_A3 : FE PT : VA : !
$ ------------------------------------------------------------------------------
$ Defaults
$
 DEFINE-SYSTEM-DEFAULT ELEMENT 2 !
 DEFAULT-COM DEFINE_SYSTEM_ELEMENT VA !
 DEFAULT-COM REJECT_PHASE FCC_A1 !
 TYPE-DEF % SEQ * !
 TYPE-DEF A GES AMEND_PHASE_DESCRIPTION @ MAGNETIC -3 0.28 !
 TYPE-DEF B GES AMEND_PHASE_DESCRIPTION @ MAGNETIC -1 0.4 !
 TYPE-DEF Y GES AMEND_PHASE_DESCRIPTION FCC_4SL DIS_PART A1_FCC !
 FUNCTION ZERO      298.15  0;                                         6000 N !
 FUNCTION UN_ASS    298.15  0;                                         6000 N !
 FUNCTION R         298.15  +8.31451;                                  6000 N !
$ ------------------------------------------------------------------------------
$ Element data
$ ------------------------------------------------------------------------------
$ Fe
$
$ ORTHORHOMBIC_A20 and TETRAGONAL_U added im unary 4.1
$
 PAR  G(BCC_A2,FE:VA),,                 +GHSERFE;,,                   N 91Din !
 PAR  TC(BCC_A2,FE:VA),,                 1043.00;,,                   N 91Din !
 PAR  BM(BCC_A2,FE:VA),,                    2.22;,,                   N 91Din !
 PAR  G(FCC_A1,FE:VA),,                 +GFCCFE;,,                    N 91Din !
 PAR  TC(FCC_A1,FE:VA),,                 -201.00;,,                   N 91Din !
 PAR  BM(FCC_A1,FE:VA),,                   -2.10;,,                   N 91Din !
 PAR  G(A1_FCC,FE:VA),,                 +GFCCFE;,,                    N 91Din !
 PAR  TC(A1_FCC,FE:VA),,                 -201.00;,,                   N 91Din !
 PAR  BM(A1_FCC,FE:VA),,                   -2.10;,,                   N 91Din !
 PAR  G(HCP_A3,FE:VA),,                 +GHCPFE;,,                    N 91Din !
$PAR  G(CBCC_A12,FE:VA),,               +GHSERFE+4745;,,              N 91Din !
$PAR  G(CUB_A13,FE:VA),,                +GHSERFE+3745;,,              N 91Din !
$PAR  G(ORTHORHOMBIC_A20,FE),,          +GHSERFE+5000;,,              N 99SGUN !
$PAR  G(TETRAGONAL_U,FE),,              +GHSERFE+5000;,,              N 99SGUN !
 PAR  G(LIQUID,FE),,                    +GLIQFE;,,                    N 91Din !
$
 FUNCTION GHSERFE   298.15  +1225.7+124.134*T-23.5143*T*LN(T)
       -0.00439752*T**2-5.8927E-08*T**3+77359*T**(-1);
      1811.00  Y  -25383.581+299.31255*T-46*T*LN(T)+2.29603E+31*T**(-9);
      6000.00  N !
 FUNCTION GFCCFE    298.15  -1462.4+8.282*T-1.15*T*LN(T)
       +6.4E-04*T**2+GHSERFE;
      1811.00  Y  -1713.815+0.940009*T+GHSERFE+4.9251E+30*T**(-9);
      6000.00  N !
 FUNCTION GHCPFE    298.15  -3705.78+12.591*T-1.15*T*LN(T)
       +6.4E-04*T**2+GHSERFE;
      1811.00  Y  -3957.195+5.249009*T+GHSERFE+4.9251E+30*T**(-9);
      6000.00  N !
 FUNCTION GLIQFE    298.15  +12040.17-6.55843*T+GHSERFE-3.67516E-21*T**7;
      1811.00  Y  -10838.83+291.302*T-46*T*LN(T);
      6000.00  N !
$ ------------------------------------------------------------------------------
$ Pt
$
 PAR  G(FCC_A1,PT:VA),,                 +GHSERPT;                4000 N 91Din !
 PAR  G(A1_FCC,PT:VA),,                 +GHSERPT;                4000 N 91Din !
 PAR  G(BCC_A2,PT:VA),,                 +GHSERPT+15000-2.4*T;    4000 N 91Din !
 PAR  G(HCP_A3,PT:VA),,                 +GHSERPT+2500+0.1*T;     4000 N 91Din !
 PAR  G(LIQUID,PT),,                    +GLIQPT;                 4000 N 91Din !
$
 FUNCTION GHSERPT   298.15  -7595.631+124.388275*T-24.5526*T*LN(T)
       -0.00248297*T**2-2.0138E-08*T**3+7974*T**(-1);
      1300.00  Y  -9253.174+161.529615*T-30.2527*T*LN(T)
       +0.002321665*T**2-6.56946E-07*T**3-272106*T**(-1);
      2041.50  Y  -222048.216+1019.35892*T-136.192996*T*LN(T)
       +0.020454938*T**2-7.59259E-07*T**3+71539020*T**(-1);
      4000.00  N !
 FUNCTION GLIQPT    298.15  +20114.016-9.275183*T+GHSERPT;
       600.00  Y  +19023.491+32.94182*T-12.3403769*T*LN(T)
       -0.011551507*T**2+9.31516E-07*T**3-601426*T**(-1);
      2041.50  Y  +1404.468+205.858962*T-36.5*T*LN(T);
      4000.00  N !
 FUNCTION GBCCPT    298.15  +GHSERPT+15000-2.4*T;                      6000 N !
$ ------------------------------------------------------------------------------
$ Binary system
$
$ From P. Fredriksson and B. Sundman 2001 (included in LB Vol. 3)
$
$ P. Fredriksson, B. Sundman, Calphad, 25, 535-48(2001).
$
$ Checked against LB and paper. Checked at 6000 K.
$
$ The fcc parameters (both FCC_A1 and FCC_4SL) in LB are different from those
$ in the original paper. This dataset contains the parameters from the paper.
$ There are some differences in the phase diagram, but they are rather limited.
$ None of the parameter sets quite reproduces the phase diagram in the paper.
$
$ The global minimisation in Thermo-Calc found additional ordered states
$ between the L1_2 and L1_0 phases. These only affect equilibria below the
$ previous invariant reactions.
$
$ There is an inverse miscibility gap with a minimum at 3791 K and x(Pt)=0.24.
$
 PAR  L(LIQUID,FE,PT;0),,               -238000+72*T;,,               N 01Fre !
 PAR  L(LIQUID,FE,PT;1),,               +31000;,,                     N 01Fre !
 PAR  L(LIQUID,FE,PT;2),,               +5000;,,                      N 01Fre !
$
 PAR  L(FCC_A1,FE,PT:VA;0),,            -261000+87.8*T;,,             N 01Fre !
 PAR  L(FCC_A1,FE,PT:VA;1),,            +25000;,,                     N 01Fre !
 PAR  L(FCC_A1,FE,PT:VA;2),,            +50000-22.8*T;,,              N 01Fre !
$
 PAR  L(A1_FCC,FE,PT:VA;0),,            -261000+87.8*T;,,             N 01Fre !
 PAR  L(A1_FCC,FE,PT:VA;1),,            +25000;,,                     N 01Fre !
 PAR  L(A1_FCC,FE,PT:VA;2),,            +50000-22.8*T;,,              N 01Fre !
$
 PAR  G(FCC_4SL,FE:FE:FE:PT:VA),,       +GFFE3PT;,,                   N 01Fre !
 PAR  G(FCC_4SL,FE:FE:PT:PT:VA),,       +GFFE2PT2;,,                  N 01Fre !
 PAR  G(FCC_4SL,FE:PT:PT:PT:VA),,       +GFFEPT3;,,                   N 01Fre !
 PAR  L(FCC_4SL,FE,PT:FE,PT:*:*:VA),,   +SFFEPT;,,                    N 01Fre !
$
 PAR  L(BCC_A2,FE,PT:VA;0),,            -246000+71*T;,,               N 01Fre !
 PAR  L(BCC_A2,FE,PT:VA;1),,            +44000;,,                     N 01Fre !
$
$ metastable
$
 PAR  L(HCP_A3,FE,PT:VA;0),,            -261000+87.8*T;,,             N Same !
 PAR  L(HCP_A3,FE,PT:VA;1),,            +25000;,,                     N Same !
 PAR  L(HCP_A3,FE,PT:VA;2),,            +50000-22.8*T;,,              N Same !
$
 FUNCTION GFFE3PT   298.15  -35000+1.8*T;                              6000 N !
 FUNCTION GFFE2PT2  298.15  -51000+2.4*T;                              6000 N !
 FUNCTION GFFEPT3   298.15  -38000+1.8*T;                              6000 N !
 FUNCTION SFFEPT    298.15  -13000+1.9*T;                              6000 N !
$ ------------------------------------------------------------------------------
$
 ASSESSED_SYSTEM
  FE-PT(TDB -* +LIQUID +A1_FCC +FCC_4SL +BCC_A2
  ;G5 C_S:FCC_4SL/FE:FE:FE:PT:VA C_S:FCC_4SL/FE:FE:PT:PT:VA
  C_S:FCC_4SL/FE:PT:PT:PT:VA ;P3 TMM:300/2300 
  STP:0.35/873/1 STP:0.5/1700/2 STP:.98/2200/-2 STP:.01/2000/-2) !
$
$
 LIST-OF-REFERENCE
 NUMBER  SOURCE
  Null   'Unknown source'
  Same   'Same or similar interaction as in the corresponding stable phase'
  REFLAV 'Laves phase convention: G(LAVES,X:X)=+3*GHSERXX+15000'
  91Din  'A.T. Dinsdale, Calphad, 15, 317-425(1991).'
  99SGUN 'SGTE unary database V.4.1, 1999.'
  01Fre  'P. Fredriksson, B. Sundman, Calphad, 25, 535-48(2001); Fe-Pt'
!
