$
$ Database for Sn-Y from D. Lu et al. 2014.
$
$ D. Lu, C. Guo, C. Li, Z. Du, J. Rare Earths, 32, 648-54(2014).
$
$ Dataset created 2024.06.26 by Bengt Hallstedt.
$
$ Sn3Y is L1_2 at high pressure.
$
$ ------------------------------------------------------------------------------
 TEMP-LIM 298.15 6000.00 !
$
$ELEMENT NAME  REF. STATE               ATOMIC MASS H298-H0    S298    !
$
 ELEMENT VA   VACUUM                      0.0          0.0      0.0    ! 
 ELEMENT SN   BCT_A5                    118.69      6323.      51.18   ! 
 ELEMENT Y    HCP_A3                     88.9059    5983.457   44.7875 ! 
$ ------------------------------------------------------------------------------
$ Phase definitions
$
 PHASE LIQUID:L % 1 1 !
 CONST LIQUID:L : SN Y : !
$
$ Fcc (cF4, Fm-3m) and MeX (cF8, Fm-3m)
$
 PHASE FCC_A1 %A 2 1 1 !
 CONST FCC_A1 : SN Y : VA : !
$
$ Bcc (cI2, Im-3m)
$
 PHASE BCC_A2 %B 2 1 3 !
 CONST BCC_A2 : SN Y% : VA : !
$
$ Hcp (hP2, P6_3/mmc) and Me2X (NiAs-type, hP4, P6_3/mmc, B8_1)
$
 PHASE HCP_A3 %A 2 1 0.5 !
 CONST HCP_A3 : SN Y : VA : !
$
$ Prototype C (cF8, Fd-3m)
$
 PHASE DIAMOND_A4 % 1 1 !
 CONST DIAMOND_A4 : SN : !
$
$ Prototype beta-Sn (tI4, I4_1/amd)
$
 PHASE BCT_A5 % 1 1 !
 CONST BCT_A5 : SN : !
$
$ Prototype GdSn2.75 (oC16, Amm2)
$
 PHASE SN3Y % 2 3 1 !
 CONST SN3Y : SN : Y : !
$
$ Prototype Er2Ge5 (oP14, Pmmn)
$
 PHASE SN5Y2 % 2 5 2 !
 CONST SN5Y2 : SN : Y : !
$
$ Prototype Si2Zr (oC12, Cmcm)
$
 PHASE SN2Y_C49 % 2 2 1 !
 CONST SN2Y_C49 : SN : Y : !
$
$ Prototype Ge10Ho11 (tI84, I4/mmm)
$
 PHASE SN10Y11 % 2 10 11 !
 CONST SN10Y11 : SN : Y : !
$
$ Prototype Ge4Sm5 (oP36, Pnma)
$
 PHASE SN4Y5 % 2 4 5 !
 CONST SN4Y5 : SN : Y : !
$
$ Prototype Mn5Si3 (hP16, P6_3/mcm)
$
 PHASE SN3Y5_D88 % 3 3 2 3 !
 CONST SN3Y5_D88 : SN% Y : SN Y% : Y : !
$ ------------------------------------------------------------------------------
$ Defaults
$
 DEFINE-SYSTEM-DEFAULT ELEMENT 2 !
 DEFAULT-COM DEFINE_SYSTEM_ELEMENT VA !
 TYPE-DEF % SEQ * !
 TYPE-DEF A GES AMEND_PHASE_DESCRIPTION @ MAGNETIC -3 0.28 !
 TYPE-DEF B GES AMEND_PHASE_DESCRIPTION @ MAGNETIC -1 0.4 !
 FUNCTION ZERO      298.15  0;                                         6000 N !
 FUNCTION UN_ASS    298.15  0;                                         6000 N !
 FUNCTION R         298.15  +8.31451;                                  6000 N !
$ ------------------------------------------------------------------------------
$ Element data
$ ------------------------------------------------------------------------------
$ Sn
$
$ FCC_A1 revised in unary 3.0
$ HCP_A3 revised in unary 4.1
$ TETRAGONAL_A6 added in unary 4.1
$ CBCC_A12 and CUB_A13 added in unary 4.4
$ FCC_A1 modified in unary 5.0
$ DHCP and TET_ALPHA1_A6 added in unary 5.0
$
$ The DHCP phase is labelled D0_24 in 03Liu and alpha-prime in 92Ans. The
$ phase is present between the fcc and hcp phases in the Au-Sn and Au-In
$ systems.
$
 PAR  G(BCT_A5,SN)              100.00  +GHSERSN;                3000 N 91Din !
 PAR  G(DIAMOND_A4,SN)          100.00  +GDIASN;                 3000 N 91Din !
 PAR  G(FCC_A1,SN:VA)           100.00  +GHSERSN+5510-8.46*T;    3000 N 89Fec !
$PAR  G(FCC_A1,SN:VA)           100.00  +GHSERSN+4150-5.2*T;     3000 N 91Din !
 PAR  G(BCC_A2,SN:VA)           100.00  +GHSERSN+4400-6*T;       3000 N 91Din !
 PAR  G(HCP_A3,SN:VA)           100.00  +GHSERSN+3900-7.646*T;   3000 N Ansar !
$PAR  G(HCP_A3,SN:VA)           100.00  +GHSERSN+3900-4.4*T;     3000 N 91Din !
$PAR  G(DHCP,SN)                100.00  +GHSERSN+3803.52-3.46*T; 3000 N 03Liu !
$PAR  G(RHOMBOHEDRAL_A7,SN)     100.00  +GHSERSN+2035;           3000 N 91Din !
$PAR  G(TETRAGONAL_A6,SN)       100.00  +GHSERSN+5387-8.26212*T; 3000 N 99Ans !
$PAR  G(CBCC_A12,SN:VA)         100.00  +GHSERSN+2000;           3000 N 01Mie !
$PAR  G(CUB_A13,SN:VA)          100.00  +GHSERSN+2000;           3000 N 01Mie !
$PAR  G(TET_ALPHA1_A6,SN)       100.00  +GHSERSN+5510-8.46*T;    3000 N 99Ans !
 PAR  G(LIQUID,SN)              100.00  +GLIQSN;                 3000 N 91Din !
$
 FUNCTION GHSERSN   100.00  -7958.517+122.765451*T-25.858*T*LN(T)
       +5.1185E-04*T**2-3.192767E-06*T**3+18440*T**(-1);
       250.00  Y  -5855.135+65.443315*T-15.961*T*LN(T)
       -0.0188702*T**2+3.121167E-06*T**3-61960*T**(-1);
       505.08  Y  +2524.724+4.005269*T-8.2590486*T*LN(T)
       -0.016814429*T**2+2.623131E-06*T**3-1081244*T**(-1)-1.2307E+25*T**(-9);
       800.00  Y  -8256.959+138.99688*T-28.4512*T*LN(T)-1.2307E+25*T**(-9);
      3000.00  N !
 FUNCTION GDIASN    100.00  -9579.608+114.007785*T-22.972*T*LN(T)
       -0.00813975*T**2+2.7288E-06*T**3+25615*T**(-1);
       298.15  Y  -9063.001+104.84654*T-21.5750771*T*LN(T)
       -0.008575282*T**2+1.784447E-06*T**3-2544*T**(-1);
       800.00  Y  -10909.351+147.396535*T-28.4512*T*LN(T);
      3000.00  N !
 FUNCTION GLIQSN    100.00  +7103.092-14.087767*T+GHSERSN+1.47031E-18*T**7;
       505.08  Y  +6971.586-13.814383*T+GHSERSN+1.2307E+25*T**(-9);
       800.00  Y  -1285.372+125.182498*T-28.4512*T*LN(T);
      3000.00  N !
 FUNCTION GBCCSN    298.15  +GHSERSN+4400-6*T;                         3000 N !
$ ------------------------------------------------------------------------------
$ Y
$
$ HCP_A3, BCC_A2 and LIQUID revised in unary 3.0
$ FCC_A1 added in unary 4.1
$
 PAR  G(HCP_A3,Y:VA)            100.00  +GHSERYY;                3700 N 95She3 !
 PAR  G(BCC_A2,Y:VA)            100.00  +GBCCYY;                 3700 N 95She3 !
 PAR  G(FCC_A1,Y:VA)            100.00  +GHSERYY+6000;           3700 N Frie2 !
 PAR  G(LIQUID,Y)               100.00  +GLIQYY;                 3700 N 95She3 !
$
 PAR  G(SN3Y5_D88,Y:Y:Y),,              +8*GHSERYY+40000;,,           N 14Lu !
$
 FUNCTION GHSERYY   100.00  -8011.09379+128.572856*T-25.6656992*T*LN(T)
       -0.00175716414*T**2-4.17561786E-07*T**3+26911.509*T**(-1);
      1000.00  Y  -7179.74574+114.497104*T-23.4941827*T*LN(T)
       -0.0038211802*T**2-8.2534534E-08*T**3;
      1795.15  Y  -67480.7761+382.124727*T-56.9527111*T*LN(T)
       +0.00231774379*T**2-7.22513088E-08*T**3+18077162.6*T**(-1);
      3700.00  N !
 FUNCTION GBCCYY    100.00  -833.658863+123.667346*T-25.5832578*T*LN(T)
       -0.00237175965*T**2+9.10372497E-09*T**3+27340.0687*T**(-1);
      1000.00  Y  -1297.79829+134.528352*T-27.3038477*T*LN(T)
       -5.41757644E-04*T**2-3.05012175E-07*T**3;
      1795.15  Y  +15389.4975+0.981325399*T-8.88296647*T*LN(T)
       -0.00904576576*T**2+4.02944768E-07*T**3-2542575.96*T**(-1);
      3700.00  N !
 FUNCTION GLIQYY    100.00  +2098.50738+119.41873*T-24.6467508*T*LN(T)
       -0.00347023463*T**2-8.12981167E-07*T**3+23713.7332*T**(-1);
      1000.00  Y  +7386.44846+19.4520171*T-9.0681627*T*LN(T)
       -0.0189533369*T**2+1.7595327E-06*T**3;
      1795.15  Y  -12976.5957+257.400783*T-43.0952*T*LN(T);
      3700.00  N !
$ ------------------------------------------------------------------------------
$ Binary system
$
$ D. Lu, C. Guo, C. Li, Z. Du, J. Rare Earths, 32, 648-54(2014).
$
$ Checked against paper and author's tdb. Checked at 6000 K.
$
$ Sn3Y is L1_2 at high pressure.
$
 PAR  L(LIQUID,SN,Y;0),,                -206727.9+21.6173*T;,,        N 14Lu !
 PAR  L(LIQUID,SN,Y;1),,                -5597.2+0.3821*T;,,           N 14Lu !
 PAR  L(LIQUID,SN,Y;2),,                +29534.7;,,                   N 14Lu !
$
 PAR  L(BCC_A2,SN,Y:VA;0),,             -151269+11.9902*T;,,          N 14Lu !
 PAR  L(HCP_A3,SN,Y:VA;0),,             -97599.8;,,                   N 14Lu !
$
 PAR  G(SN3Y,SN:Y),,                    +3*GHSERSN+GHSERYY
             -196448+23.0092*T;,,                                     N 14Lu !
 PAR  G(SN5Y2,SN:Y),,                   +5*GHSERSN+2*GHSERYY
             -388447.7+44.2607*T;,,                                   N 14Lu !
 PAR  G(SN2Y_C49,SN:Y),,                +2*GHSERSN+GHSERYY
             -190454.1+20.5749*T;,,                                   N 14Lu !
 PAR  G(SN10Y11,SN:Y),,                 +10*GHSERSN+11*GHSERYY
             -1622917.9+151.0433*T;,,                                 N 14Lu !
 PAR  G(SN4Y5,SN:Y),,                   +4*GHSERSN+5*GHSERYY
             -686056.5+57.6217*T;,,                                   N 14Lu !
$
 PAR  G(SN3Y5_D88,SN:SN:Y),,            +5*GHSERSN+3*GHSERYY
             -532022.4+55.4512*T+40000;,,                             N 14Lu !
 PAR  G(SN3Y5_D88,SN:Y:Y),,             +3*GHSERSN+5*GHSERYY
             -591407.4+50.1016*T;,,                                   N 14Lu !
 PAR  G(SN3Y5_D88,Y:SN:Y),,             +2*GHSERSN+6*GHSERYY
             -394271.6+33.4011*T+40000;,,                             N 14Lu !
 PAR  L(SN3Y5_D88,SN,Y:SN:Y;0),,        +400000;,,                    N 14Lu !
 PAR  L(SN3Y5_D88,SN,Y:Y:Y;0),,         +400000;,,                    N 14Lu !
 PAR  L(SN3Y5_D88,SN:SN,Y:Y;0),,        -48456.9+2.2979*T;,,          N 14Lu !
 PAR  L(SN3Y5_D88,Y:SN,Y:Y;0),,         -48456.9+2.2979*T;,,          N 14Lu !
$
$ Metastable
$
 PAR  L(FCC_A1,SN,Y:VA;0),,             -97599.8;,,                   N Same !
$ ------------------------------------------------------------------------------
$
$
 LIST-OF-REFERENCE
 NUMBER  SOURCE
  Null   'Unknown source'
  Same   'Same or similar interaction as in the corresponding stable phase'
  COST   'COST 507 database'
  Ansar  'Himo Ansara, unpublished, SGTE unary database V.4.1, 1999; Sn'
  Frie2  'Suzana Fries and Leo Lukas, unpublished,
          SGTE unary database V.4.1, 1999; Y'
  89Fec  'H.J. Fecht, M.X. Zhang, Y.A. Chang, J.H. Perepezko,
          Metall. Trans. A, 20A, 795-803(1989),
          SGTE unary database V.3.0, 1996; Sn'
  91Din  'A.T. Dinsdale, Calphad, 15, 317-425(1991).'
  95She3 'H. Shen, W. Zhang, G. Liu, R. Wang, Z. Du, Report F-95-03,
          University of Science and Technology, Beijing, May 1995,
          SGTE unary database V.3.0, 1996; Y'
  99Ans  'I. Ansara, S.G. Fries, H.L. Lukas, unpublished, 1999,
          SGTE unary database V.5.0, 2009; In, Sn'
  01Mie  'J. Miettinen, Calphad, 25, 43-58(2001),
          SGTE unary database V.4.4, 2001; Sn, Zn'
  03Liu  'H.S. Liu, C.L. Liu, K. Ishida, Z.P. Jin, J. Electron. Mater.,
          32, 1290-96(2003), SGTE unary database V.5.0, 2009; Sn'
  14Lu   'D. Lu, C. Guo, C. Li, Z. Du, J. Rare Earths, 32, 648-54(2014); Sn-Y'
!
