$
$ Database for Dy-Mn from J. Wang et al. 2019.
$
$ J. Wang, M. Qian, K.C. Yang, B. Wen, Z. Lu, M.H. Rong, G.H. Rao, H.Y. Zhou,
$ Calphad, 66, 101635(2019).
$
$ Dataset created 2021.07.10 by Bengt Hallstedt.
$
$ Note! Old data used for Dy.
$
$ ------------------------------------------------------------------------------
 TEMP-LIM 298.15 6000.00 !
$
$ELEMENT NAME  REF. STATE               ATOMIC MASS H298-H0    S298    !
$
 ELEMENT VA   VACUUM                      0.0          0.0      0.0    ! 
 ELEMENT DY   HCP_A3                    162.50      8865.896   74.9559 ! 
 ELEMENT MN   CBCC_A12                   54.9380    4995.696   32.2206 ! 
$ ------------------------------------------------------------------------------
$ Phase definitions
$
 PHASE LIQUID:L % 1 1 !
 CONST LIQUID:L : DY MN : !
$
$ Fcc (cF4, Fm-3m) and MeX (cF8, Fm-3m)
$
 PHASE FCC_A1 %A 2 1 1 !
 CONST FCC_A1 : DY MN% : VA : !
$
$ Bcc (cI2, Im-3m)
$
 PHASE BCC_A2 %B 2 1 3 !
 CONST BCC_A2 : DY% MN% : VA : !
$
$ Hcp (hP2, P6_3/mmc) and Me2X (NiAs-type, hP4, P6_3/mmc, B8_1)
$
 PHASE HCP_A3 %A 2 1 0.5 !
 CONST HCP_A3 : DY% MN : VA : !
$
$ Prototype alpha-Mn (cI58, I-43m)
$
 PHASE CBCC_A12 %A 2 1 1 !
 CONST CBCC_A12 : MN : VA : !
$
$ Prototype beta-Mn (cP20, P4_132)
$
 PHASE CUB_A13 % 2 1 1 !
 CONST CUB_A13 : MN : VA : !
$
$ Prototype Cu2Mg (cF24, Fd-3m)
$
 PHASE DYMN2_C15 % 2 1 2 !
 CONST DYMN2_C15 : DY : MN : !
$
$ Prototype Mn23Th6 (cF116, Fm-3m)
$
 PHASE DY6MN23_D8A %A 2 6 23 !
 CONST DY6MN23_D8A : DY : MN : !
$
$ Prototype Mn12Th (tI26, I4/mmm)
$
 PHASE DYMN12_D2B % 2 1 12 !
 CONST DYMN12_D2B : DY : MN : !
$ ------------------------------------------------------------------------------
$ Defaults
$
 DEFINE-SYSTEM-DEFAULT ELEMENT 2 !
 DEFAULT-COM DEFINE_SYSTEM_ELEMENT VA !
 TYPE-DEF % SEQ * !
 TYPE-DEF A GES AMEND_PHASE_DESCRIPTION @ MAGNETIC -3 0.28 !
 TYPE-DEF B GES AMEND_PHASE_DESCRIPTION @ MAGNETIC -1 0.4 !
 FUNCTION ZERO      298.15  0;                                         6000 N !
 FUNCTION UN_ASS    298.15  0;                                         6000 N !
 FUNCTION R         298.15  +8.31451;                                  6000 N !
$ ------------------------------------------------------------------------------
$ Element data
$ ------------------------------------------------------------------------------
$ Dy
$
$ Note! Old data used for Dy.
$
$ HCP_A3, BCC_A2 and LIQUID revised in unary 3.0
$
$ FCC_A1 from 94Lan not included in unary
$ FCC_A1 from 03Cac not included in unary (but it should be)
$ CBCC_A12 and CUB_A13 from 09Wan4 not included in unary.
$
 PAR  G(HCP_A3,DY:VA)           298.15  +GHSERDY;                3000 N 91Din !
 PAR  G(BCC_A2,DY:VA)           298.15  +GBCCDY;                 3000 N 91Din !
$PAR  G(FCC_A1,DY:VA)           298.15  +GHSERDY
$            +1300-0.6651608*T;                                  3000 N 03Cac !
 PAR  G(FCC_A1,DY:VA)           298.15  +GHSERDY+5000;           3000 N 94Lan !
$PAR  G(CBCC_A12,DY:VA)         298.15  +GHSERDY+10000;          3000 N 09Wan4 !
$PAR  G(CUB_A13,DY:VA)          298.15  +GHSERDY+10000;          3000 N 09Wan4 !
 PAR  G(LIQUID,DY)              298.15  +GLIQDY;                 3000 N 91Din !
$
 FUNCTION GHSERDY   298.15  -9129.216+131.734913*T-31.3602*T*LN(T)
       +0.00614295*T**2-2.123617E-06*T**3+31704*T**(-1);
      1000.00  Y  +46759.596-356.59767*T+37.102*T*LN(T)
       -0.02919595*T**2+9.99035E-07*T**3-8228400*T**(-1);
      1400.00  Y  +578.987+6.964025*T-13.3473*T*LN(T)
       -0.00382058*T**2-1.466792E-06*T**3;
      1659.00  Y  -518996.159+2659.38355*T-353.642128*T*LN(T)
       +0.080893522*T**2-3.929211E-06*T**3+1.37444876E+08*T**(-1);
      3000.00  N !
 FUNCTION GBCCDY    298.15  +2245.299-1.143165*T+GHSERDY;  
      1000.00  Y  +287440.422-2533.60126*T+344.875171*T*LN(T)
       -0.201179873*T**2+1.8354141E-05*T**3-42196433*T**(-1);
      1659.00  Y  -32780.012+289.980691*T-50.208*T*LN(T);
      1684.00  Y  -39830.901+328.822231*T-55.2727722*T*LN(T)
       +0.001523778*T**2-7.7383E-08*T**3+1771510*T**(-1);
      3000.00  N !
 FUNCTION GLIQDY    298.15  +13139.274-7.623047*T+GHSERDY;  
      1000.00  Y  +292367.773-2487.67879*T+337.520022*T*LN(T)
       -0.197339631*T**2+1.800701E-05*T**3-41317706*T**(-1);
      1659.00  Y  -21504.599+281.109149*T-49.9151*T*LN(T);
      3000.00  N !
$ ------------------------------------------------------------------------------
$ Mn
$
$ DHCP from 09Wan4 not included in unary (this is not a good value)
$ RHOMB_C19 from 09Wan1 not included in unary
$
 PAR  G(CBCC_A12,MN:VA),,               +GHSERMN;                2000 N 91Din !
 PAR  TC(CBCC_A12,MN:VA),,               -285.00;                2000 N 91Din !
 PAR  BMAG(CBCC_A12,MN:VA),,               -0.66;                2000 N 91Din !
 PAR  G(CUB_A13,MN:VA),,                +GCUBMN;                 2000 N 91Din !
 PAR  G(FCC_A1,MN:VA),,                 +GFCCMN;                 2000 N 91Din !
 PAR  TC(FCC_A1,MN:VA),,                -1620.00;                2000 N 91Din !
 PAR  BMAG(FCC_A1,MN:VA),,                 -1.86;                2000 N 91Din !
 PAR  G(BCC_A2,MN:VA),,                 +GBCCMN;                 2000 N 91Din !
 PAR  TC(BCC_A2,MN:VA),,                 -580.00;                2000 N 91Din !
 PAR  BMAG(BCC_A2,MN:VA),,                 -0.27;                2000 N 91Din !
 PAR  G(HCP_A3,MN:VA),,                 +GHCPMN;                 2000 N 91Din !
 PAR  TC(HCP_A3,MN:VA),,                -1620.00;                2000 N 91Din !
 PAR  BMAG(HCP_A3,MN:VA),,                 -1.86;                2000 N 91Din !
$PAR  G(DHCP,MN),,                      +GHSERMN+10000;          2100 N 09Wan4 !
$PAR  G(RHOMB_C19,MN),,                 +GHSERMN+1000;           2100 N 09Wan1 !
 PAR  G(LIQUID,MN),,                    +GLIQMN;                 2000 N 91Din !
$
 FUNCTION GHSERMN   298.15  -8115.28+130.059*T-23.4582*T*LN(T)
       -0.00734768*T**2+69827*T**(-1);
      1519.00  Y  -28733.41+312.2648*T-48*T*LN(T)+1.656847E+30*T**(-9);
      2000.00  N !
 FUNCTION GCUBMN    298.15  -5800.4+135.995*T-24.8785*T*LN(T)
       -0.00583359*T**2+70269*T**(-1);
      1519.00  Y  +442.65-0.9715*T+GHSERMN+2.310723E+30*T**(-9);
      2000.00  N !
 FUNCTION GFCCMN    298.15  -3439.3+131.884*T-24.5177*T*LN(T)
       -0.006*T**2+69600*T**(-1);
      1519.00  Y  +2663.31-2.5984*T+GHSERMN+2.205113E+30*T**(-9);
      2000.00  N !
 FUNCTION GBCCMN    298.15  -3235.3+127.85*T-23.7*T*LN(T)
       -0.00744271*T**2+60000*T**(-1);
      1519.00  Y  +5544.58-4.5605*T+GHSERMN-3.91695E+29*T**(-9);
      2000.00  N !
 FUNCTION GHCPMN    298.15  -4439.3+133.007*T-24.5177*T*LN(T)
       -0.006*T**2+69600*T**(-1);
      1519.00  Y  +1663.31-1.4754*T+GHSERMN+2.205113E+30*T**(-9);
      2000.00  N !
 FUNCTION GLIQMN    298.15  +17859.91-12.6208*T+GHSERMN-4.41929E-21*T**7;
      1519.00  Y  -9993.9+299.036*T-48*T*LN(T);
      2000.00  N !
$ ------------------------------------------------------------------------------
$ Binary system
$
$ J. Wang, M. Qian, K.C. Yang, B. Wen, Z. Lu, M.H. Rong, G.H. Rao, H.Y. Zhou,
$ Calphad, 66, 101635(2019).
$
$ Checked against paper and author's tdb. Checked at 6000 K.
$
 PAR  L(LIQUID,DY,MN;0),,               -12503.451+2.244*T;,,         N 19Wan !
 PAR  L(LIQUID,DY,MN;1),,               +9601.011-4.136*T;,,          N 19Wan !
 PAR  L(LIQUID,DY,MN;2),,               -6000;,,                      N 19Wan !
$
 PAR  L(FCC_A1,DY,MN:VA;0),,            +50000;,,                     N 19Wan !
 PAR  L(BCC_A2,DY,MN:VA;0),,            +50000;,,                     N 19Wan !
 PAR  L(HCP_A3,DY,MN:VA;0),,            +50000;,,                     N 19Wan !
$
 PAR  G(DYMN2_C15,DY:MN),,              +GHSERDY+2*GHSERMN
             -8000-13.296*T;,,                                        N 19Wan !
$
$ Parameter misprinted in paper below
$PAR  G(DY6MN23_D8A,DY:MN),,            +6*GHSERDY+23*GHSERMN
$            -63300-99.702*T;,,                                       N 19Wan !
$ Parameter from author's tdb below
 PAR  G(DY6MN23_D8A,DY:MN),,            +6*GHSERDY+23*GHSERMN
             -72000-99.702*T;,,                                       N 19Wan !
 PAR  TC(DY6MN23_D8A,DY:MN),,            +443.00;,,                   N 19Wan !
 PAR  BMAG(DY6MN23_D8A,DY:MN),,           +49.87;,,                   N 19Wan !
$
 PAR  G(DYMN12_D2B,DY:MN),,             +GHSERDY+12*GHSERMN
             -20000-16.224*T;,,                                       N 19Wan !
$ ------------------------------------------------------------------------------
$
$
 LIST-OF-REFERENCE
 NUMBER  SOURCE
  Null   'Unknown source'
  REFLAV 'Laves phase convention: G(LAVES,X:X)=+3*GHSERXX+15000'
  91Din  'A.T. Dinsdale, Calphad, 15, 317-425(1991).'
  94Lan  'S. Landin, J. Agren,
          J. Alloys Compd., 207-208, 449-53(1994); Dy, Tb'
  95She1 'H. Shen, W. Zhang, G. Liu, R. Wang, Z. Du, Report F-95-01,
          University of Science and Technology, Beijing, May 1995,
          SGTE unary database V.3.0, 1996; Dy'
  03Cac  'G. Cacciamani, S. De Negri, A. Saccone, R. Ferro,
          Intermetallics, 11, 1135-51(2003); Dy'
  09Wan1 'C.P. Wang, H.L. Zhang, S.L. Wang, Z. Lin, X.J. Liu, A.T. Tang,
          F.S. Pan, J. Alloys Compd., 481, 291-95(2009); Ho, Mn, Sm'
  09Wan4 'C.P. Wang, Z. Lin, X.J. Liu,
          J. Alloys Compd., 469, 123-28(2009); Dy, Mn, Pr'
  19Wan  'J. Wang, M. Qian, K.C. Yang, B. Wen, Z. Lu, M.H. Rong, G.H. Rao,
          H.Y. Zhou, Calphad, 66, 101635(2019); Dy-Mn'
!
