$
$ Database for Sn-U from R.I. Sheldon et al. 1987.
$
$ R.I. Sheldon, E.M. Foltyn, D.E. Petersen,
$ Bull. Alloy Phase Diag., 8, 347-52(1987).
$
$ Dataset created 2024.06.25 by Bengt Hallstedt.
$
$ Pre-SGTE element data used in the paper. With SGTE lattice element data
$ the phase diagram is approximately reproduced, but the melting temperature
$ of Sn2U3 is 78 K too low, and Sn-rich invariant equilibria are also too low.
$ This could be fixed relatively easily, but the currently accepted phase
$ diagram contains a different set of intermetallic phases.
$
$ ------------------------------------------------------------------------------
 TEMP-LIM 298.15 6000.00 !
$
$ELEMENT NAME  REF. STATE               ATOMIC MASS H298-H0    S298    !
$
 ELEMENT VA   VACUUM                      0.0          0.0      0.0    ! 
 ELEMENT SN   BCT_A5                    118.69      6323.      51.18   ! 
 ELEMENT U    ORTHORHOMBIC_A20          238.0289    6364.      50.20   ! 
$ ------------------------------------------------------------------------------
$ Phase definitions
$
 PHASE LIQUID:L % 1 1 !
 CONST LIQUID:L : SN U : !
$
$ Fcc (cF4, Fm-3m) and MeX (cF8, Fm-3m)
$
 PHASE FCC_A1 %A 2 1 1 !
 CONST FCC_A1 : SN U : VA : !
$
$ Bcc (cI2, Im-3m)
$
 PHASE BCC_A2 %B 2 1 3 !
 CONST BCC_A2 : SN U% : VA : !
$
$ Hcp (hP2, P6_3/mmc) and Me2X (NiAs-type, hP4, P6_3/mmc, B8_1)
$
 PHASE HCP_A3 %A 2 1 0.5 !
 CONST HCP_A3 : SN U : VA: !
$
$ Prototype C (cF8, Fd-3m)
$
 PHASE DIAMOND_A4 % 1 1 !
 CONST DIAMOND_A4 : SN : !
$
$ Prototype beta-Sn (tI4, I4_1/amd)
$
 PHASE BCT_A5 % 1 1 !
 CONST BCT_A5 : SN : !
$
$ Prototype alpha-U (oC4, Cmcm)
$
 PHASE ORTHORHOMBIC_A20 % 1 1 !
 CONST ORTHORHOMBIC_A20 : U : !
$
$ Prototype beta-U (tP30, P4_2/mnm, SB: A_b)
$
 PHASE TETRAGONAL_U % 1 1 !
 CONST TETRAGONAL_U : U : !
$
$ Prototype AuCu3 (cP4, Pm-3m)
$
 PHASE SN3U_L12 %  2 3 1 !
 CONST SN3U_L12 : SN : U : !
$
$ Prototype Ga2Zr (oC12, Cmmm), Sn2U
$
 PHASE SN5U3 %  2 5 3 !
 CONST SN5U3 : SN : U : !
$
$ Prototype Ga4Ti5 (hP18, P6_3/mcm), Sn4U5
$
 PHASE SN2U3 %  2 2 3 !
 CONST SN2U3 : SN : U : !
$ ------------------------------------------------------------------------------
$ Defaults
$
 DEFINE-SYSTEM-DEFAULT ELEMENT 2 !
 DEFAULT-COM DEFINE_SYSTEM_ELEMENT VA !
 TYPE-DEF % SEQ * !
 TYPE-DEF A GES AMEND_PHASE_DESCRIPTION @ MAGNETIC -3 0.28 !
 TYPE-DEF B GES AMEND_PHASE_DESCRIPTION @ MAGNETIC -1 0.4 !
 FUNCTION ZERO      298.15  0;                                         6000 N !
 FUNCTION UN_ASS    298.15  0;                                         6000 N !
 FUNCTION R         298.15  +8.31451;                                  6000 N !
$ ------------------------------------------------------------------------------
$ Element data
$ ------------------------------------------------------------------------------
$ Sn
$
$ FCC_A1 revised in unary 3.0
$ HCP_A3 revised in unary 4.1
$ TETRAGONAL_A6 added in unary 4.1
$ CBCC_A12 and CUB_A13 added in unary 4.4
$ FCC_A1 modified in unary 5.0
$ DHCP and TET_ALPHA1_A6 added in unary 5.0
$
$ The DHCP phase is labelled D0_24 in 03Liu and alpha-prime in 92Ans. The
$ phase is present between the fcc and hcp phases in the Au-Sn and Au-In
$ systems.
$
 PAR  G(BCT_A5,SN)              100.00  +GHSERSN;                3000 N 91Din !
 PAR  G(DIAMOND_A4,SN)          100.00  +GDIASN;                 3000 N 91Din !
 PAR  G(FCC_A1,SN:VA)           100.00  +GHSERSN+5510-8.46*T;    3000 N 89Fec !
$PAR  G(FCC_A1,SN:VA)           100.00  +GHSERSN+4150-5.2*T;     3000 N 91Din !
 PAR  G(BCC_A2,SN:VA)           100.00  +GHSERSN+4400-6*T;       3000 N 91Din !
 PAR  G(HCP_A3,SN:VA)           100.00  +GHSERSN+3900-7.646*T;   3000 N Ansar !
$PAR  G(HCP_A3,SN:VA)           100.00  +GHSERSN+3900-4.4*T;     3000 N 91Din !
$PAR  G(DHCP,SN)                100.00  +GHSERSN+3803.52-3.46*T; 3000 N 03Liu !
$PAR  G(RHOMBOHEDRAL_A7,SN)     100.00  +GHSERSN+2035;           3000 N 91Din !
$PAR  G(TETRAGONAL_A6,SN)       100.00  +GHSERSN+5387-8.26212*T; 3000 N 99Ans !
$PAR  G(CBCC_A12,SN:VA)         100.00  +GHSERSN+2000;           3000 N 01Mie !
$PAR  G(CUB_A13,SN:VA)          100.00  +GHSERSN+2000;           3000 N 01Mie !
$PAR  G(TET_ALPHA1_A6,SN)       100.00  +GHSERSN+5510-8.46*T;    3000 N 99Ans !
 PAR  G(LIQUID,SN)              100.00  +GLIQSN;                 3000 N 91Din !
$
 FUNCTION GHSERSN   100.00  -7958.517+122.765451*T-25.858*T*LN(T)
       +5.1185E-04*T**2-3.192767E-06*T**3+18440*T**(-1);
       250.00  Y  -5855.135+65.443315*T-15.961*T*LN(T)
       -0.0188702*T**2+3.121167E-06*T**3-61960*T**(-1);
       505.08  Y  +2524.724+4.005269*T-8.2590486*T*LN(T)
       -0.016814429*T**2+2.623131E-06*T**3-1081244*T**(-1)-1.2307E+25*T**(-9);
       800.00  Y  -8256.959+138.99688*T-28.4512*T*LN(T)-1.2307E+25*T**(-9);
      3000.00  N !
 FUNCTION GDIASN    100.00  -9579.608+114.007785*T-22.972*T*LN(T)
       -0.00813975*T**2+2.7288E-06*T**3+25615*T**(-1);
       298.15  Y  -9063.001+104.84654*T-21.5750771*T*LN(T)
       -0.008575282*T**2+1.784447E-06*T**3-2544*T**(-1);
       800.00  Y  -10909.351+147.396535*T-28.4512*T*LN(T);
      3000.00  N !
 FUNCTION GLIQSN    100.00  +7103.092-14.087767*T+GHSERSN+1.47031E-18*T**7;
       505.08  Y  +6971.586-13.814383*T+GHSERSN+1.2307E+25*T**(-9);
       800.00  Y  -1285.372+125.182498*T-28.4512*T*LN(T);
      3000.00  N !
 FUNCTION GBCCSN    298.15  +GHSERSN+4400-6*T;                         3000 N !
$ ------------------------------------------------------------------------------
$ U
$
$ FCC_A1 and HCP_A3 added in unary 4.1
$
$ HCP_A3 from 04Che not in unary
$
 PAR  G(ORTHORHOMBIC_A20,U),,           +GHSERUU;                3000 N 91Din !
 PAR  G(TETRAGONAL_U,U),,               +GTETUU;                 3000 N 91Din !
 PAR  G(BCC_A2,U:VA),,                  +GBCCUU;                 3000 N 91Din !
 PAR  G(FCC_A1,U:VA),,                  +GHSERUU+5000;           3000 N 99SGUN !
 PAR  G(HCP_A3,U:VA),,                  +GBCCUU+5000-0.008*T;    3000 N 99SGUN !
$PAR  G(HCP_A3,U:VA),,                  +GHSERUU+50000;          3000 N 04Che3 !
 PAR  G(LIQUID,U),,                     +GHSERUU
             +12355.5-10.3239*T;                                 3000 N 91Din !
$
 FUNCTION GHSERUU   298.15  -8407.734+130.955151*T-26.9182*T*LN(T)
       +0.00125156*T**2-4.42605E-06*T**3+38568*T**(-1);
       955.00  Y  -22521.8+292.121093*T-48.66*T*LN(T);
      3000.00  N !
 FUNCTION GTETUU    298.15  -5156.136+106.976316*T-22.841*T*LN(T)
       -0.01084475*T**2+2.7889E-08*T**3+81944*T**(-1);
       941.50  Y  -14327.309+244.16802*T-42.9278*T*LN(T);
      3000.00  N !
 FUNCTION GBCCUU    298.15  -752.767+131.5381*T-27.5152*T*LN(T)
       -0.00835595*T**2+9.67907E-07*T**3+204611*T**(-1);
      1049.00  Y  -4698.365+202.685635*T-38.2836*T*LN(T);
      3000.00  N !
$ ------------------------------------------------------------------------------
$ Binary system
$
$ R.I. Sheldon, E.M. Foltyn, D.E. Petersen,
$ Bull. Alloy Phase Diag., 8, 347-52(1987).
$
$ Checked against paper. Checked at 6000 K.
$
$ Pre-SGTE element data used in the paper. With SGTE lattice element data
$ the phase diagram is approximately reproduced, but the melting temperature
$ of Sn2U3 is 78 K too low, and Sn-rich invariant equilibria are also too low.
$ This could be fixed relatively easily, but the currently accepted phase
$ diagram contains a different set of intermetallic phases.
$
 PAR  L(LIQUID,SN,U;0),,                +3287-8.686*T;,,              N 87She !
$
 PAR  G(SN3U_L12,SN:U),,                +3*GHSERSN+GHSERUU
             -103864+10.008*T;,,                                      N 87She !
 PAR  G(SN5U3,SN:U),,                   +5*GHSERSN+3*GHSERUU
             -233200+31.864*T;,,                                      N 87She !
 PAR  G(SN2U3,SN:U),,                   +2*GHSERSN+3*GHSERUU
             -156530+27.725*T;,,                                      N 87She !
$ ------------------------------------------------------------------------------
$
$
 LIST-OF-REFERENCE
 NUMBER  SOURCE
  Null   'Unknown source'
  Same   'Same or similar interaction as in the corresponding stable phase'
  Ansar  'Himo Ansara, unpublished, SGTE unary database V.4.1, 1999; Sn'
  87She  'R.I. Sheldon, E.M. Foltyn, D.E. Petersen,
          Bull. Alloy Phase Diag., 8, 347-52(1987); Sn-U'
  89Fec  'H.J. Fecht, M.X. Zhang, Y.A. Chang, J.H. Perepezko,
          Metall. Trans. A, 20A, 795-803(1989),
          SGTE unary database V.3.0, 1996; Sn'
  91Din  'A.T. Dinsdale, Calphad, 15, 317-425(1991).'
  99Ans  'I. Ansara, S.G. Fries, H.L. Lukas, unpublished, 1999,
          SGTE unary database V.5.0, 2009; In, Sn'
  99SGUN 'SGTE unary database V.4.1, 1999.'
  01Mie  'J. Miettinen, Calphad, 25, 43-58(2001),
          SGTE unary database V.4.4, 2001; Sn, Zn'
  03Liu  'H.S. Liu, C.L. Liu, K. Ishida, Z.P. Jin, J. Electron. Mater.,
          32, 1290-96(2003), SGTE unary database V.5.0, 2009; Sn'
  04Che3 'P.-Y. Chevalier, E. Fischer, B. Cheynet,
          Calphad, 28, 15-40(2004); U, Zr'
!
