$
$ Database for Ho-Pd from Z. Du et al. 2000
$
$ Z. Du, H. Yang, T. Liu, Z. Metallkd., 91, 963-66(2000).
$
$ Dataset created 2017.03.11 by Bengt Hallstedt.
$ 2021.01.17: Modified for use with GES6.
$ 2021.01.17: G(DYPD3_L12,PD:PD) corrected to G(HOPD3_L12,PD:PD).
$
$ The modelling is not convincing.
$
$ The interaction parameters and lattice stability for fcc-Ho from 01Du are
$ not accaptable.
$
$ Old data used for bcc and liquid Ho (91Din).
$
$ There is an inverse miscibility gap with a minimum at 3916 K and x(Pd)=0.19.
$
$ ------------------------------------------------------------------------------
 TEMP-LIM 298.15 6000.00 !
$
$ELEMENT NAME  REF. STATE               ATOMIC MASS H298-H0    S298    !
$
 ELEMENT VA   VACUUM                      0.0          0.0      0.0    ! 
 ELEMENT HO   HCP_A3                    164.9304    7995.624   75.0191 ! 
 ELEMENT PD   FCC_A1                    106.42      5468.488   37.8234 ! 
$ ------------------------------------------------------------------------------
$ Phase definitions
$
 PHASE LIQUID:L % 1 1 !
 CONST LIQUID:L : HO PD : !
$
$ Fcc (cF4, Fm-3m) and MeX (cF8, Fm-3m)
$
 PHASE FCC_A1 %A 2 1 1 !
 CONST FCC_A1 : HO PD% : VA : !
$
$ Bcc (cI2, Im-3m)
$
 PHASE BCC_A2 %B 2 1 3 !
 CONST BCC_A2 : HO PD : VA : !
$
$ Hcp (hP2, P6_3/mmc) and Me2X (NiAs-type, hP4, P6_3/mmc, B8_1)
$
 PHASE HCP_A3 %A 2 1 0.5 !
 CONST HCP_A3 : HO% PD : VA : !
$
$ Prototype Dy5Pd2 (cF144, Fd-3m)
$
 PHASE HO5PD2 % 2 5 2 !
 CONST HO5PD2 : HO : PD : !
$
$ Prototype Si2U3 (tP10, P4/mbm)
$
 PHASE HO3PD2_D5A % 2 3 2 !
 CONST HO3PD2_D5A : HO : PD : !
$
$ Prototype FeB (oP8, Pnma), low T
$
 PHASE HOPD_B27 % 2 1 1 !
 CONST HOPD_B27 : HO : HO PD% : !
$
$ Prototype CsCl (cP2, Pm-3m), high T
$
 PHASE HOPD_B2 % 2 1 1 !
 CONST HOPD_B2 : HO : HO PD% : !
$
$ Prototype Pd4Pu3 (hR14, R-3)
$
 PHASE HO3PD4 % 2 3 4 !
 CONST HO3PD4 : HO : PD : !
$
$ Unknown structure
$
 PHASE HO2PD3_LT % 2 2 3 !
 CONST HO2PD3_LT : HO : PD : !
$
$ Unknown structure
$
 PHASE HO2PD3_HT % 2 2 3 !
 CONST HO2PD3_HT : HO : PD : !
$
$ Unknown structure
$
 PHASE HO10PD21 % 2 10 21 !
 CONST HO10PD21 : HO : PD : !
$
$ Prototype AuCu3 (cP4, Pm-3m)
$
 PHASE HOPD3_L12 % 2 1 3 !
 CONST HOPD3_L12 : HO% PD : PD : !
$
$ Unknown structure
$
 PHASE HOPD7 % 2 1 7 !
 CONST HOPD7 : HO : PD : !
$ ------------------------------------------------------------------------------
$ Defaults
$
 DEFINE-SYSTEM-DEFAULT ELEMENT 2 !
 DEFAULT-COM DEFINE_SYSTEM_ELEMENT VA !
 TYPE-DEF % SEQ * !
 TYPE-DEF A GES AMEND_PHASE_DESCRIPTION @ MAGNETIC -3 0.28 !
 TYPE-DEF B GES AMEND_PHASE_DESCRIPTION @ MAGNETIC -1 0.4 !
 FUNCTION ZERO      298.15  0;                                         6000 N !
 FUNCTION UN_ASS    298.15  0;                                         6000 N !
 FUNCTION R         298.15  +8.31451;                                  6000 N !
$ ------------------------------------------------------------------------------
$ Element data
$ ------------------------------------------------------------------------------
$ Ho
$
$ BCC_A2 and LIQUID revised in unary 4.4
$ HCP_A3 modified in unary 5.0
$ (upper T interval added + trailing decimals added)
$
$ FCC_A1 from 00Du, 03Cac, 09Wan not included in unary; 03Cac to be preferred
$ The value from 00Du is absurd
$
 PAR  G(HCP_A3,HO:VA),,                 +GHSERHO;                3001 N 91Din !
 PAR  G(FCC_A1,HO:VA),,                 +GHSERHO+142511;         3001 N 00Du !
$PAR  G(FCC_A1,HO:VA),,                 +GHSERHO
$            +2000-0.831451*T;                                   3001 N 03Cac !
$PAR  G(FCC_A1,HO:VA),,                 +GHSERHO+5000;           3001 N 09Wan1 !
 PAR  G(BCC_A2,HO:VA),,                 +GBCCHO;                 3001 N 91Din !
 PAR  G(LIQUID,HO),,                    +GLIQHO;                 3001 N 91Din !
$
 PAR  G(HOPD_B27,HO:HO),,               +2*GHSERHO+2071051;,,         N 00Du !
 PAR  G(HOPD_B2,HO:HO),,                +2*GHSERHO
             +1745570+48.752*T;,,                                     N 00Du !
$
 FUNCTION GHSERHO   298.15  -7612.429+86.593171*T-23.4879*T*LN(T)
       -0.00827315*T**2+2.375467E-06*T**3;
       600.00  Y  -10917.688+182.475691*T-39.6932*T*LN(T)
       +0.01820065*T**2-4.829733E-06*T**3;
       900.00  Y  +46646.188-421.474473*T+48.0595*T*LN(T)
       -0.0424634*T**2+3.233133E-06*T**3-7185900*T**(-1);
      1200.00  Y  +27786.061-156.162846*T+8.28608*T*LN(T)
       -0.01082725*T**2-1.112352E-06*T**3-6183850*T**(-1);
      1703.00  Y  -825364.662+4248.379056*T-558.9506818*T*LN(T)
       +0.139111904*T**2-6.824652E-06*T**3+2.19952973E+08*T**(-1);
      3000.00  Y  -17149.229+235.898104*T-43.932*T*LN(T);
      3001.00  N !
 FUNCTION GBCCHO    298.15  +3731.229-2.060317*T+GHSERHO;  
      1000.00  Y  +185512.056-1635.740669*T+218.9372486*T*LN(T)
       -0.13516576*T**2+1.2168911E-05*T**3-26729747*T**(-1);
      1703.00  Y  -28867.901+272.946988*T-48.116*T*LN(T);
      1745.00  Y  -152754.148+939.764197*T-134.7930638*T*LN(T)
       +0.025544089*T**2-1.287517E-06*T**3+32050889*T**(-1);
      3001.00  N !
 FUNCTION GLIQHO    298.15  +17262.172-9.992194*T+GHSERHO;  
      1000.00  Y  +124706.283-994.683024*T+127.9577778*T*LN(T)
       -0.088196514*T**2+8.008222E-06*T**3-15727191*T**(-1);
      1703.00  Y  -9809.781+230.793918*T-43.932*T*LN(T);
      3001.00  N !
$ ------------------------------------------------------------------------------
$ Pd
$
$ RHOMBOHEDRAL_A7 added in unary 5.0
$
 PAR  G(FCC_A1,PD:VA),,                 +GHSERPD;                4000 N 91Din !
 PAR  G(BCC_A2,PD:VA),,                 +GHSERPD+10500-1.8*T;    4000 N 91Din !
 PAR  G(HCP_A3,PD:VA),,                 +GHSERPD+2000+0.1*T;     4000 N 91Din !
$PAR  G(RHOMBOHEDRAL_A7,PD),,           +GHSERPD+4000;           4000 N 06Vre !
 PAR  G(LIQUID,PD),,                    +GLIQPD;                 4000 N 91Din !
$
 PAR  G(HOPD3_L12,PD:PD),,              +4*GHSERPD+10492;,,           N 00Du !
$
 FUNCTION GHSERPD   298.15  -10204.027+176.076315*T-32.211*T*LN(T)
       +0.007120975*T**2-1.919875E-06*T**3+168687*T**(-1);
       900.00  Y  +917.062+49.659892*T-13.5708*T*LN(T)
       -0.00717522*T**2+1.91115E-07*T**3-1112465*T**(-1);
      1828.00  Y  -67161.018+370.102147*T-54.2067086*T*LN(T)
       +0.002091396*T**2-6.2811E-08*T**3+18683526*T**(-1);
      4000.00  N !
 FUNCTION GLIQPD    298.15  +11506.758-5.112162*T+GHSERPD;
       600.00  Y  +23405.778-116.918419*T+10.8922031*T*LN(T)
       -0.027266568*T**2+2.430675E-06*T**3-1853674*T**(-1);
      1828.00  Y  -12373.637+251.416903*T-41.17*T*LN(T);
      4000.00  N !
$ ------------------------------------------------------------------------------
$ Binary system
$
$ Z. Du, H. Yang, T. Liu, Z. Metallkd., 91, 963-66(2000).
$
$ Checked against paper. Checked at 6000 K.
$
$ The modelling is not convincing.
$
$ The interaction parameters and lattice stability for fcc-Ho from 01Du are
$ not acceptable.
$
$ There is an inverse miscibility gap with a minimum at 3916 K and x(Pd)=0.19.
$
 PAR  L(LIQUID,HO,PD;0),,               -352740+82.788*T;,,           N 00Du !
 PAR  L(LIQUID,HO,PD;1),,               +91843-5.012*T;,,             N 00Du !
$
 PAR  L(FCC_A1,HO,PD:VA;0),,            -549368+78.341*T;,,           N 00Du !
 PAR  L(BCC_A2,HO,PD:VA;0),,            +100000;,,                    N 00Du !
 PAR  L(HCP_A3,HO,PD:VA;0),,            +100000;,,                    N 00Du !
$
 PAR  G(HO5PD2,HO:PD),,                 +5*GHSERHO+2*GHSERPD
             -456514+115.803*T;,,                                     N 00Du !
 PAR  G(HO3PD2_D5A,HO:PD),,             +3*GHSERHO+2*GHSERPD
             -411288+96.597*T;,,                                      N 00Du !
$
 PAR  G(HOPD_B27,HO:PD),,               +GHSERHO+GHSERPD
             -170644+27.867*T;,,                                      N 00Du !
 PAR  L(HOPD_B27,HO:HO,PD;0),,          -2172032;,,                   N 00Du !
$
 PAR  G(HOPD_B2,HO:PD),,                +GHSERHO+GHSERPD
             -169121+26.231*T;,,                                      N 00Du !
 PAR  L(HOPD_B2,HO:HO,PD;0),,           -1885177;,,                   N 00Du !
$
 PAR  G(HO3PD4,HO:PD),,                 +3*GHSERHO+4*GHSERPD
             -585488+82.039*T;,,                                      N 00Du !
 PAR  G(HO2PD3_LT,HO:PD),,              +2*GHSERHO+3*GHSERPD
             -414878+59.179*T;,,                                      N 00Du !
 PAR  G(HO2PD3_HT,HO:PD),,              +2*GHSERHO+3*GHSERPD
             -414689+59.044*T;,,                                      N 00Du !
 PAR  G(HO10PD21,HO:PD),,               +10*GHSERHO+21*GHSERPD
             -2515784+380.198*T;,,                                    N 00Du !
$
 PAR  G(HOPD3_L12,HO:PD),,              +GHSERHO+3*GHSERPD
             -311240+47.839*T;,,                                      N 00Du !
 PAR  L(HOPD3_L12,HO,PD:PD;0),,         -27454;,,                     N 00Du !
$
 PAR  G(HOPD7,HO:PD),,                  +GHSERHO+7*GHSERPD
             -352622+62.417*T;,,                                      N 00Du !
$ ------------------------------------------------------------------------------
$
$
 LIST-OF-REFERENCE
 NUMBER  SOURCE
  Null   'Unknown source'
  Same   'Same or similar interaction as in the corresponding stable phase'
  COST   'COST 507 database'
  91Din  'A.T. Dinsdale, Calphad, 15, 317-425(1991).'
  00Du   'Z. Du, H. Yang, T. Liu, Z. Metallkd., 91, 963-66(2000); Ho-Pd'
  03Cac  'G. Cacciamani, S. De Negri, A. Saccone, R. Ferro,
          Intermetallics, 11, 1135-51(2003); Dy, Gd, Ho'
  06Vre  'J. Vrestal, J. Pinkas, A. Watson, A. Scott, J. Houserova, A. Kroupa,
          Calphad, 30, 14-17(2006), SGTE unary database V.5.0, 2009; Pd'
  09Wan1 'C.P. Wang, H.L. Zhang, S.L. Wang, Z. Lin, X.J. Liu, A.T. Tang,
          F.S. Pan, J. Alloys Compd., 481, 291-95(2009); Ho, Ho-Mn'
!
