$
$ Database for Gd-Ni from X. Su et al. 1996
$
$ X. Su, W. Zhang, Z. Du, Rare Met., 15, 275-81(1996).
$
$ Dataset created 2018.01.11 by Bengt Hallstedt.
$ 2021.01.03: Modified for use with GES6.
$
$ Note! using old Gd data from 91Din.
$
$ No fcc, bcc or hcp interactions included in the paper. In SGSOL +100000 is
$ used, but this is not necessary.
$
$ With 91Din data for Gd the invariant equilibria in the paper are mostly
$ matched. For some reason the hcp-bcc equilibrium for pure Gd is given as
$ 1508 K in the paper, which matches the new data for Gd. With the old data
$ this temperature is at 1535 K.
$
$ GdNi2 and GdNi3 are not stable at 200 K.
$
$ There is an inverse miscibility gap with a minimum at 4943 K and x(Ni)=0.35.
$
$ ------------------------------------------------------------------------------
 TEMP-LIM 298.15 6000.00 !
$
$ELEMENT NAME  REF. STATE               ATOMIC MASS H298-H0    S298    !
$
 ELEMENT VA   VACUUM                      0.0          0.0      0.0    ! 
 ELEMENT GD   HCP_A3                    157.25      9087.648   68.0894 ! 
 ELEMENT NI   FCC_A1                     58.69      4787.0     29.7955 ! 
$ ------------------------------------------------------------------------------
$ Phase definitions
$
 PHASE LIQUID:L % 1 1 !
 CONST LIQUID:L : GD NI : !
$
$ Fcc (cF4, Fm-3m) and MeX (cF8, Fm-3m)
$
 PHASE FCC_A1 %A 2 1 1 !
 CONST FCC_A1 : GD NI% : VA : !
$
$ Bcc (cI2, Im-3m)
$
 PHASE BCC_A2 %B 2 1 3 !
 CONST BCC_A2 : GD% NI : VA : !
$
$ Hcp (hP2, P6_3/mmc) and Me2X (NiAs-type, hP4, P6_3/mmc, B8_1)
$
 PHASE HCP_A3 % 2 1 0.5 !
 CONST HCP_A3 : GD% NI : VA : !
$
$ Prototype Fe3C (oP16, Pnma)
$
 PHASE GD3NI_D011 % 2 3 1 !
 CONST GD3NI_D011 : GD : NI : !
$
$ Pearson t*20
$
 PHASE GD3NI2 % 2 3 2 !
 CONST GD3NI2 : GD : NI : !
$
$ Prototype CrB (oC8, Cmcm)
$
 PHASE GDNI_B33 % 2 1 1 !
 CONST GDNI_B33 : GD : NI : !
$
$ Prototype Cu2Mg (cF24, Fd-3m)
$
 PHASE GDNI2_C15 % 2 1 2 !
 CONST GDNI2_C15 : GD : NI : !
$
$ Prototype Ni3Pu (hR12, R-3m)
$
 PHASE GDNI3 % 2 1 3 !
 CONST GDNI3 : GD : NI : !
$
$ Prototype Co7Gd2 (hR18, R-3m, low T) and Ce2Ni7 (hP36, P6_3/mmc, high T)
$
 PHASE GD2NI7 % 2 2 7 !
 CONST GD2NI7 : GD : NI : !
$
$ Prototype Co19Sm5 (hP48, P63/mmc, 194)
$
 PHASE GDNI4 % 2 1 4 !
 CONST GDNI4 : GD : NI : !
$
$ Prototype CaCu5 (hP6, P6/mmm)
$
 PHASE GDNI5_D2D % 2 1 5 !
 CONST GDNI5_D2D : GD : NI : !
$
$ Prototype Ni17Th2 (hP38, P6_3/mmc)
$
 PHASE GD2NI17 % 2 2 17 !
 CONST GD2NI17 : GD : NI : !
$ ------------------------------------------------------------------------------
$ Defaults
$
 DEFINE-SYSTEM-DEFAULT ELEMENT 2 !
 DEFAULT-COM DEFINE_SYSTEM_ELEMENT VA !
 TYPE-DEF % SEQ * !
 TYPE-DEF A GES AMEND_PHASE_DESCRIPTION @ MAGNETIC -3 0.28 !
 TYPE-DEF B GES AMEND_PHASE_DESCRIPTION @ MAGNETIC -1 0.4 !
 FUNCTION ZERO      298.15  0;                                         6000 N !
 FUNCTION UN_ASS    298.15  0;                                         6000 N !
 FUNCTION R         298.15  +8.31451;                                  6000 N !
$ ------------------------------------------------------------------------------
$ Element data
$ ------------------------------------------------------------------------------
$ Gd
$
$ Note! using old Gd data from 91Din.
$
$ HCP_A3, BCC_A2 and LIQUID revised in unary 3.0
$ Small correction made to top two temperature ranges of bcc_A2 to ensure 
$ continuity in Gibbs energy, AD, Dec 2002
$ FCC_A1 added in unary 4.4
$
$ FCC_A1 from 03Cac not included in unary
$
 PAR  G(HCP_A3,GD:VA)           200.00  +GHSERGD;                3600 N 91Din !
$PAR  TC(HCP_A3,GD:VA)          200.00    293.4;                 3600 N 95She2 !
$PAR  BM(HCP_A3,GD:VA)          200.00      3.0;                 3600 N 95She2 !
 PAR  TC(HCP_A3,GD:VA)          200.00    291.8;                 3600 N 91Din !
 PAR  BMAGN(HCP_A3,GD:VA)       200.00      3.0;                 3600 N 91Din !
 PAR  G(FCC_A1,GD:VA)           200.00  +GHSERGD+500;            3600 N 00Zin !
$PAR  G(FCC_A1,GD:VA)           200.00  +GHSERGD
$            +1800-0.831451*T;                                   3600 N 03Cac !
 PAR  G(BCC_A2,GD:VA)           200.00  +GBCCGD;                 3600 N 91Din !
 PAR  G(LIQUID,GD)              200.00  +GLIQGD;                 3600 N 91Din !
$
 FUNCTION GHSERGD   200.00  -11600.525+151.111948*T-32.5013*T*LN(T)
       +0.00281265*T**2-1.081237E-06*T**3+421363*T**(-1);
      1300.00  Y  -8106.163+115.953605*T-27.459*T*LN(T)
       -2.76123E-04*T**2-7.37325E-07*T**3;
      1535.00  Y  -125618.511+711.994197*T-103.403757*T*LN(T)
       +0.015817949*T**2-6.72548E-07*T**3+30183452*T**(-1);
      3600.00  N !
 FUNCTION GBCCGD    200.00  +3572.085-2.304997*T+GHSERGD;  
      1000.00  Y  +86879.486-747.960507*T+95.1961984*T*LN(T)
       -0.072542756*T**2+7.116157E-06*T**3-12664161*T**(-1);
      1535.00  Y  -14097.626+192.503674*T-37.656*T*LN(T);
      1587.00  Y  -18620.027+217.622313*T-40.9284427*T*LN(T)
       +9.53751E-04*T**2-4.1967E-08*T**3+1107440*T**(-1);
      3600.00  N !
 FUNCTION GLIQGD    200.00  +13557.615-8.612727*T+GHSERGD;  
      1000.00  Y  +80721.646-609.764875*T+74.8351133*T*LN(T)
       -0.061538012*T**2+6.061728E-06*T**3-10325075*T**(-1);
      1535.00  Y  -3485.133+182.116258*T-37.1539*T*LN(T);
      3600.00  N !
$ ------------------------------------------------------------------------------
$ Ni
$
$ FCC_A1 and LIQUID modified in unary 5.0 (slight change in upper T interval)
$ BCT_A5 added in unary 5.0
$
 PAR  G(FCC_A1,NI:VA),,                 +GHSERNI;                3000 N 91Din !
 PAR  TC(FCC_A1,NI:VA),,                  633.00;                3000 N 91Din !
 PAR  BM(FCC_A1,NI:VA),,                    0.52;                3000 N 91Din !
 PAR  G(BCC_A2,NI:VA),,                 +GHSERNI
             +8715.084-3.556*T;                                  3000 N 91Din !
 PAR  TC(BCC_A2,NI:VA),,                  575.00;                3000 N 91Din !
 PAR  BM(BCC_A2,NI:VA),,                    0.85;                3000 N 91Din !
 PAR  G(HCP_A3,NI:VA),,                 +GHSERNI+1046+1.255*T;   3000 N 91Din !
 PAR  TC(HCP_A3,NI:VA),,                  633.00;                3000 N 91Din !
 PAR  BM(HCP_A3,NI:VA),,                    0.52;                3000 N 91Din !
$PAR  G(BCT_A5,NI),,                    +GHSERNI+10023-4.556*T;  3000 N 99Gho !
$PAR  G(CUB_A13,NI:VA),,                +GHSERNI+2092;           3000 N 91Din !
$PAR  G(CBCC_A12,NI:VA),,               +GHSERNI+3556;           3000 N 91Din !
 PAR  G(LIQUID,NI),,                    +GLIQNI;                 3000 N 91Din !
$
 FUNCTION GHSERNI   298.15  -5179.159+117.854*T-22.096*T*LN(T)-0.0048407*T**2;
      1728.00  Y  -27840.62+279.134977*T-43.1*T*LN(T)+1.12754E+31*T**(-9);
      3000.00  N !
 FUNCTION GLIQNI    298.15  +16414.686-9.397*T+GHSERNI-3.82318E-21*T**7;
      1728.00  Y  -9549.817+268.597977*T-43.1*T*LN(T);
      3000.00  N !
 FUNCTION GBCCNI    298.15  +GHSERNI+8715.084-3.556*T;                 6000 N !
$ ------------------------------------------------------------------------------
$ Binary system
$
$ X. Su, W. Zhang, Z. Du, Rare Met., 15, 275-81(1996).
$
$ Checked against paper. Checked at 6000 K.
$
$ Note! using old Gd data from 91Din.
$
$ No fcc, bcc or hcp interactions included in the paper. In SGSOL +100000 is
$ used, but this is not necessary.
$
$ With 91Din data for Gd the invariant equilibria in the paper are mostly
$ matched. For some reason the hcp-bcc equilibrium for pure Gd is given as
$ 1508 K in the paper, which matches the new data for Gd. With the old data
$ this temperature is at 1535 K.
$
$ GdNi2 and GdNi3 are not stable at 200 K.
$
$ There is an inverse miscibility gap with a minimum at 4943 K and x(Ni)=0.35.
$
 PAR  L(LIQUID,GD,NI;0),,               -145786+44.1425*T;,,          N 96Su !
 PAR  L(LIQUID,GD,NI;1),,               +46608.5-5.4013*T;,,          N 96Su !
$
 PAR  G(GD3NI_D011,GD:NI),,             +3*GHSERGD+GHSERNI
             -56780-1.3596*T;,,                                       N 96Su !
 PAR  G(GD3NI2,GD:NI),,                 +3*GHSERGD+2*GHSERNI
             -112393+1.6792*T;,,                                      N 96Su !
 PAR  G(GDNI_B33,GD:NI),,               +GHSERGD+GHSERNI
             -51436-2.0408*T;,,                                       N 96Su !
 PAR  G(GDNI2_C15,GD:NI),,              +GHSERGD+2*GHSERNI
             -82940+4.0538*T;,,                                       N 96Su !
 PAR  G(GDNI3,GD:NI),,                  +GHSERGD+3*GHSERNI
             -115074+13.258*T;,,                                      N 96Su !
 PAR  G(GD2NI7,GD:NI),,                 +2*GHSERGD+7*GHSERNI
             -262604+36.7803*T;,,                                     N 96Su !
 PAR  G(GDNI4,GD:NI),,                  +GHSERGD+4*GHSERNI
             -143273+21.1332*T;,,                                     N 96Su !
 PAR  G(GDNI5_D2D,GD:NI),,              +GHSERGD+5*GHSERNI
             -163715+25.0853*T;,,                                     N 96Su !
 PAR  G(GD2NI17,GD:NI),,                +2*GHSERGD+17*GHSERNI
             -358560+69.192*T;,,                                      N 96Su !
$ ------------------------------------------------------------------------------
$
$
 LIST-OF-REFERENCE
 NUMBER  SOURCE
  Null   'Unknown source'
  Same   'Same or similar interaction as in the corresponding stable phase'
  REFLAV 'Laves phase convention: G(LAVES,X:X)=+3*GHSERXX+15000'
  91Din  'A.T. Dinsdale, Calphad, 15, 317-425(1991).'
  95She2 'H. Shen, W. Zhang, G. Liu, R. Wang, Z. Du, Report F-95-02,
          University of Science and Technology, Beijing, May 1995,
          SGTE unary database V.3.0, 1996; Gd'
  96Su   'X. Su, W. Zhang, Z. Du, Rare Met., 15, 275-81(1996); Gd-Ni'
  99Gho  'G. Ghosh, Metall. Mater. Trans. A, 30A, 1481-94(1999),
          SGTE unary database V.5.0, 2009; Ni'
  00Zin  'M. Zinkevich, N. Mattern, H. J Seifert,
          J. Phase Equilib., 21, 385-94(2000),
          SGTE unary database V.4.4, 2001; Gd'
  03Cac  'G. Cacciamani, S. De Negri, A. Saccone, R. Ferro,
          Intermetallics, 11, 1135-51(2003); Gd'
!
