$
$ Database for Ge-K from Y. Wang et al. 2012
$
$ Y. Wang, P. Wang, D. Zhao, B. Hu, Y. Du, H. Xu, K. Chang,
$ Calphad, 37, 72-76(2012).
$
$ Dataset created 2016.10.20 by Bengt Hallstedt.
$ 2021.01.03: Modified for use with GES6.
$
$ There is an inverse miscibility gap with a minimum at 2578 K and x(K)=0.17.
$
$ ------------------------------------------------------------------------------
 TEMP-LIM 298.15 6000.00 !
$
$ELEMENT NAME  REF. STATE               ATOMIC MASS H298-H0    S298    !
$
 ELEMENT VA   VACUUM                      0.0          0.0      0.0    ! 
 ELEMENT GE   DIAMOND_A4                 72.59      4636.0     31.09   ! 
 ELEMENT K    BCC_A2                     39.0983    7088.      64.68   ! 
$ ------------------------------------------------------------------------------
$ Phase definitions
$
 PHASE LIQUID:L % 1 1 !
 CONST LIQUID:L : GE K : !
$
$ Fcc (cF4, Fm-3m) and MeX (cF8, Fm-3m)
$
 PHASE FCC_A1 %A 2 1 1 !
 CONST FCC_A1 : GE K : VA : !
$
$ Bcc (cI2, Im-3m)
$
 PHASE BCC_A2 %B 2 1 3 !
 CONST BCC_A2 : GE K% : VA : !
$
$ Hcp (hP2, P6_3/mmc) and Me2X (NiAs-type, hP4, P6_3/mmc, B8_1)
$
 PHASE HCP_A3 %A 2 1 0.5 !
 CONST HCP_A3 : GE K : VA: !
$
$ Prototype C (cF8, Fd-3m)
$
 PHASE DIAMOND_A4 % 1 1 !
 CONST DIAMOND_A4 : GE : !
$
$ Pearson cP*
$
 PHASE GE4K % 2 4 1 !
 CONST GE4K : GE : K : !
$
$ Prototype GeK (cP64, P-43n)
$
 PHASE GEK % 2 1 1 !
 CONST GEK : GE : K : !
$
$ Unknown structure
$
 PHASE GEK3 % 2 1 3 !
 CONST GEK3 : GE : K : !
$ ------------------------------------------------------------------------------
$ Defaults
$
 DEFINE-SYSTEM-DEFAULT ELEMENT 2 !
 DEFAULT-COM DEFINE_SYSTEM_ELEMENT VA !
 TYPE-DEF % SEQ * !
 TYPE-DEF A GES AMEND_PHASE_DESCRIPTION @ MAGNETIC -3 0.28 !
 TYPE-DEF B GES AMEND_PHASE_DESCRIPTION @ MAGNETIC -1 0.4 !
 FUNCTION ZERO      298.15  0;                                         6000 N !
 FUNCTION UN_ASS    298.15  0;                                         6000 N !
 FUNCTION R         298.15  +8.31451;                                  6000 N !
$ ------------------------------------------------------------------------------
$ Element data
$ ------------------------------------------------------------------------------
$ Ge
$
$ BCT_A5 and RHOMBOHEDRAL_A7 added in unary 4.1
$
 PAR  G(DIAMOND_A4,GE),,                +GHSERGE;                3200 N 91Din !
 PAR  G(FCC_A1,GE:VA),,                 +GHSERGE+36000-22.3*T;   3200 N 91Din !
 PAR  G(BCC_A2,GE:VA),,                 +GHSERGE+34100-23.5*T;   3200 N 91Din !
 PAR  G(HCP_A3,GE:VA),,                 +GHSERGE+35000-21.5*T;   3200 N 91Din !
$PAR  G(BCT_A5,GE),,                    +GHSERGE+28800-16.5*T;   3600 N 99SGUN !
$PAR  G(RHOMBOHEDRAL_A7,GE),,           +GHSERGE+29800-16.5*T;   3600 N 99SGUN !
 PAR  G(LIQUID,GE),,                    +GLIQGE;                 3200 N 91Din !
$
 FUNCTION GHSERGE   298.15  -9486.153+165.635573*T-29.5337682*T*LN(T)
       +0.005568297*T**2-1.513694E-06*T**3+163298*T**(-1);
       900.00  Y  -5689.239+102.86087*T-19.8536239*T*LN(T)-0.003672527*T**2;
      1211.40  Y  -9548.204+156.708024*T-27.6144*T*LN(T)-8.59809E+28*T**(-9);
      3200.00  N !
 FUNCTION GLIQGE    298.15  +37141.489-30.687043*T+GHSERGE+8.56632E-21*T**7;
      1211.40  Y  +27243.473+126.324186*T-27.6144*T*LN(T);
      3200.00  N !
$ ------------------------------------------------------------------------------
$ K
$
 PAR  G(BCC_A2,K:VA)            200.00  +GHSERKK;                2200 N 91Din !
 PAR  G(HCP_A3,K:VA)            200.00  +GHSERKK+50+2*T;         2200 N 91Din !
 PAR  G(FCC_A1,K:VA)            200.00  +GHSERKK+50+1.3*T;       2200 N 91Din !
 PAR  G(LIQUID,K)               200.00  +GLIQKK;                 2200 N 91Din !
$
 FUNCTION GHSERKK   200.00  -16112.929+389.624197*T-77.0571464*T*LN(T)
       +0.146211135*T**2-8.4949147E-05*T**3+243385*T**(-1);
       336.53  Y  -11122.441+192.586544*T-39.2885968*T*LN(T)
       +0.012167386*T**2-2.64387E-06*T**3+43251*T**(-1)+1.19223E+22*T**(-9);
      2200.00  N !
 FUNCTION GLIQKK    200.00  +2318.096-6.886859*T+GHSERKK-9.44E-19*T**7;
       336.53  Y  +2323.019-6.902217*T+GHSERKK-1.19223E+22*T**(-9);
      2200.00  N !
$ ------------------------------------------------------------------------------
$ Binary system
$
$ Y. Wang, P. Wang, D. Zhao, B. Hu, Y. Du, H. Xu, K. Chang,
$ Calphad, 37, 72-76(2012).
$
$ Checked against paper and author's tdb. Checked at 6000 K.
$
$ There is an inverse miscibility gap with a minimum at 2578 K and x(K)=0.17.
$
 PAR  L(LIQUID,GE,K;0),,                -144204+39.985*T;,,           N 12Wan !
 PAR  L(LIQUID,GE,K;1),,                -43739+39.9*T;,,              N 12Wan !
$
 PAR  L(BCC_A2,GE,K:VA;0),,             +UN_ASS;,,                    N !
$
 PAR  G(GE4K,GE:K),,                    +4*GHSERGE+GHSERKK
             -82085-30*T;,,                                           N 12Wan !
 PAR  G(GEK,GE:K),,                     +GHSERGE+GHSERKK
             -41800-22.356*T;,,                                       N 12Wan !
 PAR  G(GEK3,GE:K),,                    +GHSERGE+3*GHSERKK
             -77260-29.448*T;,,                                       N 12Wan !
$ ------------------------------------------------------------------------------
$
$
 LIST-OF-REFERENCE
 NUMBER  SOURCE
  Null   'Unknown source'
  Same   'Same or similar interaction as in the corresponding stable phase'
  REFLAV 'Laves phase convention: G(LAVES,X:X)=+3*GHSERXX+15000'
  COST   'COST 507 database'
  91Din  'A.T. Dinsdale, Calphad, 15, 317-425(1991).'
  99SGUN 'SGTE unary database V.4.1, 1999.'
  12Wan  'Y. Wang, P. Wang, D. Zhao, B. Hu, Y. Du, H. Xu, K. Chang,
          Calphad, 37, 72-76(2012); Ge-K'
!
