$
$ Database for Mg-Tb from C. Guo and Z. Du 2006
$
$ C. Guo, Z. Du, J. Alloys Compd., 422, 102-8(2006).
$
$ Dataset created 2010.09.26 by Bengt Hallstedt.
$ 2021.01.24: Modified for use with GES6.
$
$ ------------------------------------------------------------------------------
 TEMP-LIM 298.15 6000.00 !
$
$ELEMENT NAME  REF. STATE               ATOMIC MASS H298-H0    S298    !
$
 ELEMENT VA   VACUUM                      0.0          0.0      0.0    ! 
 ELEMENT MG   HCP_A3                     24.305     4998.      32.671  !
 ELEMENT TB   HCP_A3                    158.9254    9426.552   73.3037 ! 
$ ------------------------------------------------------------------------------
$ Phase definitions
$
 PHASE LIQUID:L % 1 1 !
 CONST LIQUID:L : MG TB : !
$
$ Fcc (cF4, Fm-3m) and MeX (cF8, Fm-3m)
$
 PHASE FCC_A1 %A 2 1 1 !
 CONST FCC_A1 : MG : VA : !
$
$ Bcc (cI2, Im-3m)
$
 PHASE BCC_A2 %B 2 1 3 !
 CONST BCC_A2 : MG TB% : VA : !
$
$ Prototype CsCl (cP2, Pm-3m)
$
 PHASE B2_BCC %BO 3 0.5 0.5 3 !
 CONST B2_BCC : MG% TB : MG TB% : VA : !
$
$ Hcp (hP2, P6_3/mmc) and Me2X (NiAs-type, hP4, P6_3/mmc, B8_1)
$
 PHASE HCP_A3 %A 2 1 0.5 !
 CONST HCP_A3 : MG TB : VA : !
$
$ Prototype Cd45Sm11 (vF448, F-43m)
$
 PHASE MG5M % 2 5 1 !
 CONST MG5M : MG : TB : !
$
$ Prototype alpha-Mn (cI58, I-43m)
$ Pauling file lists Re24Ti5 as prototype
$
 PHASE MG24TB5_A12 % 2 24 5 !
 CONST MG24TB5_A12 : MG : TB : !
$
$ Prototype BiF3 (cF16, Fm-3m)
$
 PHASE MG3M_D03 % 2 3 1 !
 CONST MG3M_D03 : MG : MG TB% : !
$
$ Prototype MgZn2 (hP12, P6_3/mmc)
$
 PHASE MG2TB_C14 % 2 2 1 !
 CONST MG2TB_C14 : MG : MG TB% : !
$ ------------------------------------------------------------------------------
$ Defaults
$
 DEFINE-SYSTEM-DEFAULT ELEMENT 2 !
 DEFAULT-COM DEFINE_SYSTEM_ELEMENT VA !
 TYPE-DEF % SEQ * !
 TYPE-DEF A GES AMEND_PHASE_DESCRIPTION @ MAGNETIC -3 0.28 !
 TYPE-DEF B GES AMEND_PHASE_DESCRIPTION @ MAGNETIC -1 0.4 !
 TYPE-DEF O GES AMEND_PHASE_DESCRIPTION B2_BCC DIS_PART BCC_A2 !
 FUNCTION ZERO      298.15  0;                                         6000 N !
 FUNCTION UN_ASS    298.15  0;                                         6000 N !
 FUNCTION R         298.15  +8.31451;                                  6000 N !
 FUNCTION RTLNP     298.15  +8.31451*T*LN(1E-05*P);                    6000 N !
$ ------------------------------------------------------------------------------
$ Element data
$ ------------------------------------------------------------------------------
$ Mg
$
 PAR  G(HCP_A3,MG:VA),,                 +GHSERMG;                3000 N 91Din !
 PAR  G(FCC_A1,MG:VA),,                 +GHSERMG+2600-0.9*T;     3000 N 91Din !
 PAR  G(BCC_A2,MG:VA),,                 +GHSERMG+3100-2.1*T;     3000 N 91Din !
$PAR  G(CBCC_A12,MG:VA),,               +GHSERMG
$            +4602.4-3.011*T;                                    3000 N 91Din !
$PAR  G(CUB_A13,MG:VA),,                +GHSERMG+5000-3*T;       3000 N 91Din !
 PAR  G(LIQUID,MG),,                    +GLIQMG;                 3000 N 91Din !
$
 PAR  G(MG3M_D03,MG:MG),,               +4*GBCCMG;,,                  N 06Guo !
 PAR  G(MG2TB_C14,MG:MG),,              +3*GHSERMG;,,                 N 06Guo !
$
 FUNCTION GHSERMG   298.15  -8367.34+143.675547*T-26.1849782*T*LN(T)
       +4.858E-04*T**2-1.393669E-06*T**3+78950*T**(-1);
       923.00  Y  -14130.185+204.716215*T-34.3088*T*LN(T)+1.038192E+28*T**(-9);
      3000.00  N !
 FUNCTION GLIQMG    298.15  +8202.243-8.83693*T+GHSERMG-8.0176E-20*T**7;
       923.00  Y  -5439.869+195.324057*T-34.3088*T*LN(T);
      3000.00  N !
 FUNCTION GBCCMG    298.15  +GHSERMG+3100-2.1*T;                       3000 N !
$ ------------------------------------------------------------------------------
$ Tb
$
 PAR  G(HCP_A3,TB:VA),,                 +GHSERTB;                3000 N 91Din !
 PAR  G(BCC_A2,TB:VA),,                 +GBCCTB;                 3000 N 91Din !
 PAR  G(LIQUID,TB),,                    +GLIQTB;                 3000 N 91Din !
$
 FUNCTION GHSERTB   298.15  -20842.158+409.309555*T-77.5006*T*LN(T)
       +0.0832265*T**2-2.5672833E-05*T**3+562430*T**(-1);
       600.00  Y  -8772.606+102.61162*T-25.8659*T*LN(T)
       -0.002757005*T**2-8.05838E-07*T**3+172355*T**(-1);
      1200.00  Y  -7944.942+101.7776*T-25.9584*T*LN(T)
       -0.001676335*T**2-1.067632E-06*T**3;
      1562.00  Y  -265240.309+1456.04268*T-200.215695*T*LN(T)
       +0.041615159*T**2-2.044697E-06*T**3+65043790*T**(-1);
      3000.00  N !
 FUNCTION GBCCTB    298.15  +4167.835-2.652707*T+GHSERTB;
      1200.00  Y  +633060.245-5157.77779*T+706.580596*T*LN(T)
       -0.373763517*T**2+3.4100235E-05*T**3-1.03233571E+08*T**(-1);
      1562.00  Y  -23398.029+257.388486*T-46.4842*T*LN(T);
      3000.00  N !
 FUNCTION GLIQTB    298.15  +3945.831+29.867521*T-14.252646*T*LN(T)
       -0.020466105*T**2+2.17475E-06*T**3-160724*T**(-1);
      1562.00  Y  -13247.649+251.16889*T-46.4842*T*LN(T);
      3000.00  N !
$ ------------------------------------------------------------------------------
$ Binary system
$
$ C. Guo, Z. Du, J. Alloys Compd., 422, 102-8(2006).
$
$ Checked against paper. Checked at 6000 K.
$
 PAR  L(LIQUID,MG,TB;0),,               -19784-1.7286*T;,,            N 06Guo !
 PAR  L(LIQUID,MG,TB;1),,               -17961.4+2.3875*T;,,          N 06Guo !
$
 PAR  L(BCC_A2,MG,TB:VA;0),,            -28180.4+7.5387*T;,,          N 06Guo !
 PAR  L(BCC_A2,MG,TB:VA;1),,            -11843.1+4.6075*T;,,          N 06Guo !
$
 PAR  G(B2_BCC,MG:TB:VA),,              -39015+4.5371*T;,,            N 06Guo !
 PAR  G(B2_BCC,TB:MG:VA),,              -39015+4.5371*T;,,            N 06Guo !
 PAR  L(B2_BCC,MG,TB:MG:VA;0),,         -34489.7-5.9417*T;,,          N 06Guo !
 PAR  L(B2_BCC,MG:MG,TB:VA;0),,         -34489.7-5.9417*T;,,          N 06Guo !
 PAR  L(B2_BCC,MG,TB:MG:VA;1),,         -11795.6;,,                   N 06Guo !
 PAR  L(B2_BCC,MG:MG,TB:VA;1),,         -11795.6;,,                   N 06Guo !
$
 PAR  L(HCP_A3,MG,TB:VA;0),,            -11943.9+7.0458*T;,,          N 06Guo !
 PAR  L(HCP_A3,MG,TB:VA;1),,            -16392.1+16.5975*T;,,         N 06Guo !
$
 PAR  G(MG5M,MG:TB),,                   +5*GHSERMG+GHSERTB
             -37939.3+2.8704*T;,,                                     N 06Guo !
 PAR  G(MG24TB5_A12,MG:TB),,            +24*GHSERMG+5*GHSERTB
             -188189.1+13.2101*T;,,                                   N 06Guo !
$
 PAR  G(MG3M_D03,MG:TB),,               +3*GHSERMG+GHSERTB
             -35192.1+3*T;,,                                          N 06Guo !
 PAR  L(MG3M_D03,MG:MG,TB;0),,          +4938.5;,,                    N 06Guo !
$
 PAR  G(MG2TB_C14,MG:TB),,              +2*GHSERMG+GHSERTB
             -31206.1+1.2087*T;,,                                     N 06Guo !
 PAR  L(MG2TB_C14,MG:MG,TB;0),,         +17161.3;,,                   N 06Guo !
$ ------------------------------------------------------------------------------
$
$
 LIST-OF-REFERENCE
 NUMBER  SOURCE
  Null   'Unknown source'
  COST   'COST 507 database'
  91Din  'A.T. Dinsdale, Calphad, 15, 317-425(1991).'
  06Guo  'C. Guo, Z. Du, J. Alloys Compd., 422, 102-8(2006); Mg-Tb'
!
