$
$ Database for Bi-Li from Y. Liu et al. 2013.
$
$ Y. Liu, Z. Kang, J. Wang, Thermochim. Acta, 558, 53-60(2013).
$
$ Dataset created 2018.04.29 by Bengt Hallstedt.
$ 2020.12.25: Modified for use with GES6.
$ 2023.02.24: Unary Bi changed from V4.4 to V5.0.
$
$ ------------------------------------------------------------------------------
 TEMP-LIM 298.15 6000.00 !
$
$ELEMENT NAME  REF. STATE               ATOMIC MASS H298-H0    S298    !
$
 ELEMENT VA   VACUUM                      0.0          0.0      0.0    ! 
 ELEMENT BI   RHOMBOHEDRAL_A7           208.98      6426.6     56.735  !
 ELEMENT LI   BCC_A2                      6.941     4632.00    29.12   ! 
$ ------------------------------------------------------------------------------
$ Species
$
 SPECIE  BILI3                              BI1LI3 !
$ ------------------------------------------------------------------------------
$ Phase definitions
$
 PHASE LIQUID:L % 1 1 !
 CONST LIQUID:L : BI BILI3 LI : !
$
$ Fcc (cF4, Fm-3m) and MeX (cF8, Fm-3m)
$
 PHASE FCC_A1 %A 2 1 1 !
 CONST FCC_A1 : BI LI : VA : !
$
$ Bcc (cI2, Im-3m)
$
 PHASE BCC_A2 %B 2 1 3 !
 CONST BCC_A2 : BI LI% : VA : !
$
$ Hcp (hP2, P6_3/mmc) and Me2X (NiAs-type, hP4, P6_3/mmc, B8_1)
$
 PHASE HCP_A3 %A 2 1 0.5 !
 CONST HCP_A3 : BI LI : VA: !
$
$ Prototype alpha-As (hR2, R-3m)
$
 PHASE RHOMBOHEDRAL_A7 % 1 1 !
 CONST RHOMBOHEDRAL_A7 : BI : !
$
$ Prototype AuCu (tP2, P4/mmm)
$
 PHASE BILI_L10 % 2 1 1 !
 CONST BILI_L10 : BI : LI : !
$
$ unknown structure 
$
 PHASE BILI_HT % 2 1 1 !
 CONST BILI_HT : BI : LI : !
$
$ Prototype BiF3 (cF16, Fm-3m)
$
 PHASE BILI3_D03 % 2 1 3 !
 CONST BILI3_D03 : BI : LI : !
$ ------------------------------------------------------------------------------
$ Defaults
$
 DEFINE-SYSTEM-DEFAULT ELEMENT 2 !
 DEFAULT-COM DEFINE_SYSTEM_ELEMENT VA !
 TYPE-DEF % SEQ * !
 TYPE-DEF A GES AMEND_PHASE_DESCRIPTION @ MAGNETIC -3 0.28 !
 TYPE-DEF B GES AMEND_PHASE_DESCRIPTION @ MAGNETIC -1 0.4 !
 FUNCTION ZERO      298.15  0;                                         6000 N !
 FUNCTION UN_ASS    298.15  0;                                         6000 N !
 FUNCTION R         298.15  +8.31451;                                  6000 N !
$ ------------------------------------------------------------------------------
$ Element data
$ ------------------------------------------------------------------------------
$ Bi
$
$ RHOMBOHEDRAL_A7 and LIQUID modified in unary 5.0
$ DIAMOND_A4 added in unary 5.0
$
 PAR  G(RHOMBOHEDRAL_A7,BI),,           +GHSERBI;                3000 N 09SGUN !
 PAR  G(FCC_A1,BI:VA),,                 +GHSERBI+9900-12.5*T;    3000 N 91Din !
 PAR  G(BCC_A2,BI:VA),,                 +GHSERBI+11297-13.9*T;   3000 N 91Din !
 PAR  G(HCP_A3,BI:VA),,                 +GHSERBI+9900-11.8*T;    3000 N 91Din !
$PAR  G(DIAMOND_A4,BI),,                +GHSERBI
$            +11296.8+9.253655*T;                                3000 N 88Che2 !
$PAR  G(BCT_A5,BI),,                    +GHSERBI+4184.07;        3000 N 91Din !
$PAR  G(TETRAGONAL_A6,BI),,             +GHSERBI+4184.07;        3000 N 91Din !
$PAR  G(TET_ALPHA1_A6,BI),,             +GHSERBI+4234;           3000 N 91Din !
 PAR  G(LIQUID,BI),,                    +GLIQBI;                 3000 N 09SGUN ! 
$
 FUNCTION GHSERBI   298.15  -7817.776+128.418925*T-28.4096529*T*LN(T)
       +0.012338888*T**2-8.381598E-6*T**3;
       544.55  Y  +29293.369-379.605174*T+49.678*T*LN(T)
       -0.0730245*T**2+1.3052833E-5*T**3-3544705*T**(-1)+1.66309E+25*T**(-9);
       800.00  Y  -11085.609+182.955328*T-36.041*T*LN(T)
       +7.4641E-3*T**2-1.05047E-6*T**3+5175*T**(-1)+1.66309E+25*T**(-9);
      1200.00  Y  -7580.864+124.770814*T-27.196*T*LN(T)+1.66309E+25*T**(-9);
      3000.00  N !
 FUNCTION GLIQBI    298.15  +11246.017-20.636399*T+GHSERBI-5.9608E-19*T**7;
       544.55  Y  +40629.667-400.415652*T+49.678*T*LN(T)
       -0.0730245*T**2+1.3052833E-5*T**3-3544705*T**(-1);
       800.00  Y  +250.689+162.14485*T-36.041*T*LN(T)
       +0.0074641*T**2-1.05047E-6*T**3+5175*T**(-1);
      1200.00  Y  +3755.434+103.960336*T-27.196*T*LN(T);
      3000.00 N !
$ ------------------------------------------------------------------------------
$ Li
$
 PAR  G(BCC_A2,LI:VA)           200.00  +GHSERLI;                3000 N 91Din !
 PAR  G(FCC_A1,LI:VA)           200.00  +GHSERLI-108+1.3*T;      3000 N 91Din !
 PAR  G(HCP_A3,LI:VA)           200.00  +GHSERLI-154+2*T;        3000 N 91Din !
 PAR  G(LIQUID,LI)              200.00  +GLIQLI;                 3000 N 91Din !
$
 FUNCTION GHSERLI   200.00  -10583.817+217.637482*T-38.940488*T*LN(T)
       +0.035466931*T**2-1.9869816E-05*T**3+159994*T**(-1);
       453.60  Y  -559579.123+10547.8799*T-1702.88865*T*LN(T)
       +2.25832944*T**2-5.71066077E-04*T**3+33885874*T**(-1);
       500.00  Y  -9062.994+179.278285*T-31.2283718*T*LN(T)
       +0.002633221*T**2-4.38058E-07*T**3-102387*T**(-1);
      3000.00  N !
 FUNCTION GLIQLI    200.00  +2700.205-5.795621*T+GHSERLI;
       250.00  Y  +12015.027-362.187078*T+61.6104424*T*LN(T)
       -0.182426463*T**2+6.3955671E-05*T**3-559968*T**(-1);
       453.60  Y  -6057.31+172.652183*T-31.2283718*T*LN(T)
       +0.002633221*T**2-4.38058E-07*T**3-102387*T**(-1);
       500.00  Y  +3005.684-6.626102*T+GHSERLI;
      3000.00  N !
$ ------------------------------------------------------------------------------
$ Binary system
$
$ Y. Liu, Z. Kang, J. Wang, Thermochim. Acta, 558, 53-60(2013).
$
$ Checked against paper. Checked at 6000 K.
$
 PAR  G(LIQUID,BILI3),,                 +GLIQBI+3*GLIQLI
             -210000+32*T;,,                                          N 13Liu !
 PAR  L(LIQUID,BI,BILI3;0),,            -11000-34*T;,,                N 13Liu !
 PAR  L(LIQUID,BI,BILI3;1),,            -12000+9*T;,,                 N 13Liu !
 PAR  L(LIQUID,BI,BILI3;2),,            -6000-8*T;,,                  N 13Liu !
 PAR  L(LIQUID,BILI3,LI;0),,            -13000+10*T;,,                N 13Liu !
 PAR  L(LIQUID,BILI3,LI;1),,            +9000-4*T;,,                  N 13Liu !
$
 PAR  L(BCC_A2,BI,LI:VA;0),,            +UN_ASS;,,                    N !
$
 PAR  G(BILI_L10,BI:LI),,               +GHSERBI+GHSERLI
             -82800+3.66103*T;,,                                      N 13Liu !
 PAR  G(BILI_HT,BI:LI),,                +GHSERBI+GHSERLI
             -69853-15.5975*T;,,                                      N 13Liu !
 PAR  G(BILI3_D03,BI:LI),,              +GHSERBI+3*GHSERLI
             -250000+32*T;,,                                          N 13Liu !
$ ------------------------------------------------------------------------------
$
$
 LIST-OF-REFERENCE
 NUMBER  SOURCE
  Null   'Unknown source'
  Same   'Same or similar interaction as in the corresponding stable phase'
  COST   'COST 507 database'
  88Che2 'P.-Y. Chevalier, Thermochim. Acta, 132, 111-16(1988),
          SGTE unary database V.5.0, 2009; Bi' 
  91Din  'A.T. Dinsdale, Calphad, 15, 317-425(1991).'
  09SGUN 'SGTE unary database V.5.0, 2009.'
  13Liu  'Y. Liu, Z. Kang, J. Wang, Thermochim. Acta, 558, 53-60(2013); Bi-Li'
!
