$
$ Database for As-Te from H. Yuan et al. 2020.
$
$ H. Yuan, J. Wang, B. Hu, R. Zhao, Y. Du, S.-Y. Zhang,
$ Calphad, 68, 101743(2020).
$
$ Dataset created 2020.04.05 by Bengt Hallstedt.
$
$ Gas phase data for As are different in 20Yua. The As boiling with this
$ dataset is 4 K higher.
$
$ ------------------------------------------------------------------------------
 TEMP-LIM 298.15 6000.00 !
$
$ELEMENT NAME  REF. STATE               ATOMIC MASS H298-H0    S298    !
$
 ELEMENT VA   VACUUM                      0.0          0.0      0.0    ! 
 ELEMENT AS   RHOMBOHEDRAL_A7            74.922     5117.032   35.6895 ! 
 ELEMENT TE   HEXAGONAL_A8              127.60      6080.      49.221  ! 
$ ------------------------------------------------------------------------------
$ Species
$
 SPECIE  AS2                                AS2 !
 SPECIE  AS4                                AS4 !
 SPECIE  ASTE                               AS1TE1 !
 SPECIE  TE2                                TE2 !
 SPECIE  TE3                                TE3 !
 SPECIE  TE4                                TE4 !
 SPECIE  TE5                                TE5 !
 SPECIE  TE6                                TE6 !
 SPECIE  TE7                                TE7 !
$ ------------------------------------------------------------------------------
$ Phase definitions
$
 PHASE LIQUID:L % 1 1 !
 CONST LIQUID:L : AS TE : !
$
$ Fcc (cF4) and MeX (cF8)
$
 PHASE FCC_A1 %A 2 1 1 !
 CONST FCC_A1 : AS : VA : !
$
$ Bcc (cI2, Im-3m)
$
 PHASE BCC_A2 %B 2 1 3 !
 CONST BCC_A2 : AS : VA : !
$
$ Hcp (hP2, P6_3/mmc) and Me2X (NiAs-type, hP4, P6_3/mmc, B8_1)
$
 PHASE HCP_A3 %A 2 1 0.5 !
 CONST HCP_A3 : AS : VA : !
$
$ Prototype alpha-As (hR2, R-3m)
$
 PHASE RHOMBOHEDRAL_A7 % 1 1 !
 CONST RHOMBOHEDRAL_A7 : AS : !
$
$ Prototype gamma-Se (hP3, P3_121)
$ The phase is named HEXAGONAL_A8 in the SGTE unary database and
$ TRIGONAL_A8 in LB.
$
 PHASE HEXAGONAL_A8 % 1 1 !
 CONST HEXAGONAL_A8 : TE : !
$
$ Prototype As2Te3 (mC20, C2/m)
$
 PHASE AS2TE3 % 2 2 3 !
 CONST AS2TE3 : AS : TE : !
$
 PHASE GAS:G % 1 1 !
 CONST GAS:G : AS AS2 AS4 ASTE TE TE2 TE3 TE4 TE5 TE6 TE7 : !
$ ------------------------------------------------------------------------------
$ Defaults
$
 DEFINE-SYSTEM-DEFAULT ELEMENT 2 !
 DEFAULT-COM DEFINE_SYSTEM_ELEMENT VA !
 TYPE-DEF % SEQ * !
 TYPE-DEF A GES AMEND_PHASE_DESCRIPTION @ MAGNETIC -3 0.28 !
 TYPE-DEF B GES AMEND_PHASE_DESCRIPTION @ MAGNETIC -1 0.4 !
 FUNCTION ZERO      298.15  0;                                         6000 N !
 FUNCTION UN_ASS    298.15  0;                                         6000 N !
 FUNCTION R         298.15  +8.31451;                                  6000 N !
 FUNCTION RTLNP     298.15  +8.31451*T*LN(1E-05*P);                    6000 N !
$ ------------------------------------------------------------------------------
$ Element data
$ ------------------------------------------------------------------------------
$ As
$
$ RED_P added in unary 4.4
$
 PAR  G(RHOMBOHEDRAL_A7,AS),,           +GHSERAS;                1200 N 91Din !
 PAR  G(FCC_A1,AS:VA),,                 +GHSERAS+24874-14.74*T;  1200 N 91Din !
 PAR  G(BCC_A2,AS:VA),,                 +GHSERAS+24874-16.1*T;   1200 N 91Din !
 PAR  G(HCP_A3,AS:VA),,                 +GHSERAS+24874-14*T;     1200 N 91Din !
$PAR  G(RED_P,AS),,                     +GHSERAS+5782-3.85466*T; 1200 N 01SGUN !
 PAR  G(LIQUID,AS),,                    +GHSERAS
             +24442.9-22.424679*T;                               1200 N 91Din !
$
 PAR  G(GAS,AS),,                       +GAS1GAS+RTLNP;,,             N 00SUB !
 PAR  G(GAS,AS2),,                      +GAS2GAS+RTLNP;,,             N 00SUB !
 PAR  G(GAS,AS4),,                      +GAS4GAS+RTLNP;,,             N 00SUB !
$
 FUNCTION GHSERAS   298.15  -7270.447+122.211069*T-23.3144*T*LN(T)
       -0.00271613*T**2+11600*T**(-1);
      1090.00  Y  -10454.913+163.457433*T-29.216037*T*LN(T);
      1200.00  N !
 FUNCTION GLIQAS    298.15  +GHSERAS+24442.9-22.424679*T;              6000 N !
 FUNCTION GHCPAS    298.15  +GHSERAS+24874-14*T;                       6000 N !
$ As(g)
 FUNCTION GAS1GAS   298.15  +272027.85-32.2533338*T-21.21551*T*LN(T)
       +4.3891495E-04*T**2-7.393995E-08*T**3+9666.555*T**(-1);
      1800.00  Y  +293094.184-133.732322*T-8.281945*T*LN(T)
       -0.002703715*T**2+3.43112833E-08*T**3-6025190*T**(-1);
      3700.00  Y  +260892.566-76.0337618*T-14.46743*T*LN(T)
       -0.002830183*T**2+8.062755E-08*T**3+16685580*T**(-1);
      6400.00  Y  -42687.3967+565.669048*T-87.99118*T*LN(T)
       +0.005136275*T**2-8.21615833E-08*T**3+2.534398E+08*T**(-1);
     10000.00  N !
$ As2(g)
 FUNCTION GAS2GAS   298.15  +179351.548+10.5519715*T-37.35966*T*LN(T)
       -5.61806E-05*T**2-2.13098E-08*T**3+104881.15*T**(-1);
      2200.00  Y  +190396.109-11.4088459*T-35.19088*T*LN(T)
       +8.55731E-04*T**2-1.59161083E-07*T**3-5169920*T**(-1);
      4500.00  Y  +461366.155-824.888486*T+62.44495*T*LN(T)
       -0.014841615*T**2+3.152775E-07*T**3-1.469506E+08*T**(-1);
      6000.00  N !
$ As4(g)
 FUNCTION GAS4GAS   298.15  +129731.745+230.754352*T-83.04465*T*LN(T)
       -2.5148475E-05*T**2+1.00444733E-09*T**3+252728.45*T**(-1);   
      6000.00  N !
$ ------------------------------------------------------------------------------
$ Te
$
$ HEXAGONAL_A8 and LIQUID revised in unary 3.0
$
 PAR  G(HEXAGONAL_A8,TE),,              +GHSERTE;                1600 N 95Dav !
 PAR  G(LIQUID,TE),,                    +GLIQTE;                 1600 N 95Dav !
$
 PAR  G(GAS,TE),,                       +GTE1GAS+RTLNP;,,             N 00SUB !
 PAR  G(GAS,TE2),,                      +GTE2GAS+RTLNP;,,             N 00SUB !
 PAR  G(GAS,TE3),,                      +GTE3GAS+RTLNP;,,             N 00SUB !
 PAR  G(GAS,TE4),,                      +GTE4GAS+RTLNP;,,             N 00SUB !
 PAR  G(GAS,TE5),,                      +GTE5GAS+RTLNP;,,             N 00SUB !
 PAR  G(GAS,TE6),,                      +GTE6GAS+RTLNP;,,             N 00SUB !
 PAR  G(GAS,TE7),,                      +GTE7GAS+RTLNP;,,             N 00SUB !
$
 FUNCTION GHSERTE   298.15  -10544.679+183.372894*T-35.6687*T*LN(T)
       +0.01583435*T**2-5.240417E-06*T**3+155015*T**(-1);
       722.66  Y  +9160.595-129.265373*T+13.004*T*LN(T)
       -0.0362361*T**2+5.006367E-06*T**3-1286810*T**(-1);
      1150.00  Y  -12781.349+174.901226*T-32.5596*T*LN(T);
      1600.00  N !
 FUNCTION GLIQTE    298.15  -17554.731+685.877639*T-126.318*T*LN(T)
       +0.2219435*T**2-9.42075E-05*T**3+827930*T**(-1);
       626.49  Y  -3165763.48+46756.357*T-7196.41*T*LN(T)
       +7.09775*T**2-0.00130692833*T**3+2.58051E+08*T**(-1);
       722.66  Y  +180326.959-1500.57909*T+202.743*T*LN(T)
       -0.142016*T**2+1.6129733E-05*T**3-24238450*T**(-1);
      1150.00  Y  +19110.036-26.1929273*T+GHSERTE;
      1600.00  N !
$
$ Te(g)
 FUNCTION GTE1GAS   298.15  +203077-39.3937*T-21.4658*T*LN(T)
       +0.00106813*T**2-3.03132E-07*T**3+9080.15*T**(-1);
      1300.00  Y  +204434-64.4228*T-17.6757*T*LN(T)
       -0.00193648*T**2+8.01703E-08*T**3+123672*T**(-1);
      4100.00  Y  +169215+51.7696*T-31.8142*T*LN(T)
       +6.2125E-04*T**2-7.38245E-09*T**3+16889800*T**(-1);
     10000.00  N !
$ Te2(g)
 FUNCTION GTE2GAS   298.15  +155823-93.7413*T-23.3943*T*LN(T)
       -0.0186449*T**2+2.81237E-06*T**3-164708*T**(-1);
      1000.00  Y  +141003+90.3569*T-50.7498*T*LN(T)
       +0.0026634*T**2-1.91725E-07*T**3+1217270*T**(-1);
      2600.00  Y  +136052+57.9731*T-45.6215*T*LN(T)
       -6.77045E-04*T**2+6.52445E-08*T**3+7374000*T**(-1);
      5800.00  Y  +128152+120.993*T-53.6328*T*LN(T)
       +0.00102992*T**2+9.34818E-09*T**3-1196190*T**(-1);
      6000.00  N !
$ Te3(g)
 FUNCTION GTE3GAS   298.15  +185372+54.5927*T-58.1833*T*LN(T)
       -4.42972E-06*T**2+1.7586E-10*T**3+75006*T**(-1);
      6000.00  N !
$ Te4(g)
 FUNCTION GTE4GAS   298.15  +191687+179.006*T-83.1138*T*LN(T)
       -7.69355E-06*T**2+3.07578E-10*T**3+127262*T**(-1);
      6000.00  N !
$ Te5(g)
 FUNCTION GTE5GAS   298.15  +187059+263.053*T-108.07*T*LN(T)
       -4.33393E-06*T**2+1.71808E-10*T**3+111272*T**(-1);
      6000.00  N !
$ Te6(g)
 FUNCTION GTE6GAS   298.15  +186041+400.857*T-133.016*T*LN(T)
       -3.74116E-06*T**2+1.49701E-10*T**3+128382*T**(-1);
      6000.00  N !
$ Te7(g)
 FUNCTION GTE7GAS   298.15  +206091+501.61*T-157.955*T*LN(T)
       -4.85134E-06*T**2+1.92685E-10*T**3+156512*T**(-1);
      6000.00  N !
$ ------------------------------------------------------------------------------
$ Binary system
$
$ H. Yuan, J. Wang, B. Hu, R. Zhao, Y. Du, S.-Y. Zhang,
$ Calphad, 68, 101743(2020).
$
$ Checked against paper and author's tdb. Checked at 6000 K.
$
$ Gas phase data for As are different in 20Yua. The As boiling with this
$ dataset is 4 K higher.
$
 PAR  L(LIQUID,AS,TE;0),,               -19971+13.377*T;,,            N 20Yua !
$
 PAR  G(AS2TE3,AS:TE),,                 +2*GHSERAS+3*GHSERTE
             -35750+43.42*T;,,                                        N 20Yua !
$
 PAR  G(GAS,ASTE),,                     +F1122T+RTLNP;,,              N 97SUB !
$ AsTe(g)
 FUNCTION F1122T    298.15  +194217.715-23.0880189*T-35.29182*T*LN(T)
       -0.001733468*T**2-2.43846167E-07*T**3+27282.115*T**(-1);
       900.00  Y  +187788.625+19.5011677*T-40.82624*T*LN(T)
       -0.0011174025*T**2+1.05142383E-07*T**3+1132460*T**(-1);
      2300.00  Y  +209027.363-47.5091485*T-32.93887*T*LN(T)
       -0.001678907*T**2+4.211975E-08*T**3-7609540*T**(-1);
      6000.00  N !
$ ------------------------------------------------------------------------------
$
$
 LIST-OF-REFERENCE
 NUMBER  SOURCE
  Null   'Unknown source'
  Same   'Same or similar interaction as in the corresponding stable phase'
  COST   'COST 507 database'
  91Din  'A.T. Dinsdale, Calphad, 15, 317-425(1991).'
  95Dav  'A.V. Davydov, M.H. Rand, B.B. Argent, Calphad, 19, 375-87 (1995); Te'
  97SUB  'SGTE Substance Database, version 1997'
  00SUB  'SGTE Substance Database, version 2000'
  01SGUN 'SGTE unary database V.4.4, 2001.'
  20Yua  'H. Yuan, J. Wang, B. Hu, R. Zhao, Y. Du, S.-Y. Zhang,
          Calphad, 68, 101743(2020); As-Te'
!
