$
$ Database for Ga-Sb from Y. Xie et al. 1997.
$
$ Y. Xie, Z. Qiao, X. Xing, C. Wang, J. Shen, Rare Met., 16, 81-89(1997).
$
$ Dataset created 2022.04.30 by Bengt Hallstedt.
$
$ ------------------------------------------------------------------------------
 TEMP-LIM 298.15 6000.00 !
$
$ELEMENT NAME  REF. STATE               ATOMIC MASS H298-H0    S298    !
$
 ELEMENT VA   VACUUM                      0.0          0.0      0.0    ! 
 ELEMENT GA   ORTHORHOMBIC_GA            69.72      5572.0     40.7271 ! 
 ELEMENT SB   RHOMBOHEDRAL_A7           121.75      5870.152   45.5219 ! 
$ ------------------------------------------------------------------------------
$ Species
$
 SPECIE  GA2                                GA2 !
 SPECIE  GASB                               GA1SB1 !
 SPECIE  SB2                                SB2 !
 SPECIE  SB3                                SB3 !
 SPECIE  SB4                                SB4 !
$ ------------------------------------------------------------------------------
$ Phase definitions
$
 PHASE LIQUID:L % 1 1 !
 CONST LIQUID:L : GA SB : !
$
$ Fcc (cF4, Fm-3m) and MeX (cF8, Fm-3m)
$
 PHASE FCC_A1 %A 2 1 1 !
 CONST FCC_A1 : GA SB : VA : !
$
$ Bcc (cI2, Im-3m)
$
 PHASE BCC_A2 %B 2 1 3 !
 CONST BCC_A2 : GA SB : VA : !
$
$ Hcp (hP2, P6_3/mmc) and Me2X (NiAs-type, hP4, P6_3/mmc, B8_1)
$
 PHASE HCP_A3 %A 2 1 0.5 !
 CONST HCP_A3 : GA SB : VA : !
$
$ Prototype alpha-As (hR2, R-3m)
$
 PHASE RHOMBOHEDRAL_A7 % 1 1 !
 CONST RHOMBOHEDRAL_A7 : SB : !
$
$ alpha-Ga (oC8, Cmca)
$
 PHASE ORTHORHOMBIC_A11 % 1 1 !
 CONST ORTHORHOMBIC_A11 : GA : !
$
$ Prototype ZnS (cF8, F-43m)
$
 PHASE ZINCBLENDE_B3 % 2 1 1 !
 CONST ZINCBLENDE_B3 : GA : SB : !
$
 PHASE GAS:G % 1 1 !
 CONST GAS:G : GA GA2 GASB SB SB2 SB3 SB4 : !
$ ------------------------------------------------------------------------------
$ Defaults
$
 DEFINE-SYSTEM-DEFAULT ELEMENT 2 !
 DEFAULT-COM DEFINE_SYSTEM_ELEMENT VA !
 TYPE-DEF % SEQ * !
 TYPE-DEF A GES AMEND_PHASE_DESCRIPTION @ MAGNETIC -3 0.28 !
 TYPE-DEF B GES AMEND_PHASE_DESCRIPTION @ MAGNETIC -1 0.4 !
 FUNCTION ZERO      298.15  0;                                         6000 N !
 FUNCTION UN_ASS    298.15  0;                                         6000 N !
 FUNCTION R         298.15  +8.31451;                                  6000 N !
 FUNCTION RTLNP     298.15  +8.31451*T*LN(1E-05*P);                    6000 N !
$ ------------------------------------------------------------------------------
$ Element data
$ ------------------------------------------------------------------------------
$ Ga
$
$ DIAMOND_A4 added in unary 5.0
$
$ Changed name from ORTHORHOMBIC_GA to ORTHORHOMBIC_A11
$
 PAR  G(ORTHORHOMBIC_A11,GA)    200.00  +GHSERGA;                4000 N 91Din !
 PAR  G(FCC_A1,GA:VA)           200.00  +GHSERGA+3800-10.2*T;    4000 N 91Din !
 PAR  G(BCC_A2,GA:VA)           200.00  +GHSERGA+4500-11.7*T;    4000 N 91Din !
 PAR  G(HCP_A3,GA:VA)           200.00  +GHSERGA+4500-9.5*T;     4000 N 91Din !
$PAR  G(DIAMOND_A4,GA)          200.00  +GHSERGA+20900-2*T;      4000 N 09SGUN !
$PAR  G(BCT_A5,GA)              200.00  +GHSERGA+3846-9.8*T;     4000 N 91Din !
$PAR  G(TETRAGONAL_A6,GA)       200.00  +GHSERGA+3500-10*T;      4000 N 91Din !
 PAR  G(LIQUID,GA)              200.00  +GLIQGA;                 4000 N 91Din !
$
 PAR  G(GAS,GA),,                       +F10135T+RTLNP;,,             N 97SUB !
 PAR  G(GAS,GA2),,                      +F10197T+RTLNP;,,             N 97SUB !
$
 FUNCTION GHSERGA   200.00  -21312.331+585.263691*T-108.228783*T*LN(T)
       +0.227155636*T**2-1.18575257E-04*T**3+439954*T**(-1);
       302.91  Y  -7055.643+132.73019*T-26.0692906*T*LN(T)
       +1.506E-04*T**2-4.0173E-08*T**3-118332*T**(-1)+1.64547E+23*T**(-9);
      4000.00  N !
 FUNCTION GLIQGA    200.00  +5491.298-18.073995*T+GHSERGA-7.0171E-17*T**7;
       302.91  Y  +5666.455-18.681147*T+GHSERGA-1.64547E+23*T**(-9);
      4000.00  N !
$ Ga(g)
 FUNCTION F10135T   298.15  +259072.278+88.0130706*T-38.71057*T*LN(T)
       +0.01053784*T**2-9.86907833E-07*T**3+338489.2*T**(-1);
       600.00  Y  +263812.519+33.4871435*T-30.75007*T*LN(T)
       +0.00537745*T**2-5.46534E-07*T**3-150942.65*T**(-1);
      1400.00  Y  +270292.501-28.1810494*T-21.9834*T*LN(T)
       +3.192416E-04*T**2-1.46299133E-08*T**3-992093*T**(-1);
      6000.00  Y  +340110.007-140.262257*T-9.704267*T*LN(T)
       -4.5138725E-04*T**2-1.13427367E-08*T**3-68387950*T**(-1);
     10000.00  N !
$ Ga2(g)
 FUNCTION F10197T   298.15  +422882.385-36.0787973*T-33.72863*T*LN(T)
       -0.009368525*T**2+7.62775167E-07*T**3-19520.385*T**(-1);
      1100.00  Y  +419324.178+8.33965897*T-40.33555*T*LN(T)
       -0.0041854135*T**2+2.679565E-08*T**3+312119.6*T**(-1);
      2500.00  N !
$ ------------------------------------------------------------------------------
$ Sb
$
$ BCT_A5 revised in unary 3.0
$
$ BCT_A5 the value from 91Din is used in LBall-v7+fun.tdb.
$ BCT_A5 the value from 96SGUN is used in SGSOL 5.0.
$ It is only needed in Sb-Sn.
$
 PAR  G(RHOMBOHEDRAL_A7,SB),,           +GHSERSB;                2000 N 91Din !
 PAR  G(FCC_A1,SB:VA),,                 +GHSERSB+19874-13.7*T;   2000 N 91Din !
 PAR  G(BCC_A2,SB:VA),,                 +GHSERSB+19874-15.1*T;   2000 N 91Din !
 PAR  G(HCP_A3,SB:VA),,                 +GHSERSB+19874-13*T;     2000 N 91Din !
$PAR  G(BCT_A5,SB),,                    +GHSERSB+13000-8*T;      2000 N 96SGUN !
$PAR  G(BCT_A5,SB),,                    +GHSERSB+1000;           2000 N 91Din !
 PAR  G(LIQUID,SB),,                    +GLIQSB;                 2000 N 91Din !
$
 PAR  G(GAS,SB),,                       +SB1G+RTLNP;,,                N 00SUB !
 PAR  G(GAS,SB2),,                      +SB2G+RTLNP;,,                N 00SUB !
 PAR  G(GAS,SB3),,                      +SB3G+RTLNP;,,                N 00SUB !
 PAR  G(GAS,SB4),,                      +SB4G+RTLNP;,,                N 00SUB !
$
 FUNCTION GHSERSB   298.15  -9242.858+156.154689*T-30.5130752*T*LN(T)
       +0.007748768*T**2-3.003415E-06*T**3+100625*T**(-1);
       903.78  Y  -11738.83+169.485872*T-31.38*T*LN(T)+1.616849E+27*T**(-9);
      2000.00  N !
 FUNCTION GLIQSB    298.15  +19822.328-21.923164*T+GHSERSB-1.74847E-20*T**7;
       903.78  Y  +8175.359+147.455986*T-31.38*T*LN(T);
      2000.00  N !
 FUNCTION SB1G      298.15  +260807.82-37.9550038*T-21.27672*T*LN(T)
       +5.524195E-04*T**2-1.05228767E-07*T**3+9996.235*T**(-1);
      1500.00  Y  +277520.519-132.229974*T-8.970999*T*LN(T)
       -0.0030704565*T**2+5.21558333E-08*T**3-3997436*T**(-1);
      3200.00  Y  +220721.423+26.8449864*T-27.71232*T*LN(T)
       -7.8024E-04*T**2+2.46637333E-08*T**3+25565705*T**(-1);
      5700.00  Y  +181935.295+193.241235*T-48.14252*T*LN(T)
       +0.0028203175*T**2-8.119545E-08*T**3+25871630*T**(-1);
      9000.00  Y  +1141367.55-1326.1236*T+119.631*T*LN(T)
       -0.010240775*T**2+1.09708933E-07*T**3-1.0049905E+09*T**(-1);
     10000.00  N !
 FUNCTION SB2G      298.15  +225644.034-1.64062093*T-38.03868*T*LN(T)
       +5.08568E-04*T**2-1.31408217E-07*T**3+60968.15*T**(-1);
      1700.00  Y  +231514.886-6.69092891*T-38.05471*T*LN(T)
       +0.00253181*T**2-4.26984E-07*T**3-2451004*T**(-1);
      3400.00  Y  +569974.061-1288.56295*T+120.7968*T*LN(T)
       -0.030603185*T**2+8.68664667E-07*T**3-1.376966E+08*T**(-1);
      5700.00  Y  -689327.546+1714.84499*T-228.6644*T*LN(T)
       +0.012556505*T**2-1.31793767E-07*T**3+7.14668E+08*T**(-1);
      6000.00  N !
 FUNCTION SB3G      298.15  +277165.227+46.0530737*T-58.19257*T*LN(T)
       -2.0866265E-06*T**2+8.316025E-11*T**3+43601.08*T**(-1);
      6000.00  N !
 FUNCTION SB4G      298.15  +192849.585+194.765811*T-83.12392*T*LN(T)
       -5.116865E-06*T**2+2.043415E-10*T**3+115767.85*T**(-1);
      6000.00  N !
$ ------------------------------------------------------------------------------
$ Binary system
$
$ Y. Xie, Z. Qiao, X. Xing, C. Wang, J. Shen, Rare Met., 16, 81-89(1997).
$
$ Checked against paper. Checked at 6000 K.
$
 PAR  L(LIQUID,GA,SB;0),,               -4683.66-0.43112*T;,,         N 97Xie !
 PAR  L(LIQUID,GA,SB;1),,               +780.46-1.19711*T;,,          N 97Xie !
 PAR  L(LIQUID,GA,SB;2),,               +3687.87-7.11997*T;,,         N 97Xie !
$
$PAR  G(ZINCBLENDE_B3,GA:SB),,          +GHSERGA+GHSERSB
$            -21966.16+7.99656*T;,,                                   N 97Xie !
 PAR  G(ZINCBLENDE_B3,GA:SB),,          +GHSERGA+GHSERSB
             -43932.32+15.99312*T;,,                                  N 97Xie !
$
 PAR  G(GAS,GASB),,                     +GA1SB1G+RTLNP;,,             N 00SUB !
$
 FUNCTION GB3GASB   298.15  +0.5*GHSERGA+0.5*GHSERSB
       -21738.1-10.53764*T+2.692876*T*LN(T)-0.00137791*T**2;
      6000.00  N !
$ GaP (g)
 FUNCTION GA1SB1G   298.15  +338661.848-16.2870454*T-37.39532*T*LN(T)
       -9.362025E-05*T**2+1.13351083E-09*T**3+26904.44*T**(-1);
      3000.00  N !
$ ------------------------------------------------------------------------------
$
 ASSESSED_SYSTEM
  GA-SB(TDB -* +LIQUID +GAS +ORTHO_A11 +RHOMBO_A7 +ZINCB_B3
  ;P3 TMM:300/2000 *) !
$
$
 LIST-OF-REFERENCE
 NUMBER  SOURCE
  Null   'Unknown source'
  Same   'Same or similar interaction as in the corresponding stable phase'
  REFLAV 'Laves phase convention: G(LAVES,X:X)=+3*GHSERXX+15000'
  COST   'COST 507 database, 1998'
  91Din  'A.T. Dinsdale, Calphad, 15, 317-425(1991).'
  97SUB  'SGTE substance database, version 1997'
  97Xie  'Y. Xie, Z. Qiao, X. Xing, C. Wang, J. Shen,
          Rare Met., 16, 81-89(1997); Ga-Sb'
  00SUB  'SGTE substance database, version 2000'
  09SGUN 'SGTE unary database V.5.0, 2009.'
!
