$
$ Database for Nb-Zr from P. Lafaye et al. 2019.
$
$ P. Lafaye, C. Toffolon-Masclet, J.-C. Crivello, J.-M. Joubert,
$ Calphad, 64, 43-54(2019).
$
$ Dataset created 2020.10.13 by Bengt Hallstedt.
$
$ The Laves phases are not stable in this system, but the parameters are
$ included in the paper.
$
$ ------------------------------------------------------------------------------
 TEMP-LIM 298.15 6000.00 !
$
$ELEMENT NAME  REF. STATE               ATOMIC MASS H298-H0    S298    !
$
 ELEMENT VA   VACUUM                      0.0          0.0      0.0    ! 
 ELEMENT NB   BCC_A2                     92.9064    5220.0     36.27   ! 
 ELEMENT ZR   HCP_A3                     91.22      5566.27    39.1809 ! 
$ ------------------------------------------------------------------------------
$ Phase definitions
$
 PHASE LIQUID:L % 1 1 !
 CONST LIQUID:L : NB ZR : !
$
$ Fcc (cF4, Fm-3m) and MeX (cF8, Fm-3m)
$
 PHASE FCC_A1 %A 2 1 1 !
 CONST FCC_A1 : NB ZR : VA : !
$
$ Bcc (cI2, Im-3m)
$
 PHASE BCC_A2 %B 2 1 3 !
 CONST BCC_A2 : NB ZR : VA : !
$
$ Hcp (hP2, P6_3/mmc) and Me2X (NiAs-type, hP4, P6_3/mmc, B8_1)
$
 PHASE HCP_A3 %A 2 1 0.5 !
 CONST HCP_A3 : NB ZR : VA : !
$
$ Prototype MgZn2 (hP12, P6_3/mmc)
$
 PHASE C14_LAVES % 3 4 2 6 !
 CONST C14_LAVES : NB ZR : NB ZR : NB ZR : !
$
$ Prototype Cu2Mg (cF24, Fd-3m)
$
 PHASE C15_LAVES % 2 2 1 !
 CONST C15_LAVES : NB ZR : NB ZR : !
$
$ Prototype MgNi2 (hP24, P6_3/mmc)
$
 PHASE C36_LAVES % 3 4 4 16 !
 CONST C36_LAVES : NB ZR : NB ZR : NB ZR : !
$ ------------------------------------------------------------------------------
$ Defaults
$
 DEFINE-SYSTEM-DEFAULT ELEMENT 2 !
 DEFAULT-COM DEFINE_SYSTEM_ELEMENT VA !
 TYPE-DEF % SEQ * !
 TYPE-DEF A GES AMEND_PHASE_DESCRIPTION @ MAGNETIC -3 0.28 !
 TYPE-DEF B GES AMEND_PHASE_DESCRIPTION @ MAGNETIC -1 0.4 !
 FUNCTION ZERO      298.15  0;                                         6000 N !
 FUNCTION UN_ASS    298.15  0;                                         6000 N !
 FUNCTION R         298.15  +8.31451;                                  6000 N !
$ ------------------------------------------------------------------------------
$ Element data
$ ------------------------------------------------------------------------------
$ Nb
$
 PAR  G(BCC_A2,NB:VA),,                 +GHSERNB;,,                   N 91Din !
 PAR  G(FCC_A1,NB:VA),,                 +GHSERNB+13500+1.7*T;,,       N 91Din !
 PAR  G(HCP_A3,NB:VA),,                 +GHSERNB+10000+2.4*T;,,       N 91Din !
 PAR  G(LIQUID,NB),,                    +GLIQNB;,,                    N 91Din !
$
 PAR  G(C14_LAVES,NB:NB:NB),,           +12*GHSERNB+188612;,,         N 19Laf !
 PAR  G(C15_LAVES,NB:NB),,              +3*GHSERNB+49853;,,           N 17Laf !
 PAR  G(C36_LAVES,NB:NB:NB),,           +24*GHSERNB+392133;,,         N 19Laf !
$
 FUNCTION GHSERNB   298.15  -8519.353+142.045475*T-26.4711*T*LN(T)
       +2.03475E-04*T**2-3.5012E-07*T**3+93399*T**(-1);
      2750.00  Y  -37669.3+271.720843*T-41.77*T*LN(T)+1.528238E+32*T**(-9);
      6000.00  N !
 FUNCTION GLIQNB    298.15  +29781.555-10.816418*T+GHSERNB-3.06098E-23*T**7;
      2750.00  Y  -7499.398+260.756148*T-41.77*T*LN(T);
      6000.00  N !
$ ------------------------------------------------------------------------------
$ Zr
$
$ CUB_A13, CBCC_A12, ORTHORHOMBIC_A20 and TETRAGONAL_U added in unary 4.1
$
 PAR  G(HCP_A3,ZR:VA)           130.00  +GHSERZR;,,                   N 91Din !
 PAR  G(BCC_A2,ZR:VA)           130.00  +GBCCZR;,,                    N 91Din !
$PAR  G(OMEGA,ZR)               130.00  +GOMEZR;,,                    N 91Din !
 PAR  G(FCC_A1,ZR:VA)           130.00  +GHSERZR+7600-0.9*T;,,        N 91Din !
$PAR  G(CBCC_A12,ZR:VA)         130.00  +GHSERZR+4602.2;,,            N 99SGUN !
$PAR  G(CUB_A13,ZR:VA)          130.00  +GHSERZR+7531.2;,,            N 99SGUN !
$PAR  G(ORTHORHOMBIC_A20,ZR)    130.00  +GBCCZR+5000;,,               N 99SGUN !
$PAR  G(TETRAGONAL_U,ZR)        130.00  +GBCCZR+5000;,,               N 99SGUN !
 PAR  G(LIQUID,ZR)              130.00  +GLIQZR;,,                    N 91Din !
$
 PAR  G(C14_LAVES,ZR:ZR:ZR),,           +12*GHSERZR+282926;,,         N 19Laf !
 PAR  G(C15_LAVES,ZR:ZR),,              +3*GHSERZR+88549;,,           N 19Laf !
 PAR  G(C36_LAVES,ZR:ZR:ZR),,           +24*GHSERZR+618997;,,         N 19Laf !
$
 FUNCTION GHSERZR   130.00  -7827.595+125.64905*T-24.1618*T*LN(T)
       -0.00437791*T**2+34971*T**(-1);
      2128.00  Y  -26085.921+262.724183*T-42.144*T*LN(T)-1.342896E+31*T**(-9);
      6000.00  N !
 FUNCTION GBCCZR    130.00  -525.539+124.9457*T-25.607406*T*LN(T)
       -3.40084E-04*T**2-9.729E-09*T**3+25233*T**(-1)-7.6143E-11*T**4;
      2128.00  Y  -4620.034+1.55998*T+GHSERZR+1.4103476E+32*T**(-9);
      6000.00  N !
 FUNCTION GOMEZR    130.00  -8878.082+144.432234*T-26.8556*T*LN(T)
       -0.002799446*T**2+38376*T**(-1);
      2128.00  Y  -3414.603+2.566675*T+GHSERZR+8.517346E+31*T**(-9);
      6000.00  N !
 FUNCTION GLIQZR    130.00  +18147.69-9.080812*T+GHSERZR+1.6275E-22*T**7;
      2128.00  Y  -8281.26+253.812609*T-42.144*T*LN(T);
      6000.00  N !
$ ------------------------------------------------------------------------------
$ Binary system
$
$ P. Lafaye, C. Toffolon-Masclet, J.-C. Crivello, J.-M. Joubert,
$ Calphad, 64, 43-54(2019).
$
$ Checked against paper and author's tdb. Checked at 6000K.
$
 PAR  L(LIQUID,NB,ZR;0),,               +13192;,,                     N 19Laf !
 PAR  L(LIQUID,NB,ZR;1),,               +10055;,,                     N 19Laf !
$
 PAR  L(BCC_A2,NB,ZR:VA;0),,            +14390+4.26*T;,,              N 19Laf !
 PAR  L(BCC_A2,NB,ZR:VA;1),,            +3417;,,                      N 19Laf !
$
 PAR  L(HCP_A3,NB,ZR:VA;0),,            +24411;,,                     N 91Fer !
$
$ Metastable
$
 PAR  L(FCC_A1,NB,ZR:VA;0),,            +21463;,,                     N 19Laf !
 PAR  L(FCC_A1,NB,ZR:VA;1),,            +6868;,,                      N 19Laf !
$
 PAR  G(C14_LAVES,NB:NB:ZR),,           +6*GHSERNB+6*GHSERZR
             +443420;,,                                               N 19Laf !
 PAR  G(C14_LAVES,NB:ZR:NB),,           +10*GHSERNB+2*GHSERZR
             +270876;,,                                               N 19Laf !
 PAR  G(C14_LAVES,NB:ZR:ZR),,           +4*GHSERNB+8*GHSERZR
             +491049;,,                                               N 19Laf !
 PAR  G(C14_LAVES,ZR:NB:NB),,           +8*GHSERNB+4*GHSERZR
             +31792;,,                                                N 19Laf !
 PAR  G(C14_LAVES,ZR:NB:ZR),,           +2*GHSERNB+10*GHSERZR
             +244274;,,                                               N 19Laf !
 PAR  G(C14_LAVES,ZR:ZR:NB),,           +6*GHSERNB+6*GHSERZR
             +104099;,,                                               N 19Laf !
$
 PAR  G(C15_LAVES,NB:ZR),,              +2*GHSERNB+GHSERZR
             +13904;,,                                                N 19Laf !
 PAR  G(C15_LAVES,ZR:NB),,              +2*GHSERZR+GHSERNB
             +145110;,,                                               N 19Laf !
$
 PAR  G(C36_LAVES,NB:NB:ZR),,           +8*GHSERNB+16*GHSERZR
             +1046735;,,                                              N 19Laf !
 PAR  G(C36_LAVES,NB:ZR:NB),,           +20*GHSERNB+4*GHSERZR
             +239672;,,                                               N 19Laf !
 PAR  G(C36_LAVES,NB:ZR:ZR),,           +4*GHSERNB+20*GHSERZR
             +840489;,,                                               N 19Laf !
 PAR  G(C36_LAVES,ZR:NB:NB),,           +20*GHSERNB+4*GHSERZR
             +242056;,,                                               N 19Laf !
 PAR  G(C36_LAVES,ZR:NB:ZR),,           +4*GHSERNB+20*GHSERZR
             +836181;,,                                               N 19Laf !
 PAR  G(C36_LAVES,ZR:ZR:NB),,           +16*GHSERNB+8*GHSERZR
             +98448;,,                                                N 19Laf !
$ ------------------------------------------------------------------------------
$
 ASSESSED_SYSTEM
  NB-ZR(TDB -* +LIQUID +BCC_A2 +FCC_A1 +HCP_A3 
  ;G5 MAJ:BCC/ZR:VA C_S:BCC/NB:VA ;P3 TMM:300/3000 STP:.8/1000/2/-2) !
$
$
 LIST-OF-REFERENCE
 NUMBER  SOURCE
  Null   'Unknown source'
  Same   'Same or similar interaction as in the corresponding stable phase'
  COST   'COST 507 database'
  91Din  'A.T. Dinsdale, Calphad, 15, 317-425(1991).'
  91Fer  'A. Fernandez Guillermet, Z. Metallkd., 82, 478-87(1991); Nb-Zr'
  99SGUN 'SGTE unary database V.4.1, 1999.'
  17Laf  'P. Lafaye, C. Toffolon-Masclet, J.-C. Crivello, J.-M. Joubert,
          Calphad, 57, 37-45(2017); Cr-Nb'
  19Laf  'P. Lafaye, C. Toffolon-Masclet, J.-C. Crivello, J.-M. Joubert,
          Calphad, 64, 43-54(2019); Nb-Zr'
!
