$
$ Database for Ge-Ti from O. Zobac and A. Kroupa 2023.
$
$ O. Zobac, A. Kroupa, J. Phase Equilib. Diffus., 44, 115-26(2023).
$
$ Dataset created 2024.03.07 by Bengt Hallstedt.
$
$ Remodelled to include new experimental data from Bittner et al. 2013.
$
$ Associate model with Ge0.375Ti0.625 associates for the liquid.
$
$ The Gibbs energy of the associate is given relative to GHSER, not relative
$ to GLIQ as written in the paper.
$
$ Invariant equilibria differ by up to 3 K, probably due to rounding errors.
$
$ ------------------------------------------------------------------------------
 TEMP-LIM 298.15 6000.00 !
$
$ELEMENT NAME  REF. STATE               ATOMIC MASS H298-H0    S298    !
$
 ELEMENT VA   VACUUM                      0.0          0.0      0.0    ! 
 ELEMENT GE   DIAMOND_A4                 72.59      4636.0     31.09   ! 
 ELEMENT TI   HCP_A3                     47.88      4824.      30.72   ! 
$ ------------------------------------------------------------------------------
$ Species
$
 SPECIE  GE3TI5                             GE0.375TI0.625 !
$ ------------------------------------------------------------------------------
$ Phase definitions
$
 PHASE LIQUID:L % 1 1 !
 CONST LIQUID:L : GE GE3TI5 TI : !
$
$ Fcc (cF4, Fm-3m) and MeX (cF8, Fm-3m)
$
 PHASE FCC_A1 %A 2 1 1 !
 CONST FCC_A1 : GE TI : VA : !
$
$ Bcc (cI2, Im-3m)
$
 PHASE BCC_A2 %B 2 1 3 !
 CONST BCC_A2 : GE TI% : VA : !
$
$ Hcp (hP2, P6_3/mmc) and Me2X (NiAs-type, hP4, P6_3/mmc, B8_1)
$
 PHASE HCP_A3 %A 2 1 0.5 !
 CONST HCP_A3 : GE TI% : VA : !
$
$ Prototype C (cF8, Fd-3m)
$
 PHASE DIAMOND_A4 % 1 1 !
 CONST DIAMOND_A4 : GE% TI : !
$
$ Prototype Si2Ti (oF24, Fddd)
$
 PHASE GE2TI_C54 % 2 2 1 !
 CONST GE2TI_C54 : GE : TI : !
$
$ Prototype Si5V6 (oI44, Ibam)
$
 PHASE GE5TI6 % 2 5 6 !
 CONST GE5TI6 : GE : TI : !
$
$ Prototype Ge4Sm5 (oP36, Pnma)
$
 PHASE GE4TI5 % 2 4 5 !
 CONST GE4TI5 : GE : TI : !
$
$ Prototype Mn5Si3 (hP16, P6_3/mcm)
$
 PHASE GE3TI5_D88 % 2 3 5 !
 CONST GE3TI5_D88 : GE : GE TI% : !
$ ------------------------------------------------------------------------------
$ Defaults
$
 DEFINE-SYSTEM-DEFAULT ELEMENT 2 !
 DEFAULT-COM DEFINE_SYSTEM_ELEMENT VA !
 TYPE-DEF % SEQ * !
 TYPE-DEF A GES AMEND_PHASE_DESCRIPTION @ MAGNETIC -3 0.28 !
 TYPE-DEF B GES AMEND_PHASE_DESCRIPTION @ MAGNETIC -1 0.4 !
 FUNCTION ZERO      298.15  0;                                         6000 N !
 FUNCTION UN_ASS    298.15  0;                                         6000 N !
 FUNCTION R         298.15  +8.31451;                                  6000 N !
$ ------------------------------------------------------------------------------
$ Element data
$ ------------------------------------------------------------------------------
$ Ge
$
$ BCT_A5 and RHOMBOHEDRAL_A7 added in unary 4.1
$
 PAR  G(DIAMOND_A4,GE),,                +GHSERGE;                3200 N 91Din !
 PAR  G(FCC_A1,GE:VA),,                 +GHSERGE+36000-22.3*T;   3200 N 91Din !
 PAR  G(BCC_A2,GE:VA),,                 +GHSERGE+34100-23.5*T;   3200 N 91Din !
 PAR  G(HCP_A3,GE:VA),,                 +GHSERGE+35000-21.5*T;   3200 N 91Din !
$PAR  G(BCT_A5,GE),,                    +GHSERGE+28800-16.5*T;   3600 N 99SGUN !
$PAR  G(RHOMBOHEDRAL_A7,GE),,           +GHSERGE+29800-16.5*T;   3600 N 99SGUN !
 PAR  G(LIQUID,GE),,                    +GLIQGE;                 3200 N 91Din !
$
 PAR  G(GE3TI5_D88,GE:GE),,             +8*GHSERGE+80000;,,           N 23Zob !
$
 FUNCTION GHSERGE   298.15  -9486.153+165.635573*T-29.5337682*T*LN(T)
       +0.005568297*T**2-1.513694E-06*T**3+163298*T**(-1);
       900.00  Y  -5689.239+102.86087*T-19.8536239*T*LN(T)-0.003672527*T**2;
      1211.40  Y  -9548.204+156.708024*T-27.6144*T*LN(T)-8.59809E+28*T**(-9);
      3200.00  N !
 FUNCTION GLIQGE    298.15  +37141.49-30.687043*T+GHSERGE+8.56632E-21*T**7;
       900.00  Y  +37141.489-30.687044*T+GHSERGE+8.56632E-21*T**7;
      1211.40  Y  +27243.473+126.324186*T-27.6144*T*LN(T);
      3200.00  N !
$ ------------------------------------------------------------------------------
$ Ti
$
$ BCT_A5 added in unary 3.0
$
 PAR  G(HCP_A3,TI:VA),,                 +GHSERTI;                4000 N 91Din !
 PAR  G(BCC_A2,TI:VA),,                 +GBCCTI;                 4000 N 91Din !
 PAR  G(FCC_A1,TI:VA),,                 +GHSERTI+6000-0.1*T;     4000 N 91Din !
$PAR  G(CBCC_A12,TI:VA),,               +GHSERTI+4602.2;         4000 N 91Din !
$PAR  G(CUB_A13,TI:VA),,                +GHSERTI+7531.2;         4000 N 91Din !
 PAR  G(DIAMOND_A4,TI),,                +GHSERTI+25000;          4000 N 91Din !
$PAR  G(BCT_A5,TI),,                    +GHSERTI+4602.2;         3000 N SGCOST !
 PAR  G(LIQUID,TI),,                    +GLIQTI;                 4000 N 91Din !
$
 FUNCTION GHSERTI   298.15  -8059.921+133.615208*T-23.9933*T*LN(T)
       -0.004777975*T**2+1.06716E-07*T**3+72636*T**(-1);
       900.00  Y  -7811.815+132.988068*T-23.9887*T*LN(T)
       -0.0042033*T**2-9.0876E-08*T**3+42680*T**(-1);
      1155.00  Y  +908.837+66.976538*T-14.9466*T*LN(T)
       -0.0081465*T**2+2.02715E-07*T**3-1477660*T**(-1);
      1941.00  Y  -124526.786+638.806871*T-87.2182461*T*LN(T)
       +0.008204849*T**2-3.04747E-07*T**3+36699805*T**(-1);
      4000.00  N !
 FUNCTION GBCCTI    298.15  -1272.064+134.71418*T-25.5768*T*LN(T)
       -6.63845E-04*T**2-2.78803E-07*T**3+7208*T**(-1);
      1155.00  Y  +6667.385+105.366379*T-22.3771*T*LN(T)
       +0.00121707*T**2-8.4534E-07*T**3-2002750*T**(-1);
      1941.00  Y  +26483.26-182.426471*T+19.0900905*T*LN(T)
       -0.02200832*T**2+1.228863E-06*T**3+1400501*T**(-1);
      4000.00  N !
 FUNCTION GLIQTI    298.15  +12194.415-6.980938*T+GHSERTI;
      1300.00  Y  +369519.198-2554.0225*T+342.059267*T*LN(T)
       -0.163409355*T**2+1.2457117E-05*T**3-67034516*T**(-1);
      1941.00  Y  -19887.066+298.7367*T-46.29*T*LN(T);
      4000.00  N !
$ ------------------------------------------------------------------------------
$ Binary system
$
$ O. Zobac, A. Kroupa, J. Phase Equilib. Diffus., 44, 115-26(2023).
$
$ Checked against paper. Checked at 6000 K.
$
$ Remodelled to include new experimental data from Bittner et al. 2013.
$
$ Associate model with Ge0.375Ti0.625 associates for the liquid.
$
$ The Gibbs energy of the associate is given relative to GHSER, not relative
$ to GLIQ as written in the paper.
$
$ Invariant equilibria differ by up to 3 K, probably due to rounding errors.
$
 PAR  G(LIQUID,GE3TI5),,                +0.375*GHSERGE+0.625*GHSERTI
             -47045.2-0.649*T;,,                                      N 23Zob !
 PAR  L(LIQUID,GE,GE3TI5;0),,           -25628+18.1*T;,,              N 23Zob !
 PAR  L(LIQUID,GE,GE3TI5;1),,           +23012-6.4*T;,,               N 23Zob !
 PAR  L(LIQUID,GE3TI5,TI;0),,           +41102-19*T;,,                N 23Zob !
 PAR  L(LIQUID,GE3TI5,TI;1),,           +758+2.529*T;,,               N 23Zob !
 PAR  L(LIQUID,GE3TI5,TI;2),,           +ZERO;,,                      N 23Zob !
 PAR  L(LIQUID,GE3TI5,TI;3),,           +1941.18-6.4706*T;,,          N 23Zob !
$
 PAR  L(BCC_A2,GE,TI:VA;0),,            -111612.8+8.1*T;,,            N 23Zob !
 PAR  L(BCC_A2,GE,TI:VA;1),,            +65307.81-7.85*T;,,           N 23Zob !
$
 PAR  L(HCP_A3,GE,TI:VA;0),,            -100396-3.715*T;,,            N 23Zob !
 PAR  L(HCP_A3,GE,TI:VA;1),,            +58162;,,                     N 23Zob !
$
 PAR  L(DIAMOND_A4,GE,TI;0),,           -75355;,,                     N 23Zob !
$
 PAR  G(GE2TI_C54,GE:TI),,              +2*GHSERGE+GHSERTI
             -121725+6.186*T;,,                                       N 23Zob !
 PAR  G(GE5TI6,GE:TI),,                 +11*GGE5TI6;,,                N 23Zob !
 PAR  G(GE4TI5,GE:TI),,                 +9*GGE5TI6-11025+3.816*T;,,   N 23Zob !
$
 PAR  G(GE3TI5_D88,GE:TI),,             +8*GGE3TI5;,,                 N 23Zob !
 PAR  L(GE3TI5_D88,GE:GE,TI;0),,        -37344-15.2*T;,,              N 23Zob !
 PAR  L(GE3TI5_D88,GE:GE,TI;1),,        +593264-318.4*T;,,            N 23Zob !
$
$ metastable
$
 PAR  L(FCC_A1,GE,TI:VA;0),,            -100396-3.715*T;,,            N Same !
 PAR  L(FCC_A1,GE,TI:VA;1),,            +58162;,,                     N Same !
$
 FUNCTION GGE5TI6   298.15  -73483+150.396*T-26.1577*T*LN(T)
       -0.0006092*T**2-2.2357E-08*T**3+135555.3328*T**(-1);
      6000.00  N !
 FUNCTION GGE3TI5   298.15  -75001.96+134.208*T-23.53*T*LN(T)
       -0.003399635*T**2+1.97784E-07*T**3+59238.60864*T**(-1);
      6000.00  N !
$ ------------------------------------------------------------------------------
$
$
 LIST-OF-REFERENCE
 NUMBER  SOURCE
  Null   'Unknown source'
  Same   'Same or similar interaction as in the corresponding stable phase'
  REFLAV 'Laves phase convention: G(LAVES,X:X)=+3*GHSERXX+15000'
  COST   'COST 507 database'
  SGCOST 'COST 507 database, SGTE unary database V.3.0, 1996; Al, B, Nd, Ti, Zn'
  91Din  'A.T. Dinsdale, Calphad, 15, 317-425(1991).'
  99SGUN 'SGTE unary database V.4.1, 1999.'
  23Zob  'O. Zobac, A. Kroupa,
          J. Phase Equilib. Diffus., 44, 115-26(2023); Ge-Ti'
!
