$
$ Database for Mn-U from X.J. Liu et al. 2008.
$
$ X.J. Liu, Z.S. Li, J. Wang, C.P. Wang, J. Nucl. Mater., 380, 99-104(2008).
$
$ Dataset created 2023.04.23 by Bengt Hallstedt.
$
$ The tetragonal-U interaction seems questionable.
$
$ Invariant equilibria differ by up to 2 K.
$
$ ------------------------------------------------------------------------------
 TEMP-LIM 298.15 6000.00 !
$
$ELEMENT NAME  REF. STATE               ATOMIC MASS H298-H0    S298    !
$
 ELEMENT VA   VACUUM                      0.0          0.0      0.0    ! 
 ELEMENT MN   CBCC_A12                   54.9380    4995.696   32.2206 ! 
 ELEMENT U    ORTHORHOMBIC_A20          238.0289    6364.      50.20   ! 
$ ------------------------------------------------------------------------------
$ Phase definitions
$
 PHASE LIQUID:L % 1 1 !
 CONST LIQUID:L : MN U : !
$
$ Fcc (cF4, Fm-3m) and MeX (cF8, Fm-3m)
$
 PHASE FCC_A1 %A 2 1 1 !
 CONST FCC_A1 : MN% U : VA : !
$
$ Bcc (cI2, Im-3m)
$
 PHASE BCC_A2 %B 2 1 1.5 !
 CONST BCC_A2 : MN% U% : VA : !
$
$ Hcp (hP2, P6_3/mmc) and Me2X (NiAs-type, hP4, P6_3/mmc, B8_1)
$
 PHASE HCP_A3 % 2 1 0.5 !
 CONST HCP_A3 : MN U : VA : !
$
$ Prototype alpha-Mn (cI58, I-43m)
$
 PHASE CBCC_A12 %A 2 1 1 !
 CONST CBCC_A12 : MN : VA : !
$
$ Prototype beta-Mn (cP20, P4_132)
$
 PHASE CUB_A13 % 2 1 1 !
 CONST CUB_A13 : MN% U : VA : !
$
$ Prototype alpha-U (oC4, Cmcm)
$
 PHASE ORTHORHOMBIC_A20 % 1 1 !
 CONST ORTHORHOMBIC_A20 : U : !
$
$ Prototype beta-U (tP30, P4_2/mnm, SB: A_b)
$
 PHASE TETRAGONAL_U % 1 1 !
 CONST TETRAGONAL_U : MN U% : !
$
$ Prototype Cu2Mg (cF24, Fd-3m)
$
 PHASE MN2U_C15 % 2 2 1 !
 CONST MN2U_C15 : MN : U : !
$
$ Prototype MnU6 (tI28, I4/mcm)
$
 PHASE MNU6_D2C % 2 1 6 !
 CONST MNU6_D2C : MN : U : !
$ ------------------------------------------------------------------------------
$ Defaults
$
 DEFINE-SYSTEM-DEFAULT ELEMENT 2 !
 DEFAULT-COM DEFINE_SYSTEM_ELEMENT VA !
 TYPE-DEF % SEQ * !
 TYPE-DEF B GES AMEND_PHASE_DESCRIPTION @ MAGNETIC -1 0.4 !
 TYPE-DEF A GES AMEND_PHASE_DESCRIPTION @ MAGNETIC -3 0.28 !
 FUNCTION ZERO      298.15  0;                                         6000 N !
 FUNCTION UN_ASS    298.15  0;                                         6000 N !
 FUNCTION R         298.15  +8.31451;                                  6000 N !
$ ------------------------------------------------------------------------------
$ Element data
$ ------------------------------------------------------------------------------
$ Mn
$
$ TETRAGONAL_U from 08Liu not included in unary
$
 PAR  G(CBCC_A12,MN:VA),,               +GHSERMN;                2000 N 91Din !
 PAR  TC(CBCC_A12,MN:VA),,               -285.00;                2000 N 91Din !
 PAR  BM(CBCC_A12,MN:VA),,                 -0.66;                2000 N 91Din !
 PAR  G(CUB_A13,MN:VA),,                +GCUBMN;                 2000 N 91Din !
 PAR  G(FCC_A1,MN:VA),,                 +GFCCMN;                 2000 N 91Din !
 PAR  TC(FCC_A1,MN:VA),,                -1620.00;                2000 N 91Din !
 PAR  BM(FCC_A1,MN:VA),,                   -1.86;                2000 N 91Din !
 PAR  G(BCC_A2,MN:VA),,                 +GBCCMN;                 2000 N 91Din !
 PAR  TC(BCC_A2,MN:VA),,                 -580.00;                2000 N 91Din !
 PAR  BM(BCC_A2,MN:VA),,                   -0.27;                2000 N 91Din !
 PAR  G(HCP_A3,MN:VA),,                 +GHCPMN;                 2000 N 91Din !
 PAR  TC(HCP_A3,MN:VA),,                -1620.00;                2000 N 91Din !
 PAR  BM(HCP_A3,MN:VA),,                   -1.86;                2000 N 91Din !
 PAR  G(TETRAGONAL_U,MN),,              +GHSERMN+25000;          2000 N 08Liu !
 PAR  G(LIQUID,MN),,                    +GLIQMN;                 2000 N 91Din !
$
 FUNCTION GHSERMN   298.15  -8115.28+130.059*T-23.4582*T*LN(T)
       -0.00734768*T**2+69827*T**(-1);
      1519.00  Y  -28733.41+312.2648*T-48*T*LN(T)+1.656847E+30*T**(-9);
      2000.00  N !
 FUNCTION GCUBMN    298.15  -5800.4+135.995*T-24.8785*T*LN(T)
       -0.00583359*T**2+70269*T**(-1);
      1519.00  Y  +442.65-0.9715*T+GHSERMN+2.310723E+30*T**(-9);
      2000.00  N !
 FUNCTION GFCCMN    298.15  -3439.3+131.884*T-24.5177*T*LN(T)
       -0.006*T**2+69600*T**(-1);
      1519.00  Y  +2663.31-2.5984*T+GHSERMN+2.205113E+30*T**(-9);
      2000.00  N !
 FUNCTION GBCCMN    298.15  -3235.3+127.85*T-23.7*T*LN(T)
       -0.00744271*T**2+60000*T**(-1);
      1519.00  Y  +5544.58-4.5605*T+GHSERMN-3.91695E+29*T**(-9);
      2000.00  N !
 FUNCTION GHCPMN    298.15  -4439.3+133.007*T-24.5177*T*LN(T)
       -0.006*T**2+69600*T**(-1);
      1519.00  Y  +1663.31-1.4754*T+GHSERMN+2.205113E+30*T**(-9);
      2000.00  N !
 FUNCTION GLIQMN    298.15  +17859.91-12.6208*T+GHSERMN-4.41929E-21*T**7;
      1519.00  Y  -9993.9+299.036*T-48*T*LN(T);
      2000.00  N !
$ ------------------------------------------------------------------------------
$ U
$
$ FCC_A1 and HCP_A3 added in unary 4.1
$
$ HCP_A3 from 04Che not included in unary
$ CUB_A13 from 08Liu not included in unary
$
 PAR  G(ORTHORHOMBIC_A20,U),,           +GHSERUU;                3000 N 91Din !
 PAR  G(TETRAGONAL_U,U),,               +GTETUU;                 3000 N 91Din !
 PAR  G(BCC_A2,U:VA),,                  +GBCCUU;                 3000 N 91Din !
 PAR  G(FCC_A1,U:VA),,                  +GHSERUU+5000;           3000 N 99SGUN !
 PAR  G(HCP_A3,U:VA),,                  +GBCCUU+5000-0.008*T;    3000 N 99SGUN !
$PAR  G(HCP_A3,U:VA),,                  +GHSERUU+50000;          3000 N 04Che3 !
 PAR  G(CUB_A13,U:VA),,                 +GHSERUU+5000;           3000 N 08Liu !
 PAR  G(LIQUID,U),,                     +GHSERUU
             +12355.5-10.3239*T;                                 3000 N 91Din !
$
 FUNCTION GHSERUU   298.15  -8407.734+130.955151*T-26.9182*T*LN(T)
       +0.00125156*T**2-4.42605E-06*T**3+38568*T**(-1);
       955.00  Y  -22521.8+292.121093*T-48.66*T*LN(T);
      3000.00  N !
 FUNCTION GTETUU    298.15  -5156.136+106.976316*T-22.841*T*LN(T)
       -0.01084475*T**2+2.7889E-08*T**3+81944*T**(-1);
       941.50  Y  -14327.309+244.16802*T-42.9278*T*LN(T);
      3000.00  N !
 FUNCTION GBCCUU    298.15  -752.767+131.5381*T-27.5152*T*LN(T)
       -0.00835595*T**2+9.67907E-07*T**3+204611*T**(-1);
      1049.00  Y  -4698.365+202.685635*T-38.2836*T*LN(T);
      3000.00  N !
 FUNCTION GLIQUU    298.15  +GHSERUU+12355.5-10.3239*T;                3000 N !
$ ------------------------------------------------------------------------------
$ Binary system
$
$ X.J. Liu, Z.S. Li, J. Wang, C.P. Wang, J. Nucl. Mater., 380, 99-104(2008).
$
$ Checked against paper. Checked at 6000 K.
$
$ The tetragonal-U interaction seems questionable.
$
$ Invariant equilibria differ by up to 2 K.
$
 PAR  L(LIQUID,MN,U;0),,                -23400+11.7*T;,,              N 08Liu !
 PAR  L(LIQUID,MN,U;1),,                +320-1.77*T;,,                N 08Liu !
 PAR  L(LIQUID,MN,U;2),,                -10966+10.4*T;,,              N 08Liu !
$
 PAR  L(FCC_A1,MN,U:VA;0),,             +25000;,,                     N 08Liu !
$
 PAR  L(BCC_A2,MN,U:VA;0),,             +11000+9.83*T;,,              N 08Liu !
 PAR  L(BCC_A2,MN,U:VA;1),,             +2800+4.7*T;,,                N 08Liu !
$
 PAR  L(CUB_A13,MN,U:VA;0),,            +7971+6.97*T;,,               N 08Liu !
$
 PAR  L(TETRAGONAL_U,MN,U;0),,          +29614.8-12.5*T;,,            N 08Liu !
 PAR  L(TETRAGONAL_U,MN,U;1),,          +69425-48.7*T;,,              N 08Liu !
 PAR  L(TETRAGONAL_U,MN,U;2),,          -49519.7+47.07*T;,,           N 08Liu !
$
 PAR  G(MN2U_C15,MN:U),,                +2*GHSERMN+GHSERUU
             -27300-0.96*T;,,                                         N 08Liu !
 PAR  G(MNU6_D2C,MN:U),,                +GHSERMN+6*GHSERUU
             -35630+18.97*T;,,                                        N 08Liu !
$
$ Metastable
$
 PAR  L(HCP_A3,MN,U:VA;0),,             +25000;,,                     N Same !
$ ------------------------------------------------------------------------------
$
$
 LIST-OF-REFERENCE
 NUMBER  SOURCE
  Null   'Unknown source'
  Same   'Same or similar interaction as in the corresponding stable phase'
  COST   'COST 507 database'
  91Din  'A.T. Dinsdale, Calphad, 15, 317-425(1991).'
  99SGUN 'SGTE unary database V.4.1, 1999.'
  04Che3 'P.-Y. Chevalier, E. Fischer, B. Cheynet,
          Calphad, 28, 15-40(2004); U, Zr'
  08Liu  'X.J. Liu, Z.S. Li, J. Wang, C.P. Wang,
          J. Nucl. Mater., 380, 99-104(2008); Mn, U, Mn-U'
!
