$
$ Database for Pd-Zn from R. Gong et al. 2022.
$
$ R. Gong, S.-L. Shang, H. Sun, M.J. Janik, Z.-K. Liu,
$ Calphad, 79, 102491(2022).
$
$ Dataset created 2023.02.02 by Bengt Hallstedt.
$
$ The bcc/B2 order-disorder modelling is not convincing.
$
$ 22Gon describe PdZn-beta_1 as L1_0 rather than L2_a, which is given in the
$ Pauling database (Springer Materials).
$
$ ------------------------------------------------------------------------------
 TEMP-LIM 298.15 6000.00 !
$
$ELEMENT NAME  REF. STATE               ATOMIC MASS H298-H0    S298    !
$
 ELEMENT VA   VACUUM                      0.0          0.0      0.0    ! 
 ELEMENT PD   FCC_A1                    106.42      5468.488   37.8234 ! 
 ELEMENT ZN   HCP_A3                     65.38      5657.0     41.63   ! 
$ ------------------------------------------------------------------------------
$ Phase definitions
$
 PHASE LIQUID:L % 1 1 !
 CONST LIQUID:L : PD ZN : !
$
$ Fcc (cF4, Fm-3m) and MeX (cF8, Fm-3m)
$
 PHASE FCC_A1 %A 2 1 1 !
 CONST FCC_A1 : PD% ZN : VA : !
$
$ Bcc (cI2, Im-3m)
$
 PHASE BCC_A2 %B 2 1 3 !
 CONST BCC_A2 : PD ZN : VA : !
$
$ Disordered part of B2_BCC, identical to BCC_A2
$
 PHASE A2_BCC %B 2 1 3 !
 CONST A2_BCC : PD ZN : VA : !
$
$ Prototype CsCl (cP2, Pm-3m)
$
 PHASE B2_BCC %BO 3 0.5 0.5 3 !
 CONST B2_BCC : PD% ZN : PD ZN% : VA : !
$
$ Hcp (hP2, P6_3/mmc) and Me2X (NiAs-type, hP4, P6_3/mmc, B8_1)
$
 PHASE HCP_A3 %A 2 1 0.5 !
 CONST HCP_A3 : PD ZN% : VA : !
$
$ Prototype Co2Si (oP12, Pnma)
$
 PHASE PD2ZN_C37 % 2 2 1 !
 CONST PD2ZN_C37 : PD : ZN : !
$
$ Prototype CuTi-delta (tP2, P4/mmm)
$
 PHASE PDZN_L2A % 2 1 1 !
 CONST PDZN_L2A : PD% ZN : PD ZN% : !
$
$ Prototype PdZn2 (oC48, Cmmm)
$
 PHASE PDZN2 % 2 1 2 !
 CONST PDZN2 : PD : ZN : !
$
$ Prototype Cu5Zn8 (cI52, I-43m)
$
 PHASE PD2ZN9_D82 % 4 2 3 2 6 !
 CONST PD2ZN9_D82 : PD ZN% : PD% ZN : PD% ZN : PD ZN% : !
$
$ Pearson hP*, eta
$
 PHASE PDZN10 % 2 0.09 0.91 !
 CONST PDZN10 : PD : ZN : !
$ ------------------------------------------------------------------------------
$ Defaults
$
 DEFINE-SYSTEM-DEFAULT ELEMENT 2 !
 DEFAULT-COM DEFINE_SYSTEM_ELEMENT VA !
 TYPE-DEF % SEQ * !
 TYPE-DEF A GES AMEND_PHASE_DESCRIPTION @ MAGNETIC -3 0.28 !
 TYPE-DEF B GES AMEND_PHASE_DESCRIPTION @ MAGNETIC -1 0.4 !
 TYPE-DEF O GES AMEND_PHASE_DESCRIPTION B2_BCC DIS_PART A2_BCC !
 FUNCTION ZERO      298.15  0;                                         6000 N !
 FUNCTION UN_ASS    298.15  0;                                         6000 N !
 FUNCTION R         298.15  +8.31451;                                  6000 N !
$ ------------------------------------------------------------------------------
$ Element data
$ ------------------------------------------------------------------------------
$ Pd
$
$ RHOMBOHEDRAL_A7 added in unary 5.0
$
$ RHOMB_C19 from 00Du1 is absurd and not included in unary.
$
 PAR  G(FCC_A1,PD:VA),,                 +GHSERPD;                4000 N 91Din !
 PAR  G(BCC_A2,PD:VA),,                 +GHSERPD+10500-1.8*T;    4000 N 91Din !
 PAR  G(A2_BCC,PD:VA),,                 +GHSERPD+10500-1.8*T;    4000 N 91Din !
 PAR  G(HCP_A3,PD:VA),,                 +GHSERPD+2000+0.1*T;     4000 N 91Din !
$PAR  G(RHOMBOHEDRAL_A7,PD),,           +GHSERPD+4000;           4000 N 06Vre !
$PAR  G(RHOMB_C19,PD),,                 +GHSERPD+714075;         4000 N 00Du1 !
 PAR  G(LIQUID,PD),,                    +GLIQPD;                 4000 N 91Din !
$
 PAR  G(PDZN_L2A,PD:PD),,               +2*GHSERPD+15000;,,           N 22Gon !
 PAR  G(PD2ZN9_D82,PD:PD:PD:PD),,       +13*GHSERPD+26802;,,          N 22Gon !
$
 FUNCTION GHSERPD   298.15  -10204.027+176.076315*T-32.211*T*LN(T)
       +0.007120975*T**2-1.919875E-06*T**3+168687*T**(-1);
       900.00  Y  +917.062+49.659892*T-13.5708*T*LN(T)
       -0.00717522*T**2+1.91115E-07*T**3-1112465*T**(-1);
      1828.00  Y  -67161.018+370.102147*T-54.2067086*T*LN(T)
       +0.002091396*T**2-6.2811E-08*T**3+18683526*T**(-1);
      4000.00  N !
 FUNCTION GLIQPD    298.15  +11506.758-5.112162*T+GHSERPD;
       600.00  Y  +23405.778-116.918419*T+10.8922031*T*LN(T)
       -0.027266568*T**2+2.430675E-06*T**3-1853674*T**(-1);
      1828.00  Y  -12373.637+251.416903*T-41.17*T*LN(T);
      4000.00  N !
$ ------------------------------------------------------------------------------
$ Zn
$
$ BCT_A5 and DIAMOND_A4 added in unary 3.0
$ HCP_A3 revised in unary 4.1 (due to introduction of HCP_ZN)
$ RHOMBOHEDRAL_A7 and TETRAGONAL_A6 added in unary 4.1
$ TETRAGONAL_A6 revised in unary 4.4
$ CBCC_A12 and CUB_A13 added in unary 4.4
$ HCP_A3 and LIQUID modified in unary 5.0 (melting T and coefficients adjusted)
$ RHOMBO_A10 added in unary 5.0
$
$ Pure Zn restored as HCP_A3
$
 PAR  G(HCP_A3,ZN:VA),,                 +GHSERZN;                1700 N 91Din !
$PAR  G(HCP_A3,ZN:VA),,                 +GHSERZN
$            +2969.82-1.56968*T;                                 1700 N 93Kow !
 PAR  G(FCC_A1,ZN:VA),,                 +GHSERZN
             +2969.82-1.56968*T;                                 1700 N 91Din !
 PAR  G(BCC_A2,ZN:VA),,                 +GHSERZN
             +2886.96-2.5104*T;                                  1700 N 91Din !
 PAR  G(A2_BCC,ZN:VA),,                 +GHSERZN
             +2886.96-2.5104*T;                                  1700 N 91Din !
$PAR  G(DIAMOND_A4,ZN),,                +GHSERZN+30*T;           1700 N SGCOST !
$PAR  G(BCT_A5,ZN),,                    +GHSERZN
$            +2886.96-2.5104*T;                                  1700 N SGCOST !
$PAR  G(TETRAGONAL_A6,ZN),,             +GHSERZN+4184;           1700 N 96Lee !
$PAR  G(TETRAGONAL_A6,ZN),,             +GHSERZN
$            +2886.96-2.5104*T;                                  1700 N 99SGUN !
$PAR  G(RHOMBOHEDRAL_A7,ZN),,           +GHSERZN+2300+11.5*T;    1700 N 99SGUN !
$PAR  G(RHOMBO_A10,ZN),,                +GLIQZN-2000+10*T;       1700 N 98Han !
$PAR  G(CBCC_A12,ZN:VA),,               +GHSERZN+2000;           1700 N 01Mie !
$PAR  G(CUB_A13,ZN:VA),,                +GHSERZN+2000;           1700 N 01Mie !
 PAR  G(LIQUID,ZN),,                    +GLIQZN;                 1700 N 91Din !
$
$PAR  G(HCP_IM_A3,ZN),,                 +GHSERZN+2969.82-1.56968*T;,, N 93Kow !
 PAR  G(PDZN_L2A,ZN:ZN),,               +2*GHSERZN+15000;,,           N 22Gon !
 PAR  G(PD2ZN9_D82,ZN:ZN:ZN:ZN),,       +13*GHSERZN+88131;,,          N 22Gon !
$
 FUNCTION GHSERZN   298.15  -7285.787+118.470069*T-23.701314*T*LN(T)
       -0.001712034*T**2-1.264963E-06*T**3;
       692.677 Y  -11070.546+172.345644*T-31.38*T*LN(T)+4.7047E+26*T**(-9);
      1700.00  N !
 FUNCTION GLIQZN    298.15  +7157.222-10.29305*T+GHSERZN-3.58949E-19*T**7;
       692.677 Y  -3620.385+161.60854*T-31.38*T*LN(T);
      1700.00  N !
 FUNCTION GBCCZN    298.15  +GHSERZN+2886.96-2.5104*T;                 6000 N !
$ ------------------------------------------------------------------------------
$ Binary system
$
$ R. Gong, S.-L. Shang, H. Sun, M.J. Janik, Z.-K. Liu,
$ Calphad, 79, 102491(2022).
$
$ Checked against paper and author's tdb. Checked at 6000 K.
$
$ The bcc/B2 order-disorder modelling is not convincing.
$
$ 22Gon describe PdZn-beta_1 as L1_0 rather than L2_a, which is given in the
$ Pauling database (Springer Materials).
$
 PAR  L(LIQUID,PD,ZN;0),,               -134358-7.478*T;,,            N 22Gon !
 PAR  L(LIQUID,PD,ZN;1),,               +69096;,,                     N 22Gon !
 PAR  L(LIQUID,PD,ZN;2),,               +1643-5.417*T;,,              N 22Gon !
$
 PAR  L(FCC_A1,PD,ZN:VA;0),,            -207719+43.952*T;,,           N 22Gon !
 PAR  L(FCC_A1,PD,ZN:VA;1),,            +4410+T;,,                    N 22Gon !
 PAR  L(FCC_A1,PD,ZN:VA;2),,            +48734-6.984*T;,,             N 22Gon !
$
 PAR  L(BCC_A2,PD,ZN:VA;0),,            -174847+11*T;,,               N 22Gon !
 PAR  L(BCC_A2,PD,ZN:VA;1),,            +70000-11.371*T;,,            N 22Gon !
$
 PAR  L(A2_BCC,PD,ZN:VA;0),,            -174847+11*T;,,               N 22Gon !
 PAR  L(A2_BCC,PD,ZN:VA;1),,            +70000-11.371*T;,,            N 22Gon !
$
 PAR  G(B2_BCC,PD:ZN:VA),,              +80543.427-3.392*T;,,         N 22Gon !
 PAR  G(B2_BCC,ZN:PD:VA),,              +80543.427-3.392*T;,,         N 22Gon !
 PAR  L(B2_BCC,PD,ZN:PD:VA;0),,         +299038.0275-48.838*T;,,      N 22Gon !
 PAR  L(B2_BCC,PD:PD,ZN:VA;0),,         +299038.0275-48.838*T;,,      N 22Gon !
 PAR  L(B2_BCC,PD,ZN:PD:VA;1),,         +105969.122-27.525*T;,,       N 22Gon !
 PAR  L(B2_BCC,PD:PD,ZN:VA;1),,         +105969.122-27.525*T;,,       N 22Gon !
 PAR  L(B2_BCC,PD,ZN:PD:VA;2),,         +43037.3119-18.3458*T;,,      N 22Gon !
 PAR  L(B2_BCC,PD:PD,ZN:VA;2),,         +43037.3119-18.3458*T;,,      N 22Gon !
 PAR  L(B2_BCC,PD,ZN:ZN:VA;0),,         -35061.17297+4.2835*T;,,      N 22Gon !
 PAR  L(B2_BCC,ZN:PD,ZN:VA;0),,         -35061.17297+4.2835*T;,,      N 22Gon !
 PAR  L(B2_BCC,PD,ZN:ZN:VA;1),,         +47807.319-0.2357*T;,,        N 22Gon !
 PAR  L(B2_BCC,ZN:PD,ZN:VA;1),,         +47807.319-0.2357*T;,,        N 22Gon !
 PAR  L(B2_BCC,PD,ZN:ZN:VA;2),,         -14472.3186+2.2698*T;,,       N 22Gon !
 PAR  L(B2_BCC,ZN:PD,ZN:VA;2),,         -14472.3186+2.2698*T;,,       N 22Gon !
$
 PAR  L(HCP_A3,PD,ZN:VA;0),,            -134856-12.982*T;,,           N 22Gon !
 PAR  L(HCP_A3,PD,ZN:VA;1),,            +51421;,,                     N 22Gon !
$
 PAR  G(PD2ZN_C37,PD:ZN),,              +2*GHSERPD+GHSERZN
             -142996+18.662*T;,,                                      N 22Gon !
$
 PAR  G(PDZN_L2A,PD:ZN),,               +GHSERPD+GHSERZN
             -134320+25.87*T;,,                                       N 06Viz !
 PAR  G(PDZN_L2A,ZN:PD),,               +GHSERPD+GHSERZN
             -134320+25.87*T;,,                                       N 06Viz !
 PAR  L(PDZN_L2A,PD,ZN:PD;0),,          -35819+0.492*T;,,             N 22Gon !
 PAR  L(PDZN_L2A,PD,ZN:PD;1),,          +28503+1.138*T;,,             N 22Gon !
 PAR  L(PDZN_L2A,PD:PD,ZN;0),,          -35819+0.492*T;,,             N 22Gon !
 PAR  L(PDZN_L2A,PD:PD,ZN;1),,          +28503+1.138*T;,,             N 22Gon !
 PAR  L(PDZN_L2A,PD,ZN:ZN;0),,          -76386+3.498*T;,,             N 22Gon !
 PAR  L(PDZN_L2A,ZN:PD,ZN;0),,          -76386+3.498*T;,,             N 22Gon !
$
 PAR  G(PDZN2,PD:ZN),,                  +GHSERPD+2*GHSERZN
             -160623+23.213*T;,,                                      N 22Gon !
$
 PAR  G(PD2ZN9_D82,PD:PD:PD:ZN),,       +7*GHSERPD+6*GHSERZN-83241;,, N 22Gon !
 PAR  G(PD2ZN9_D82,PD:PD:ZN:PD),,       +11*GHSERPD+2*GHSERZN
             +131161;,,                                               N 22Gon !
 PAR  G(PD2ZN9_D82,PD:PD:ZN:ZN),,       +5*GHSERPD+8*GHSERZN-61982;,, N 22Gon !
 PAR  G(PD2ZN9_D82,PD:ZN:PD:PD),,       +10*GHSERPD+3*GHSERZN
             +186950;,,                                               N 22Gon !
 PAR  G(PD2ZN9_D82,PD:ZN:PD:ZN),,       +4*GHSERPD+9*GHSERZN+25785;,, N 22Gon !
 PAR  G(PD2ZN9_D82,PD:ZN:ZN:PD),,       +8*GHSERPD+5*GHSERZN
             +259218;,,                                               N 22Gon !
 PAR  G(PD2ZN9_D82,PD:ZN:ZN:ZN),,       +2*GHSERPD+11*GHSERZN
             +190798;,,                                               N 22Gon !
 PAR  G(PD2ZN9_D82,ZN:PD:PD:PD),,       +11*GHSERPD+2*GHSERZN
             -181667;,,                                               N 22Gon !
 PAR  G(PD2ZN9_D82,ZN:PD:PD:ZN),,       +5*GHSERPD+8*GHSERZN
             -564558+148.359*T;,,                                     N 22Gon !
 PAR  G(PD2ZN9_D82,ZN:PD:ZN:PD),,       +9*GHSERPD+4*GHSERZN-64329;,, N 22Gon !
 PAR  G(PD2ZN9_D82,ZN:PD:ZN:ZN),,       +3*GHSERPD+10*GHSERZN
             -411154;,,                                               N 22Gon !
 PAR  G(PD2ZN9_D82,ZN:ZN:PD:PD),,       +8*GHSERPD+5*GHSERZN-13907;,, N 22Gon !
 PAR  G(PD2ZN9_D82,ZN:ZN:PD:ZN),,       +2*GHSERPD+11*GHSERZN
             -440291+23.439*T;,,                                      N 22Gon !
 PAR  G(PD2ZN9_D82,ZN:ZN:ZN:PD),,       +6*GHSERPD+7*GHSERZN+26798;,, N 22Gon !
 PAR  L(PD2ZN9_D82,ZN:PD,ZN:PD:ZN;0),,  -393082;,,                    N 22Gon !
 PAR  L(PD2ZN9_D82,ZN:PD,ZN:PD:ZN;1),,  -5712;,,                      N 22Gon !
$
 PAR  G(PDZN10,PD:ZN),,                 +0.09*GHSERPD+0.91*GHSERZN
             -19059-0.29*T;,,                                         N 22Gon !
$ ------------------------------------------------------------------------------
$
$
 LIST-OF-REFERENCE
 NUMBER  SOURCE
  Null   'Unknown source'
  Same   'Same or similar interaction as in the corresponding stable phase'
  COST   'COST 507 database'
  SGCOST 'COST 507 database, SGTE unary database V.3.0, 1996; Al, B, Nd, Ti, Zn'
  91Din  'A.T. Dinsdale, Calphad, 15, 317-425(1991).'
  93Kow  'M. Kowalski, P.J. Spencer, J. Phase Equilib., 14, 432-38 (1993),
          SGTE unary database V.4.1, 1999; Zn'
  96Lee  'B.-J. Lee, Calphad, 20, 471-80(1996)
          SGTE unary database V.4.4, 2001; Zn'
  98Han  'S.C. Hansen, Calphad, 22, 359-73(1998),
          SGTE unary database V.5.0, 2009; Zn'
  99SGUN 'SGTE unary database V.4.1, 1999.'
  00Du1  'Z. Du, H. Yang, Z. Metallkd., 91, 455-59(2000); Pd, Sm'
  01Mie  'J. Miettinen, Calphad, 25, 43-58(2001),
          SGTE unary database V.4.4, 2001; Sn, Zn'
  06Viz  'J. Vizdal, A. Kroupa, J. Popovic, A. Zemanova,
          Adv. Eng. Mater., 8, 164-76(2006); Pd-Zn'
  06Vre  'J. Vrestal, J. Pinkas, A. Watson, A. Scott, J. Houserova, A. Kroupa,
          Calphad, 30, 14-17(2006), SGTE unary database V.5.0, 2009; Pd'
  22Gon  'R. Gong, S.-L. Shang, H. Sun, M.J. Janik, Z.-K. Liu,
          Calphad, 79, 102491(2022); Pd-Zn'
!
