$
$ Database for Er-Ni from Z. Du et al. 1999.
$
$ Z. Du, D. Wang, W. Zhang, J. Alloys Compd., 284, 206-12(1999).
$
$ Dataset created 2017.12.16 by Bengt Hallstedt.
$ 2020.12.26: Modified for use with GES6.
$
$ There is an inverse miscibility gap with a minimum at 2730 K and x(Ni)=0.82.
$
$ ------------------------------------------------------------------------------
 TEMP-LIM 298.15 6000.00 !
$
$ELEMENT NAME  REF. STATE               ATOMIC MASS H298-H0    S298    !
$
 ELEMENT VA   VACUUM                      0.0          0.0      0.0    ! 
 ELEMENT ER   HCP_A3                    167.26      7392.2912  73.17816! 
 ELEMENT NI   FCC_A1                     58.69      4787.0     29.7955 ! 
$ ------------------------------------------------------------------------------
$ Phase definitions
$
 PHASE LIQUID:L % 1 1 !
 CONST LIQUID:L : ER NI : !
$
$ Fcc (cF4, Fm-3m) and MeX (cF8, Fm-3m)
$
 PHASE FCC_A1 %A 2 1 1 !
 CONST FCC_A1 : ER NI% : VA : !
$
$ Bcc (cI2, Im-3m)
$
 PHASE BCC_A2 %B 2 1 3 !
 CONST BCC_A2 : ER% NI : VA : !
$
$ Hcp (hP2, P6_3/mmc) and Me2X (NiAs-type, hP4, P6_3/mmc, B8_1)
$
 PHASE HCP_A3 % 2 1 0.5 !
 CONST HCP_A3 : ER NI : VA : !
$
$ Prototype Fe3C (oP16, Pnma)
$
 PHASE ER3NI_D011 % 2 3 1 !
 CONST ER3NI_D011 : ER : NI : !
$
$ Prototype Er3Ni2 (hR15, R-3)
$
 PHASE ER3NI2 % 2 3 2 !
 CONST ER3NI2 : ER : NI : !
$
$ Prototype FeB (oP8, Pnma)
$
 PHASE ERNI_B27 % 2 1 1 !
 CONST ERNI_B27 : ER : NI : !
$
$ Prototype Cu2Mg (cF24, Fd-3m)
$
 PHASE ERNI2_C15 % 2 1 2 !
 CONST ERNI2_C15 : ER : NI : !
$
$ Prototype Ni3Pu (hR12, R-3m)
$
 PHASE ERNI3 % 2 1 3 !
 CONST ERNI3 : ER : NI : !
$
$ Prototype Co7Gd2 (hR18, R-3m)
$
 PHASE ER2NI7 % 2 2 7 !
 CONST ER2NI7 : ER : NI : !
$
$ Prototype Ni4Pu (mC30, C2/m)
$
 PHASE ERNI4 % 2 1 4 !
 CONST ERNI4 : ER : NI : !
$
$ Pearson hP126
$
 PHASE ER4NI17 % 2 4 17 !
 CONST ER4NI17 : ER : NI : !
$
$ Pearson hP108
$
 PHASE ER5NI22 % 2 5 22 !
 CONST ER5NI22 : ER : NI : !
$
$ Prototype CaCu5 (hP6, P6/mmm)
$
 PHASE ERNI5_D2D % 2 1 5 !
 CONST ERNI5_D2D : ER : NI : !
$
$ Prototype Ni17Th2 (hP38, P6_3/mmc)
$
 PHASE ER2NI17 % 2 2 17 !
 CONST ER2NI17 : ER : NI : !
$ ------------------------------------------------------------------------------
$ Defaults
$
 DEFINE-SYSTEM-DEFAULT ELEMENT 2 !
 DEFAULT-COM DEFINE_SYSTEM_ELEMENT VA !
 TYPE-DEF % SEQ * !
 TYPE-DEF A GES AMEND_PHASE_DESCRIPTION @ MAGNETIC -3 0.28 !
 TYPE-DEF B GES AMEND_PHASE_DESCRIPTION @ MAGNETIC -1 0.4 !
 FUNCTION ZERO      298.15  0;                                         6000 N !
 FUNCTION UN_ASS    298.15  0;                                         6000 N !
 FUNCTION R         298.15  +8.31451;                                  6000 N !
$ ------------------------------------------------------------------------------
$ Element data
$ ------------------------------------------------------------------------------
$ Er
$
$ BCC_A2 added in unary 4.4
$
$ FCC_A1 from 02Cac not included in unary (but it should be)
$
 PAR  G(HCP_A3,ER:VA),,                 +GHSERER;                3200 N 91Din !
 PAR  G(FCC_A1,ER:VA),,                 +GHSERER
             +1950-0.831451*T;                                   3200 N 02Cac !
 PAR  G(BCC_A2,ER:VA),,                 +GHSERER
             +4600-2.494353*T;                                   3200 N 00Nor1 !
 PAR  G(LIQUID,ER),,                    +GLIQER;                 3200 N 91Din !
$
 FUNCTION GHSERER   298.15  -8489.136+116.698964*T-28.3846744*T*LN(T)
       +9.95792E-04*T**2-9.52557E-07*T**3+9581*T**(-1);
      1802.00  Y  -445688.206+2233.10212*T-298.135131*T*LN(T)
       +0.065950553*T**2-3.041405E-06*T**3+1.23973199E+08*T**(-1);
      3200.00  N !
 FUNCTION GLIQER    298.15  +19382.102-10.241846*T+GHSERER;
       500.00  Y  +17912.678+0.355564*T-12.0761776*T*LN(T)
       -0.014414687*T**2+1.316517E-06*T**3-528122*T**(-1);
      1802.00  Y  +747.131+187.623024*T-38.702*T*LN(T);
      3200.00  N !
$ ------------------------------------------------------------------------------
$ Ni
$
$ FCC_A1 and LIQUID modified in unary 5.0 (slight change in upper T interval)
$ BCT_A5 added in unary 5.0
$
 PAR  G(FCC_A1,NI:VA),,                 +GHSERNI;                3000 N 91Din !
 PAR  TC(FCC_A1,NI:VA),,                  633.00;                3000 N 91Din !
 PAR  BM(FCC_A1,NI:VA),,                    0.52;                3000 N 91Din !
 PAR  G(BCC_A2,NI:VA),,                 +GHSERNI
             +8715.084-3.556*T;                                  3000 N 91Din !
 PAR  TC(BCC_A2,NI:VA),,                  575.00;                3000 N 91Din !
 PAR  BM(BCC_A2,NI:VA),,                    0.85;                3000 N 91Din !
 PAR  G(HCP_A3,NI:VA),,                 +GHSERNI+1046+1.255*T;   3000 N 91Din !
 PAR  TC(HCP_A3,NI:VA),,                  633.00;                3000 N 91Din !
 PAR  BM(HCP_A3,NI:VA),,                    0.52;                3000 N 91Din !
$PAR  G(BCT_A5,NI),,                    +GHSERNI+10023-4.556*T;  3000 N 99Gho !
$PAR  G(CUB_A13,NI:VA),,                +GHSERNI+2092;           3000 N 91Din !
$PAR  G(CBCC_A12,NI:VA),,               +GHSERNI+3556;           3000 N 91Din !
 PAR  G(LIQUID,NI),,                    +GLIQNI;                 3000 N 91Din !
$
 FUNCTION GHSERNI   298.15  -5179.159+117.854*T-22.096*T*LN(T)-0.0048407*T**2;
      1728.00  Y  -27840.62+279.134977*T-43.1*T*LN(T)+1.12754E+31*T**(-9);
      3000.00  N !
 FUNCTION GLIQNI    298.15  +16414.686-9.397*T+GHSERNI-3.82318E-21*T**7;
      1728.00  Y  -9549.817+268.597977*T-43.1*T*LN(T);
      3000.00  N !
 FUNCTION GBCCNI    298.15  +GHSERNI+8715.084-3.556*T;                 6000 N !
$ ------------------------------------------------------------------------------
$ Binary system
$
$ Z. Du, D. Wang, W. Zhang, J. Alloys Compd., 284, 206-12(1999).
$
$ Checked against paper. Checked at 6000 K.
$
$ There is an inverse miscibility gap with a minimum at 2730 K and x(Ni)=0.82.
$
 PAR  L(LIQUID,ER,NI;0),,               -164148+47.642*T;,,           N 99Du !
 PAR  L(LIQUID,ER,NI;1),,               +82460-51.37*T;,,             N 99Du !
$
 PAR  L(FCC_A1,ER,NI:VA;0),,            +100000;,,                    N 99Du !
 PAR  L(HCP_A3,ER,NI:VA;0),,            +100000;,,                    N 99Du !
$
 PAR  G(ER3NI_D011,ER:NI),,             +3*GHSERER+GHSERNI
             -66049+0.511*T;,,                                        N 99Du !
 PAR  G(ER3NI2,ER:NI),,                 +3*GHSERER+2*GHSERNI
             -132207+9.427*T;,,                                       N 99Du !
 PAR  G(ERNI_B27,ER:NI),,               +GHSERER+GHSERNI
             -61285+3.321*T;,,                                        N 99Du !
 PAR  G(ERNI2_C15,ER:NI),,              +GHSERER+2*GHSERNI
             -110165+20.413*T;,,                                      N 99Du !
 PAR  G(ERNI3,ER:NI),,                  +GHSERER+3*GHSERNI
             -158553+43.055*T;,,                                      N 99Du !
 PAR  G(ER2NI7,ER:NI),,                 +2*GHSERER+7*GHSERNI
             -325191+85.759*T;,,                                      N 99Du !
 PAR  G(ERNI4,ER:NI),,                  +GHSERER+4*GHSERNI
             -163912+40.943*T;,,                                      N 99Du !
 PAR  G(ER4NI17,ER:NI),,                +4*GHSERER+17*GHSERNI
             -657453+160.817*T;,,                                     N 99Du !
 PAR  G(ER5NI22,ER:NI),,                +5*GHSERER+22*GHSERNI
             -823178+199.197*T;,,                                     N 99Du !
 PAR  G(ERNI5_D2D,ER:NI),,              +GHSERER+5*GHSERNI
             -165724+38.72*T;,,                                       N 99Du !
 PAR  G(ER2NI17,ER:NI),,                +2*GHSERER+17*GHSERNI
             -341853+79.625*T;,,                                      N 99Du !
$
$ Metastable
$
 PAR  L(BCC_A2,ER,NI:VA;0),,            +100000;,,                    N Same !
$ ------------------------------------------------------------------------------
$
$
 LIST-OF-REFERENCE
 NUMBER  SOURCE
  Null   'Unknown source'
  Same   'Same or similar interaction as in the corresponding stable phase'
  REFLAV 'Laves phase convention: G(LAVES,X:X)=+3*GHSERXX+15000'
  91Din  'A.T. Dinsdale, Calphad, 15, 317-425(1991).'
  99Du   'Z. Du, D. Wang, W. Zhang, J. Alloys Compd., 284, 206-12(1999); Er-Ni'
  99Gho  'G. Ghosh, Metall. Mater. Trans. A, 30A, 1481-94(1999),
          SGTE unary database V.5.0, 2009; Ni'
  00Nor1 'S. Norgren, J. Phase Equilib., 21, 148-56(2000),
          SGTE unary database V.4.4, 2001; Er, Ho'
  02Cac  'G. Cacciamani, A. Saccone, S. De Negri, R. Ferro,
          J. Phase Equilib., 23, 38-50(2002); Er, Al-Er'
!
