$
$ Database for Au-Tm from H.Q. Dong et al. 2012
$
$ H.Q. Dong, X.M. Tao, T. Laurila, M. Paulastro-Krockel,
$ Calphad, 37, 87-93(2012).
$
$ Dataset created 2016.09.22 by Bengt Hallstedt.
$ 2020.12.22: Modified for use with GES6.
$
$ Invariant equilibria involving AUTM2_C37 are 3 K lower than in paper because
$ of rounding errors when changing from fractional to integar compositions.
$
$ ------------------------------------------------------------------------------
 TEMP-LIM 298.15 6000.00 !
$
$ELEMENT NAME  REF. STATE               ATOMIC MASS H298-H0    S298    !
$
 ELEMENT VA   VACUUM                      0.0          0.0      0.0    ! 
 ELEMENT AU   FCC_A1                    196.9665    6016.592   47.4884 ! 
 ELEMENT TM   HCP_A3                    168.9342    7397.312   74.01496! 
$ ------------------------------------------------------------------------------
$ Phase definitions
$
 PHASE LIQUID:L % 1 1 !
 CONST LIQUID:L : AU TM : !
$
$ Fcc (cF4) and MeX (cF8)
$
 PHASE FCC_A1 %A 2 1 1 !
 CONST FCC_A1 : AU% TM : VA : !
$
$ Bcc (cI2, Im-3m)
$
 PHASE BCC_A2 %B 2 1 3 !
 CONST BCC_A2 : AU TM : VA : !
$
$ Hcp (hP2, P6_3/mmc) and Me2X (NiAs-type, hP4, P6_3/mmc, B8_1)
$
 PHASE HCP_A3 %A 2 1 0.5 !
 CONST HCP_A3 : AU TM% : VA : !
$
$ Prototype MoNi4 (tI10, I4/m)
$
 PHASE AU4TM_D1A % 2 4 1 !
 CONST AU4TM_D1A : AU : TM : !
$
$ Prototype Cu3Ti (oP8, Pmmn)
$
 PHASE AU3TM_D0A % 2 3 1 !
 CONST AU3TM_D0A : AU : TM : !
$
$ Prototype MoSi2 (tI6, I4/mmm)
$
 PHASE AU2TM_C11B % 2 2 1 !
 CONST AU2TM_C11B : AU : TM : !
$
$ Prototype Au10Gd7 (tI136, I4_1/acd)
$
 PHASE AU10TM7 % 2 10 7 !
 CONST AU10TM7 : AU : TM : !
$
$ Prototype CrB (oC8, Cmcm), alpha-AuTM
$
 PHASE AUTM_B33 % 2 1 1 !
 CONST AUTM_B33 : AU : TM : !
$
$ Prototype CsCl (cP2, Pm-3m), beta-AuTM
$
 PHASE AUTM_B2 % 2 1 1 !
 CONST AUTM_B2 : AU : TM : !
$
$ Prototype Co2Si (oP12, Pnma)
$
 PHASE AUTM2_C37 % 2 1 2 !
 CONST AUTM2_C37 : AU : TM : !
$ ------------------------------------------------------------------------------
$ Defaults
$
 DEFINE-SYSTEM-DEFAULT ELEMENT 2 !
 DEFAULT-COM DEFINE_SYSTEM_ELEMENT VA !
 TYPE-DEF % SEQ * !
 TYPE-DEF A GES AMEND_PHASE_DESCRIPTION @ MAGNETIC -3 0.28 !
 TYPE-DEF B GES AMEND_PHASE_DESCRIPTION @ MAGNETIC -1 0.4 !
 FUNCTION ZERO      298.15  0;                                         6000 N !
 FUNCTION UN_ASS    298.15  0;                                         6000 N !
 FUNCTION R         298.15  +8.31451;                                  6000 N !
$ ------------------------------------------------------------------------------
$ Element data
$ ------------------------------------------------------------------------------
$ Au
$
$ DHCP added in unary 5.0
$
$ DHCP replaced by the value from 92Ans in SGSOL 5.0
$
$ The DHCP phase is labelled D0_24 in 03Liu and alpha-prime in 92Ans. The
$ phase is present between the fcc and hcp phases in the Au-Sn and Au-In
$ systems. The value for DHCP from 92Ans was used to model these systems,
$ thus this value must be included in the unary database and not the 04Du
$ value.
$
 PAR  G(FCC_A1,AU:VA),,                 +GHSERAU;                3200 N 91Din !
 PAR  G(HCP_A3,AU:VA),,                 +GHSERAU+240.75+1.6*T;   3200 N 91Din !
 PAR  G(BCC_A2,AU:VA),,                 +GHSERAU+4250-1.1*T;     3200 N 91Din !
$PAR  G(DHCP,AU),,                      +GHSERAU+125+0.79*T;     3200 N 92Ans !
$PAR  G(DHCP,AU),,                      +GHSERAU+5000;           3200 N 04Du1 !
 PAR  G(LIQUID,AU),,                    +GHSERAU
             +12552-9.385866*T;                                  3200 N 91Din !
$
 FUNCTION GHSERAU   298.15  -6938.856+106.830098*T-22.75455*T*LN(T)
       -0.00385924*T**2+3.79625E-07*T**3-25097*T**(-1);
       929.40  Y  -93586.481+1021.69543*T-155.706745*T*LN(T)
       +0.08756015*T**2-1.1518713E-05*T**3+10637210*T**(-1);
      1337.33  Y  +314067.829-2016.37825*T+263.252259*T*LN(T)
       -0.118216828*T**2+8.923844E-06*T**3-67999832*T**(-1);
      1735.80  Y  -12133.783+165.272524*T-30.9616*T*LN(T);
      3200.00  N !
$ ------------------------------------------------------------------------------
$ Tm
$
$ FCC_A1 from 12Don not included in unary
$ BCC_A2 from 04Du2 not included in unary
$ RHOMBOHEDRAL_A7 from 10Wan not included in unary
$
 PAR  G(HCP_A3,TM:VA),,                 +GHSERTM;                2300 N 91Din !
 PAR  G(FCC_A1,TM:VA),,                 +GHSERTM+2680;           2300 N 12Don !
 PAR  G(BCC_A2,TM:VA),,                 +GHSERTM+5000;           2300 N 04Du3 !
$PAR  G(RHOMBOHEDRAL_A7,TM),,           +GHSERTM+5000;           2300 N 10Wan !
 PAR  G(LIQUID,TM),,                    +GLIQTM;                 2300 N 91Din !
$
 FUNCTION GHSERTM   298.15  -10016.715+151.037648*T-34.3664974*T*LN(T)
       +0.012110965*T**2-3.831156E-06*T**3+95982*T**(-1);
       700.00  Y  -14701.965+147.957496*T-32.1951269*T*LN(T)
       +4.44753E-04*T**2-3.96694E-07*T**3+1091664*T**(-1);
      1600.00  Y  -8669.227+97.98144*T-25.1816969*T*LN(T)-0.003384563*T**2;
      1818.00  Y  +727125.608-4147.40063*T+534.082763*T*LN(T)
       -0.19093039*T**2+1.1689185E-05*T**3-1.8038222E+08*T**(-1);
      2300.00  N !
 FUNCTION GLIQTM    298.15  +13199.249-6.557671*T+GHSERTM;
       600.00  Y  +22640.028-126.738485*T+6.8744933*T*LN(T)
       -0.025487085*T**2+2.288172E-06*T**3-1585412*T**(-1);
      1818.00  Y  -10090.305+214.184413*T-41.37976*T*LN(T);
      2300.00  N !
$ ------------------------------------------------------------------------------
$ Binary system
$
$ H.Q. Dong, X.M. Tao, T. Laurila, M. Paulastro-Krockel,
$ Calphad, 37, 87-93(2012).
$
$ Checked against paper and author's tdb. Checked at 6000 K.
$
$ Invariant equilibria involving AUTM2_C37 are 3 K lower than in paper because
$ of rounding errors when changing from fractional to integar compositions.
$
 PAR  L(LIQUID,AU,TM;0),,               -305457.81+30.0006*T;,,       N 12Don !
 PAR  L(LIQUID,AU,TM;1),,               -107912.29+29.0164*T;,,       N 12Don !
 PAR  L(LIQUID,AU,TM;2),,               +35809.47;,,                  N 12Don !
$
 PAR  L(FCC_A1,AU,TM:VA;0),,            -191775.12+2.0549*T;,,        N 12Don !
 PAR  L(FCC_A1,AU,TM:VA;1),,            -119934.2+3.9198*T;,,         N 12Don !
$
 PAR  L(HCP_A3,AU,TM:VA;0),,            -125309.51;,,                 N 12Don !
$
 PAR  G(AU4TM_D1A,AU:TM),,              +4*GHSERAU+GHSERTM
             -308021.55+36.514*T;,,                                   N 12Don !
 PAR  G(AU3TM_D0A,AU:TM),,              +3*GHSERAU+GHSERTM
             -276623.36+20.898*T;,,                                   N 12Don !
 PAR  G(AU2TM_C11B,AU:TM),,             +2*GHSERAU+GHSERTM
             -248107.47+21.042*T;,,                                   N 12Don !
 PAR  G(AU10TM7,AU:TM),,                +10*GHSERAU+7*GHSERTM
             -1489184.87+134.1351*T;,,                                N 12Don !
 PAR  G(AUTM_B33,AU:TM),,               +GHSERAU+GHSERTM
             -180951.6+14.7386*T;,,                                   N 12Don !
 PAR  G(AUTM_B2,AU:TM),,                +GHSERAU+GHSERTM
             -137813.8-7.9222*T;,,                                    N 12Don !
 PAR  G(AUTM2_C37,AU:TM),,              +GHSERAU+2*GHSERTM
             -210011.25+24.5859*T;,,                                  N 12Don !
$
$ Metastable
$
 PAR  L(BCC_A2,AU,TM:VA;0),,            -191775.12+2.0549*T;,,        N Same !
 PAR  L(BCC_A2,AU,TM:VA;1),,            -119934.2+3.9198*T;,,         N Same !
$ ------------------------------------------------------------------------------
$
$
 LIST-OF-REFERENCE
 NUMBER  SOURCE
  Null   'Unknown source'
  Same   'Same or similar interaction as in the corresponding stable phase'
  COST   'COST 507 database'
  91Din  'A.T. Dinsdale, Calphad, 15, 317-425(1991).'
  92Ans  'I. Ansara, J.-Ph. Nabot, Calphad, 16, 13-18(1992); Au'
  00Nor1 'S. Norgren, J. Phase Equilib., 21, 148-56(2000),
          SGTE unary database V.4.4, 2001; Er, Ho'
  03Cac  'G. Cacciamani, S. De Negri, A. Saccone, R. Ferro,
          Intermetallics, 11, 1135-51(2003); Ho, Al-Ho'
  04Du1  'Z. Du, C. Guo, D. Lu, J. Alloys Compd., 364, 117-20(2004),
          SGTE unary database V.5.0, 2009; Au'
  04Du3  'Z. Du, H. Liu, G. Ling,
          J. Alloys Compd., 373, 151-55(2004); Tm, Mg-Tm'
  10Wan  'C.P. Wang, H.L. Zhang, A.T. Tang, F.S. Pan, X.J. Liu,
          J. Alloys Compd., 502, 43-48(2010); Tm, Bi-Tm'
  12Don  'H.Q. Dong, X.M. Tao, T. Laurila, M. Paulastro-Krockel,
          Calphad, 37, 87-93(2012); Ho, Tm, Au-Ho, Au-Tm'
!
