$
$ Database for Ce-Pr from D. Su et al. 2021.
$
$ D. Su, M.H. Rong, K.C. Yang, Q.R. Yao, J. Wang, G.H. Rao, H.Y. Zhou,
$ Calphad, 74, 102285(2021)
$
$ Dataset created 2021.09.18 by Bengt Hallstedt.
$
$ ------------------------------------------------------------------------------
 TEMP-LIM 298.15 6000.00 !
$
$ELEMENT NAME  REF. STATE               ATOMIC MASS H298-H0    S298    !
$
 ELEMENT VA   VACUUM                      0.0          0.0      0.0    ! 
 ELEMENT LA   DHCP                      138.9055    6665.112   56.9024 ! 
 ELEMENT PR   DHCP                      140.9077    7418.232   73.9313 ! 
$ ------------------------------------------------------------------------------
$ Phase definitions
$
 PHASE LIQUID:L % 1 1 !
 CONST LIQUID:L : LA PR : !
$
$ Fcc (cF4, Fm-3m) and MeX (cF8, Fm-3m)
$
 PHASE FCC_A1 %A 2 1 1 !
 CONST FCC_A1 : LA% PR : VA% : !
$
$ Bcc (cI2, Im-3m)
$
 PHASE BCC_A2 %B 2 1 3 !
 CONST BCC_A2 : LA% PR% : VA% : !
$
$ Prototype alpha-La (SB A3', hP4, P6_3/mmc)
$
 PHASE DHCP %A 1 1 !
 CONST DHCP : LA% PR% : !
$ ------------------------------------------------------------------------------
$ Defaults
$
 DEFINE-SYSTEM-DEFAULT ELEMENT 2 !
 DEFAULT-COM DEFINE_SYSTEM_ELEMENT VA !
 TYPE-DEF % SEQ * !
 TYPE-DEF A GES AMEND_PHASE_DESCRIPTION @ MAGNETIC -3 0.28 !
 TYPE-DEF B GES AMEND_PHASE_DESCRIPTION @ MAGNETIC -1 0.4 !
 FUNCTION ZERO      298.15  0;                                         6000 N !
 FUNCTION UN_ASS    298.15  0;                                         6000 N !
 FUNCTION R         298.15  +8.31451;                                  6000 N !
$ ------------------------------------------------------------------------------
$ Element data
$ ------------------------------------------------------------------------------
$ La
$
 PAR  G(DHCP,LA),,                      +GHSERLA;                4000 N 91Din !
 PAR  G(FCC_A1,LA:VA),,                 +GFCCLA;                 4000 N 91Din !
 PAR  G(BCC_A2,LA:VA),,                 +GBCCLA;                 4000 N 91Din !
 PAR  G(LIQUID,LA),,                    +GLIQLA;                 4000 N 91Din !
$
 FUNCTION GHSERLA   298.15  -7968.403+120.284604*T-26.34*T*LN(T)
       -0.001295165*T**2;
       550.00  Y  -3381.413+59.06113*T-17.1659411*T*LN(T)
       -0.008371705*T**2+6.8932E-07*T**3-399448*T**(-1);
      2000.00  Y  -15608.882+181.390071*T-34.3088*T*LN(T);
      4000.00  N !
 FUNCTION GFCCLA    298.15  -6109.797+89.878761*T-21.7919*T*LN(T)
       -0.004045175*T**2-5.25865E-07*T**3;
      1134.00  Y  -124598.976+955.878375*T-139.346741*T*LN(T)
       +0.042032405*T**2-3.066199E-06*T**3+20994153*T**(-1);
      2000.00  Y  +3009.496-2.846081*T+GHSERLA;
      4000.00  N !
 FUNCTION GBCCLA    298.15  -3952.161+88.072353*T-21.7919*T*LN(T)
       -0.004045175*T**2-5.25865E-07*T**3;
       800.00  Y  +321682.673-3565.08252*T+513.440708*T*LN(T)
       -0.387295093*T**2+4.9547989E-05*T**3-36581228*T**(-1);
      1134.00  Y  -16377.894+218.492988*T-39.5388*T*LN(T);
      1193.00  Y  -136609.91+1123.34397*T-163.413074*T*LN(T)
       +0.053968535*T**2-4.056395E-06*T**3+21167204*T**(-1);
      2000.00  Y  +7402.894-6.553756*T+GHSERLA;
      4000.00  N !
 FUNCTION GLIQLA    298.15  +5332.653+18.23012*T-11.0188191*T*LN(T)
       -0.020171603*T**2+2.93775E-06*T**3-133541*T**(-1);
      1134.00  Y  -3942.004+171.018431*T-34.3088*T*LN(T);
      4000.00  N !
$ ------------------------------------------------------------------------------
$ Pr
$
$ FCC_A1 from 11Jin not included in unary (value seems very reasonable).
$
 PAR  G(DHCP,PR),,                      +GHSERPR;                3800 N 91Din !
 PAR  G(FCC_A1,PR:VA),,                 +GHSERPR+900-0.5439*T;   3800 N 11Jin !
 PAR  G(BCC_A2,PR:VA),,                 +GBCCPR;                 3800 N 91Din !
 PAR  G(LIQUID,PR),,                    +GLIQPR;                 3800 N 91Din !
$
 FUNCTION GHSERPR   298.15  -18803.379+356.587384*T-68.9176*T*LN(T)
       +0.072929*T**2-2.5184333E-05*T**3+507385*T**(-1);
       500.00  Y  -7246.848+82.427384*T-22.8909*T*LN(T)
       -0.00497126*T**2-1.22951E-06*T**3;
       800.00  Y  +95411.023-1073.55111*T+146.764*T*LN(T)
       -0.1288205*T**2+1.5592233E-05*T**3-11588800*T**(-1);
      1068.00  Y  -481663.131+4234.33311*T-606.120311*T*LN(T)
       +0.305181506*T**2-3.0994702E-05*T**3+70926840*T**(-1);
      1204.00  Y  -20014.678+227.685155*T-42.9697*T*LN(T);
      3800.00  N !
 FUNCTION GBCCPR    298.15  -2863.651+28.274853*T-13.7470527*T*LN(T)
       -0.02284377*T**2+3.542468E-06*T**3-87486*T**(-1);
      1068.00  Y  -11985.919+188.657121*T-38.451*T*LN(T);
      1204.00  Y  +953.224+100.826281*T-26.6824313*T*LN(T)
       -0.004106833*T**2+1.76214E-07*T**3-2473024*T**(-1);
      3800.00  N !
 FUNCTION GLIQPR    298.15  +3848.961-29.099465*T-4.7344931*T*LN(T)
       -0.035119723*T**2+5.427467E-06*T**3-207406*T**(-1);
      1068.00  Y  -10539.574+219.508805*T-42.9697*T*LN(T);
      3800.00  N !
$ ------------------------------------------------------------------------------
$ Binary system
$
$ D. Su, M.H. Rong, K.C. Yang, Q.R. Yao, J. Wang, G.H. Rao, H.Y. Zhou,
$ Calphad, 74, 102285(2021)
$
$ Checked against paper and author's tdb. Checked at 6000 K.
$
$ There is no phase diagram in the paper.
$
 PAR  L(LIQUID,LA,PR;0),,               +ZERO;,,                      N 21Su !
$
 PAR  L(FCC_A1,LA,PR:VA;0),,            +ZERO;,,                      N 21Su !
 PAR  L(BCC_A2,LA,PR:VA;0),,            +ZERO;,,                      N 21Su !
 PAR  L(DHCP,LA,PR;0),,                 +ZERO;,,                      N 21Su !
$ ------------------------------------------------------------------------------
$
$
 LIST-OF-REFERENCE
 NUMBER  SOURCE
  Null   'Unknown source'
  COST   'COST 507 database'
  91Din  'A.T. Dinsdale, Calphad, 15, 317-425(1991).'
  11Jin  'L. Jin, Y.-B. Kang, P. Chartrand, C.D. Fuerst,
          Calphad, 35, 30-41(2011); La, Nd, Pr, Sm'
  21Su   'D. Su, M.H. Rong, K.C. Yang, Q.R. Yao, J. Wang, G.H. Rao, H.Y. Zhou,
          Calphad, 74, 102285(2021); La-Pr'
!
