$
$ Database for Co-Ni from J.C. Pereira dos Santos et al. 2024.
$
$ J.C. Pereira dos Santos, S. Griesemer, N. Dupin, U.R. Kattner, C. Liu,
$ D. Ivanova, T. Hammerschmidt, S.G. Fries, C. Wolverton, C.E. Campbell,
$ J. Phase Equilib. Diffus., 45, 330-57(2024).
$
$ Dataset created 2023.11.20 by Bengt Hallstedt.
$
$ Sigma added to 87Fer using a 5-sl EBEF add-on model.
$
$ ------------------------------------------------------------------------------
 TEMP-LIM 298.15 6000.00 !
$
$ELEMENT NAME  REF. STATE               ATOMIC MASS H298-H0    S298    !
$
 ELEMENT VA   VACUUM                      0.0          0.0      0.0    ! 
 ELEMENT CO   HCP_A3                     58.9332    4765.567   30.0400 ! 
 ELEMENT NI   FCC_A1                     58.69      4787.0     29.7955 ! 
$ ------------------------------------------------------------------------------
$ Phase definitions
$
 PHASE LIQUID:L % 1 1 !
 CONST LIQUID:L : CO NI : !
$
$ Fcc (cF4, Fm-3m) and MeX (cF8, Fm-3m)
$
 PHASE FCC_A1 %A 2 1 1 !
 CONST FCC_A1 : CO% NI% : VA : !
$
$ Bcc (cI2, Im-3m)
$
 PHASE BCC_A2 %B 2 1 3 !
 CONST BCC_A2 : CO NI : VA : !
$
$ Hcp (hP2, P6_3/mmc) and Me2X (NiAs-type, hP4, P6_3/mmc, B8_1)
$
 PHASE HCP_A3 %A 2 1 0.5 !
 CONST HCP_A3 : CO% NI : VA : !
$
$ Disordered contribution to SIGMA_D8B
$
 PHASE DIS_SIG %A 1 1 !
 CONST DIS_SIG : CO NI : !
$
$ Prototype CrFe (tP30, P4_2/mnm)
$
 PHASE SIGMA_D8B %AS 5 2 4 8 8 8 !
 CONST SIGMA_D8B : CO NI : CO NI : CO NI : CO NI : CO NI : !
$ ------------------------------------------------------------------------------
$ Defaults
$
 DEFINE-SYSTEM-DEFAULT ELEMENT 2 !
 DEFAULT-COM DEFINE_SYSTEM_ELEMENT VA !
 TYPE-DEF % SEQ * !
 TYPE-DEF A GES AMEND_PHASE_DESCRIPTION @ MAGNETIC -3 0.28 !
 TYPE-DEF B GES AMEND_PHASE_DESCRIPTION @ MAGNETIC -1 0.4 !
 TYPE-DEF S GES AMEND_PHASE_DESCRIPTION SIGMA_D8B NEVER_DIS DIS_SIG !
 FUNCTION ZERO      298.15  0;                                         6000 N !
 FUNCTION UN_ASS    298.15  0;                                         6000 N !
 FUNCTION R         298.15  +8.31451;                                  6000 N !
$ ------------------------------------------------------------------------------
$ Element data
$ ------------------------------------------------------------------------------
$ Co
$
 PAR  G(HCP_A3,CO:VA),,                 +GHSERCO;,,                   N 91Din !
 PAR  TC(HCP_A3,CO:VA),,                 1396.00;,,                   N 91Din !
 PAR  BMAG(HCP_A3,CO:VA),,                  1.35;,,                   N 91Din !
 PAR  G(FCC_A1,CO:VA),,                 +GHSERCO
             +427.591-0.615248*T;,,                                   N 91Din !
 PAR  TC(FCC_A1,CO:VA),,                 1396.00;,,                   N 91Din !
 PAR  BMAG(FCC_A1,CO:VA),,                  1.35;,,                   N 91Din !
 PAR  G(BCC_A2,CO:VA),,                 +GHSERCO+2938-0.7138*T;,,     N 91Din !
 PAR  TC(BCC_A2,CO:VA),,                 1450.00;,,                   N 91Din !
 PAR  BMAG(BCC_A2,CO:VA),,                  1.35;,,                   N 91Din !
$PAR  G(CBCC_A12,CO:VA),,               +GHSERCO+4155;,,              N 91Din !
$PAR  G(CUB_A13,CO:VA),,                +GHSERCO+3155;,,              N 91Din !
 PAR  G(LIQUID,CO),,                    +GLIQCO;,,                    N 91Din !
$
 PAR  G(DIS_SIG,CO),,                   +GHSERCO+6010.18+0.5*T;,,     N 24Per !
 PAR  TC(DIS_SIG,CO),,                   1426.61;,,                   N 24Per !
 PAR  BMAG(DIS_SIG,CO),,                    1.62;,,                   N 24Per !
$
 FUNCTION GHSERCO   298.15  +310.241+133.36601*T-25.0861*T*LN(T)
       -0.002654739*T**2-1.7348E-07*T**3+72527*T**(-1);
      1768.00  Y  -17197.666+253.28374*T-40.5*T*LN(T)+9.3488E+30*T**(-9);
      6000.00  N !
 FUNCTION GLIQCO    298.15  +15085.037-8.931932*T+GHSERCO-2.19801E-21*T**7;
      1768.00  Y  -846.61+243.599944*T-40.5*T*LN(T);
      6000.00  N !
$ ------------------------------------------------------------------------------
$ Ni
$
$ FCC_A1 and LIQUID modified in unary 5.0 (slight change in upper T interval)
$ BCT_A5 added in unary 5.0
$
 PAR  G(FCC_A1,NI:VA),,                 +GHSERNI;                3000 N 91Din !
 PAR  TC(FCC_A1,NI:VA),,                  633.00;                3000 N 91Din !
 PAR  BMAG(FCC_A1,NI:VA),,                  0.52;                3000 N 91Din !
 PAR  G(BCC_A2,NI:VA),,                 +GHSERNI
             +8715.084-3.556*T;                                  3000 N 91Din !
 PAR  TC(BCC_A2,NI:VA),,                  575.00;                3000 N 91Din !
 PAR  BMAG(BCC_A2,NI:VA),,                  0.85;                3000 N 91Din !
 PAR  G(HCP_A3,NI:VA),,                 +GHSERNI+1046+1.255*T;   3000 N 91Din !
 PAR  TC(HCP_A3,NI:VA),,                  633.00;                3000 N 91Din !
 PAR  BMAG(HCP_A3,NI:VA),,                  0.52;                3000 N 91Din !
$PAR  G(BCT_A5,NI),,                    +GHSERNI+10023-4.556*T;  3000 N 99Gho !
$PAR  G(CUB_A13,NI:VA),,                +GHSERNI+2092;           3000 N 91Din !
$PAR  G(CBCC_A12,NI:VA),,               +GHSERNI+3556;           3000 N 91Din !
 PAR  G(LIQUID,NI),,                    +GLIQNI;                 3000 N 91Din !
$
 PAR  G(DIS_SIG,NI),,                   +GHSERNI+9302.69+6*T;,,       N 24Per !
 PAR  TC(DIS_SIG,NI),,                    604.01;,,                   N 24Per !
 PAR  BMAG(DIS_SIG,NI),,                    0.58;,,                   N 24Per !
$
 FUNCTION GHSERNI   298.15  -5179.159+117.854*T-22.096*T*LN(T)-0.0048407*T**2;
      1728.00  Y  -27840.62+279.134977*T-43.1*T*LN(T)+1.12754E+31*T**(-9);
      3000.00  N !
 FUNCTION GLIQNI    298.15  +16414.686-9.397*T+GHSERNI-3.82318E-21*T**7;
      1728.00  Y  -9549.817+268.597977*T-43.1*T*LN(T);
      3000.00  N !
 FUNCTION GBCCNI    298.15  +GHSERNI+8715.084-3.556*T;                 6000 N !
$ ------------------------------------------------------------------------------
$ Binary system
$
$ J.C. Pereira dos Santos, S. Griesemer, N. Dupin, U.R. Kattner, C. Liu,
$ D. Ivanova, T. Hammerschmidt, S.G. Fries, C. Wolverton, C.E. Campbell,
$ J. Phase Equilib. Diffus., 45, 330-57(2024).
$
$ Checked against paper and author's tdb. Checked at 6000 K.
$
$ Sigma added to 87Fer using a 5-sl EBEF add-on model.
$
 PAR  L(LIQUID,CO,NI;0),,               +1331;,,                      N 87Fer3 !
$
 PAR  L(FCC_A1,CO,NI:VA;0),,            -800+1.2629*T;,,              N 87Fer3 !
 PAR  TC(FCC_A1,CO,NI:VA;0),,            +411;,,                      N 87Fer3 !
 PAR  TC(FCC_A1,CO,NI:VA;1),,             -99;,,                      N 87Fer3 !
 PAR  BMAG(FCC_A1,CO,NI:VA;0),,            +1.046;,,                  N 87Fer3 !
 PAR  BMAG(FCC_A1,CO,NI:VA;1),,            +0.165;,,                  N 87Fer3 !
$
 PAR  L(HCP_A3,CO,NI:VA;0),,            -1620-0.385*T;,,              N 87Fer3 !
 PAR  TC(HCP_A3,CO,NI:VA;0),,            +411;,,                      N 87Fer3 !
 PAR  TC(HCP_A3,CO,NI:VA;1),,             -99;,,                      N 87Fer3 !
 PAR  BMAG(HCP_A3,CO,NI:VA;0),,            +1.046;,,                  N 87Fer3 !
 PAR  BMAG(HCP_A3,CO,NI:VA;1),,            +0.165;,,                  N 87Fer3 !
$
$ Metastable
$
 PAR  L(BCC_A2,CO,NI:VA;0),,            +1331;,,                      N 24Per !
$
 PAR  G(SIGMA_D8B,CO:NI:*:*:*),,        -6192.39;,,                   N 24Per !
 PAR  G(SIGMA_D8B,CO:*:NI:*:*),,        +253.49;,,                    N 24Per !
 PAR  G(SIGMA_D8B,CO:*:*:NI:*),,        -1452.91;,,                   N 24Per !
 PAR  G(SIGMA_D8B,CO:*:*:*:NI),,        +7833.23;,,                   N 24Per !
 PAR  G(SIGMA_D8B,*:CO:NI:*:*),,        -3484.17;,,                   N 24Per !
 PAR  G(SIGMA_D8B,*:CO:*:NI:*),,        +18336.16;,,                  N 24Per !
 PAR  G(SIGMA_D8B,*:CO:*:*:NI),,        -14167.35;,,                  N 24Per !
 PAR  G(SIGMA_D8B,*:*:CO:NI:*),,        +4081.97;,,                   N 24Per !
 PAR  G(SIGMA_D8B,*:*:CO:*:NI),,        -5391.48;,,                   N 24Per !
 PAR  G(SIGMA_D8B,*:*:*:CO:NI),,        +3006.21;,,                   N 24Per !
 PAR  G(SIGMA_D8B,NI:CO:*:*:*),,        -7217.91;,,                   N 24Per !
 PAR  G(SIGMA_D8B,NI:*:CO:*:*),,        +3439.58;,,                   N 24Per !
 PAR  G(SIGMA_D8B,NI:*:*:CO:*),,        +1051.58;,,                   N 24Per !
 PAR  G(SIGMA_D8B,NI:*:*:*:CO),,        -1740.58;,,                   N 24Per !
 PAR  G(SIGMA_D8B,*:NI:CO:*:*),,        +3271.66;,,                   N 24Per !
 PAR  G(SIGMA_D8B,*:NI:*:CO:*),,        -18409.41;,,                  N 24Per !
 PAR  G(SIGMA_D8B,*:NI:*:*:CO),,        +15015.74;,,                  N 24Per !
 PAR  G(SIGMA_D8B,*:*:NI:CO:*),,        +3400.37;,,                   N 24Per !
 PAR  G(SIGMA_D8B,*:*:NI:*:CO),,        +7853.55;,,                   N 24Per !
 PAR  G(SIGMA_D8B,*:*:*:NI:CO),,        -11616.3;,,                   N 24Per !
$ ------------------------------------------------------------------------------
$
 ASSESSED_SYSTEM
  CO-NI(TDB -* +LIQ +HCP_A3 +FCC_A1 ;P3 TMM:300/2000 STP:.1/800/2/-2) !
$
$
 LIST-OF-REFERENCE
 NUMBER  SOURCE
  Null   'Unknown source'
  Same   'Same or similar interaction as in the corresponding stable phase'
  REFLAV 'Laves phase convention: G(LAVES,X:X)=+3*GHSERXX+15000'
  87Fer3 'A. Fernandez Guillermet, Z. Metallkd., 78, 639-47(1987); Co-Ni' 
  91Din  'A.T. Dinsdale, Calphad, 15, 317-425(1991).'
  99Gho  'G. Ghosh, Metall. Mater. Trans. A, 30A, 1481-94(1999),
          SGTE unary database V.5.0, 2009; Ni'
  24Per  'J.C. Pereira dos Santos, S. Griesemer, N. Dupin, U.R. Kattner, C. Liu,
          D. Ivanova, T. Hammerschmidt, S.G. Fries, C. Wolverton, C.E. Campbell,
          J. Phase Equilib. Diffus., 45, 330-57(2024); Co-Ni'
!
