$
$ Database for Be-Hf from N. Saunders 1985.
$
$ N. Saunders, Calphad, 9, 297-309(1985).
$
$ Dataset created 2021.10.17 by Bengt Hallstedt.
$
$ The phase diagram is only approximately reproduced.
$
$ ------------------------------------------------------------------------------
 TEMP-LIM 298.15 6000.00 !
$
$ELEMENT NAME  REF. STATE               ATOMIC MASS H298-H0    S298    !
$
 ELEMENT VA   VACUUM                      0.0          0.0      0.0    ! 
 ELEMENT BE   HCP_A3                      9.01218   1950.0      9.50   ! 
 ELEMENT HF   HCP_A3                    178.49      5845.0     43.56   ! 
$ ------------------------------------------------------------------------------
$ Phase definitions
$
 PHASE LIQUID:L % 1 1 !
 CONST LIQUID:L : BE HF : !
$
$ Fcc (cF4, Fm-3m) and MeX (cF8, Fm-3m)
$
 PHASE FCC_A1 %A 2 1 1 !
 CONST FCC_A1 : BE HF : VA : !
$
$ Bcc (cI2, Im-3m)
$
 PHASE BCC_A2 %B 2 1 3 !
 CONST BCC_A2 : BE% HF% : VA : !
$
$ Hcp (hP2, P6_3/mmc) and Me2X (NiAs-type, hP4, P6_3/mmc, B8_1)
$
 PHASE HCP_A3 %A 2 1 0.5 !
 CONST HCP_A3 : BE% HF% : VA : !
$
$ Prototype Th2Zn17 (hR19, R-3m), further structures suggested
$
 PHASE BE17HF2 % 2 17 2 !
 CONST BE17HF2 : BE : HF : !
$
$ Prototype CaCu5 (hP6, P6/mmm)
$
 PHASE BE5HF_D2D % 2 5 1 !
 CONST BE5HF_D2D : BE : HF : !
$
$ Prototype AlB2 (hP3, P6/mmm)
$
 PHASE BE2HF_C32 % 2 2 1 !
 CONST BE2HF_C32 : BE : HF : !
$ ------------------------------------------------------------------------------
$ Defaults
$
 DEFINE-SYSTEM-DEFAULT ELEMENT 2 !
 DEFAULT-COM DEFINE_SYSTEM_ELEMENT VA !
 TYPE-DEF % SEQ * !
 TYPE-DEF A GES AMEND_PHASE_DESCRIPTION @ MAGNETIC -3 0.28 !
 TYPE-DEF B GES AMEND_PHASE_DESCRIPTION @ MAGNETIC -1 0.4 !
 FUNCTION ZERO      298.15  0;                                         6000 N !
 FUNCTION UN_ASS    298.15  0;                                         6000 N !
 FUNCTION R         298.15  +8.31451;                                  6000 N !
$ ------------------------------------------------------------------------------
$ Element data
$ ------------------------------------------------------------------------------
$ Be
$
 PAR  G(HCP_A3,BE:VA),,                 +GHSERBE;                3000 N 91Din !
 PAR  G(BCC_A2,BE:VA),,                 +GBCCBE;                 3000 N 91Din !
 PAR  G(FCC_A1,BE:VA),,                 +GHSERBE+6349-1.085*T;   3000 N 91Din !
 PAR  G(LIQUID,BE),,                    +GLIQBE;                 3000 N 91Din !
$
 FUNCTION GHSERBE   298.15  -8553.651+137.560219*T-21.204*T*LN(T)
       -0.00284715*T**2-1.60413E-07*T**3+293690*T**(-1);
      1527.00  Y  -121305.858+772.405844*T-103.9843*T*LN(T)
       +0.021078651*T**2-1.119065E-06*T**3+27251743*T**(-1);
      3000.00  N !
 FUNCTION GBCCBE    298.15  -1076.057+109.411712*T-17.1727841*T*LN(T)
       -0.008672487*T**2+9.61427E-07*T**3+242309*T**(-1);
      1527.00  Y  -6970.378+196.411689*T-30*T*LN(T);
      1560.00  Y  -2609.973+178.131722*T-27.7823769*T*LN(T)
       -1.03629E-04*T**2-5.9331E-08*T**3-1250847*T**(-1);
      3000.00  N !
 FUNCTION GLIQBE    298.15  +7511.838+120.362788*T-20.0497038*T*LN(T)
       -0.004821347*T**2+4.15958E-07*T**3+281044*T**(-1);
      1560.00  Y  +5364.713+156.961141*T-25.486*T*LN(T)
       -0.0010572*T**2-1.117E-09*T**3+15920*T**(-1);
      3000.00  N !
$ ------------------------------------------------------------------------------
$ Hf
$
$ HCP_A3 and BCC_A2 modified in unary 5.0
$ (upper T interval added + trailing decimals added)
$
 PAR  G(HCP_A3,HF:VA),,                 +GHSERHF;                3001 N 91Din !
 PAR  G(BCC_A2,HF:VA),,                 +GBCCHF;                 3001 N 91Din !
 PAR  G(FCC_A1,HF:VA),,                 +GHSERHF+10000-2.2*T;    3001 N 91Din !
 PAR  G(LIQUID,HF),,                    +GLIQHF;                 3001 N 91Din !
$
 FUNCTION GHSERHF   298.15  -6987.297+110.744026*T-22.7075*T*LN(T)
       -0.004146145*T**2-4.77E-10*T**3-22590*T**(-1);
      2506.00  Y  -1446776.329+6193.609991*T-787.5363829*T*LN(T)
       +0.1735215*T**2-7.575759E-06*T**3+5.01742495E+08*T**(-1);
      3000.00  Y  -34274.698+277.882368*T-44*T*LN(T);
      3001.00  N !
 FUNCTION GBCCHF    298.15  +5370.703+103.836026*T-22.8995*T*LN(T)
       -0.004206605*T**2+8.71923E-07*T**3-22590*T**(-1)-1.446E-10*T**4;
      2506.00  Y  +1912456.771-8624.20573*T+1087.6141247*T*LN(T)
       -0.286857065*T**2+1.3427829E-05*T**3-6.10085091E+08*T**(-1);
      3000.00  Y  -32498.178+276.723247*T-44*T*LN(T);
      3001.00  N !
 FUNCTION GLIQHF    298.15  +27402.256-10.953093*T+GHSERHF;
      1000.00  Y  +49731.499-149.91739*T+12.116812*T*LN(T)
       -0.021262021*T**2+1.376466E-06*T**3-4449699*T**(-1);
      2506.00  Y  -4247.217+265.470523*T-44*T*LN(T);
      3001.00  N !
$ ------------------------------------------------------------------------------
$ Binary system
$
$ N. Saunders, Calphad, 9, 297-309(1985).
$
$ Checked against paper. Checked at 6000 K.
$
$ The phase diagram is only approximately reproduced.
$
 PAR  L(LIQUID,BE,HF;0),,               -40000;,,                     N 85Sau !
$
 PAR  L(BCC_A2,BE,HF:VA;0),,            +8368;,,                      N 85Sau !
 PAR  L(HCP_A3,BE,HF:VA;0),,            +41840;,,                     N 85Sau !
$
 PAR  G(BE17HF2,BE:HF),,                +17*GHSERBE+2*GHSERHF
             -276317;,,                                               N 85Sau !
 PAR  G(BE5HF_D2D,BE:HF),,              +5*GHSERBE+GHSERHF
             -143550+26.16*T;,,                                       N 85Sau !
 PAR  G(BE2HF_C32,BE:HF),,              +2*GHSERBE+GHSERHF
             -56907+5.31*T;,,                                         N 85Sau !
$
$ Metastable
$
 PAR  L(FCC_A1,BE,HF:VA;0),,            +41840;,,                     N Same !
$ ------------------------------------------------------------------------------
$
$
 LIST-OF-REFERENCE
 NUMBER  SOURCE
  Null   'Unknown source'
  Same   'Same or similar interaction as in the corresponding stable phase'
  REFLAV 'Laves phase convention: G(LAVES,X:X)=+3*GHSERXX+15000'
  85Sau  'N. Saunders, Calphad, 9, 297-309(1985); Be-Hf'
  91Din  'A.T. Dinsdale, Calphad, 15, 317-425(1991).'
!
