$
$ Database for Nd-Sn from S.L. Wang et al. 2018.
$
$ S.L. Wang, X.H. Su, S.S. Li, C.Y. Fu, Y.H. Guo, Y.X. Huang, D.X. Xiang,
$ C.P. Wang, X.J. Liu, Calphad, 60, 214-21(2018).
$
$ Dataset created 2018.12.22 by Bengt Hallstedt.
$ 2021.02.02: Modified for use with GES6.
$
$ ------------------------------------------------------------------------------
 TEMP-LIM 298.15 6000.00 !
$
$ELEMENT NAME  REF. STATE               ATOMIC MASS H298-H0    S298    !
$
 ELEMENT VA   VACUUM                      0.0          0.0      0.0    ! 
 ELEMENT ND   DHCP                      144.24      7133.72    71.0862 ! 
 ELEMENT SN   BCT_A5                    118.69      6323.      51.18   ! 
$ ------------------------------------------------------------------------------
$ Phase definitions
$
 PHASE LIQUID:L % 1 1 !
 CONST LIQUID:L : ND SN : !
$
$ Fcc (cF4, Fm-3m) and MeX (cF8, Fm-3m)
$
 PHASE FCC_A1 %A 2 1 1 !
 CONST FCC_A1 : ND SN : VA : !
$
$ Bcc (cI2, Im-3m)
$
 PHASE BCC_A2 %B 2 1 3 !
 CONST BCC_A2 : ND% SN : VA : !
$
$ Hcp (hP2, P6_3/mmc) and Me2X (NiAs-type, hP4, P6_3/mmc, B8_1)
$
 PHASE HCP_A3 %A 2 1 0.5 !
 CONST HCP_A3 : ND% SN : VA : !
$
$ Prototype alpha-La (SB A3', hP4, P6_3/mmc)
$
 PHASE DHCP % 1 1 !
 CONST DHCP : ND% SN : !
$
$ Prototype C (cF8, Fd-3m)
$
 PHASE DIAMOND_A4 % 1 1 !
 CONST DIAMOND_A4 : SN : !
$
$ Prototype beta-Sn (tI4, I4_1/amd)
$
 PHASE BCT_A5 % 1 1 !
 CONST BCT_A5 : SN : !
$
$ Prototype Mn5Si3 (hP16, P6_3/mcm)
$
 PHASE ND5SN3_D88 % 2 5 3 !
 CONST ND5SN3_D88 : ND : SN : !
$
$ Prototype Ge4Sm5 (oP36, Pnma)
$
 PHASE ND5SN4 % 2 5 4 !
 CONST ND5SN4 : ND : SN : !
$
$ Prototype Ge10Ho11 (tI84, I4/mmm)
$
 PHASE ND11SN10 % 2 11 10 !
 CONST ND11SN10 : ND : SN : !
$
$ unknown structure
$
 PHASE NDSN % 2 1 1 !
 CONST NDSN : ND : SN : !
$
$ unknown structure 
$
 PHASE ND3SN5 % 2 3 5 !
 CONST ND3SN5 : ND : SN : !
$
$ Prototype Ga2Zr (oC12, Cmmm)
$
 PHASE NDSN2 % 2 1 2 !
 CONST NDSN2 : ND : SN : !
$
$ Prototype Ce3Sn7 (oC20, Cmmm)
$
 PHASE ND3SN7 % 2 3 7 !
 CONST ND3SN7 : ND : SN : !
$
$ Prototype Ce2Sn5 (oC28, Cmmm)
$
 PHASE ND2SN5 % 2 2 5 !
 CONST ND2SN5 : ND : SN : !
$
$ Prototype AuCu3 (cP4, Pm-3m)
$
 PHASE NDSN3_L12 % 2 1 3 !
 CONST NDSN3_L12 : ND : SN : !
$ ------------------------------------------------------------------------------
$ Defaults
$
 DEFINE-SYSTEM-DEFAULT ELEMENT 2 !
 DEFAULT-COM DEFINE_SYSTEM_ELEMENT VA !
 TYPE-DEF % SEQ * !
 TYPE-DEF A GES AMEND_PHASE_DESCRIPTION @ MAGNETIC -3 0.28 !
 TYPE-DEF B GES AMEND_PHASE_DESCRIPTION @ MAGNETIC -1 0.4 !
 FUNCTION ZERO      298.15  0;                                         6000 N !
 FUNCTION UN_ASS    298.15  0;                                         6000 N !
 FUNCTION R         298.15  +8.31451;                                  6000 N !
$ ------------------------------------------------------------------------------
$ Element data
$ ------------------------------------------------------------------------------
$ Nd
$
$ DHCP and LIQUID modified in unary 3.0 (upper/lower T interval added)
$ FCC_A1 added in unary 3.0
$ HCP_A3 added in unary 4.4
$
 PAR  G(DHCP,ND),,                      +GHSERND;                1800 N 91Din !
 PAR  G(BCC_A2,ND:VA),,                 +GBCCND;                 1800 N 91Din !
 PAR  G(FCC_A1,ND:VA),,                 +GHSERND+500;            1800 N SGCOST !
 PAR  G(HCP_A3,ND:VA),,                 +GHSERND
             +1500-0.415725*T;                                   1800 N 00Nor2 !
 PAR  G(LIQUID,ND),,                    +GLIQND;                 1800 N 91Din !
$
 FUNCTION GHSERND   298.15  -8402.93+111.10239*T-27.0858*T*LN(T)
       +5.56125E-04*T**2-2.6923E-06*T**3+34887*T**(-1);
       900.00  Y  -6984.083+83.662617*T-22.7536*T*LN(T)
       -0.00420402*T**2-1.802E-06*T**3;
      1128.00  Y  -225610.846+1673.04075*T-238.182873*T*LN(T)
       +0.078615997*T**2-6.048207E-06*T**3+38810350*T**(-1);
      1799.00  Y  -25742.331+276.257088*T-48.7854*T*LN(T);
      1800.00  N !
 FUNCTION GBCCND    298.15  +1437.295-0.546281*T+GHSERND;
       400.00  Y  +7312.2-153.033976*T+14.9956777*T*LN(T)
       -0.050479*T**2+7.287217E-06*T**3-831810*T**(-1);
      1128.00  Y  -18030.266+239.677322*T-44.5596*T*LN(T);
      1289.00  Y  +334513.017-2363.9199*T+311.409193*T*LN(T)
       -0.156030778*T**2+1.2408421E-05*T**3-64319604*T**(-1);
      1800.00  N !
 FUNCTION GLIQND    298.15  +5051.743-1.585076*T+GHSERND;
       300.00  Y  +5350.01-86.593963*T+5.357301*T*LN(T)
       -0.046955463*T**2+6.860782E-06*T**3-374380*T**(-1);
      1128.00  Y  -16335.232+268.625903*T-48.7854*T*LN(T);
      1799.00  Y  +9407.099-7.631185*T+GHSERND;
      1800.00  N !
$ ------------------------------------------------------------------------------
$ Sn
$
$ FCC_A1 revised in unary 3.0
$ HCP_A3 revised in unary 4.1
$ TETRAGONAL_A6 added in unary 4.1
$ CBCC_A12 and CUB_A13 added in unary 4.4
$ FCC_A1 modified in unary 5.0
$ DHCP and TET_ALPHA1_A6 added in unary 5.0
$
$ DHCP from 18Wan not included in unary
$
$ The DHCP phase is labelled D0_24 in 03Liu and alpha-prime in 92Ans. The
$ phase is present between the fcc and hcp phases in the Au-Sn and Au-In
$ systems.
$
 PAR  G(BCT_A5,SN)              100.00  +GHSERSN;                3000 N 91Din !
 PAR  G(DIAMOND_A4,SN)          100.00  +GDIASN;                 3000 N 91Din !
 PAR  G(FCC_A1,SN:VA)           100.00  +GHSERSN+5510-8.46*T;    3000 N 89Fec !
$PAR  G(FCC_A1,SN:VA)           100.00  +GHSERSN+4150-5.2*T;     3000 N 91Din !
 PAR  G(BCC_A2,SN:VA)           100.00  +GHSERSN+4400-6*T;       3000 N 91Din !
 PAR  G(HCP_A3,SN:VA)           100.00  +GHSERSN+3900-7.646*T;   3000 N Ansar !
$PAR  G(HCP_A3,SN:VA)           100.00  +GHSERSN+3900-4.4*T;     3000 N 91Din !
$PAR  G(DHCP,SN)                100.00  +GHSERSN+3803.52-3.46*T; 3000 N 03Liu !
 PAR  G(DHCP,SN)                100.00  +GHSERSN+5000;           3000 N 18Wan !
$PAR  G(RHOMBOHEDRAL_A7,SN)     100.00  +GHSERSN+2035;           3000 N 91Din !
$PAR  G(TETRAGONAL_A6,SN)       100.00  +GHSERSN+5387-8.26212*T; 3000 N 99Ans !
$PAR  G(CBCC_A12,SN:VA)         100.00  +GHSERSN+2000;           3000 N 01Mie !
$PAR  G(CUB_A13,SN:VA)          100.00  +GHSERSN+2000;           3000 N 01Mie !
$PAR  G(TET_ALPHA1_A6,SN)       100.00  +GHSERSN+5510-8.46*T;    3000 N 99Ans !
 PAR  G(LIQUID,SN)              100.00  +GLIQSN;                 3000 N 91Din !
$
 FUNCTION GHSERSN   100.00  -7958.517+122.765451*T-25.858*T*LN(T)
       +5.1185E-04*T**2-3.192767E-06*T**3+18440*T**(-1);
       250.00  Y  -5855.135+65.443315*T-15.961*T*LN(T)
       -0.0188702*T**2+3.121167E-06*T**3-61960*T**(-1);
       505.08  Y  +2524.724+4.005269*T-8.2590486*T*LN(T)
       -0.016814429*T**2+2.623131E-06*T**3-1081244*T**(-1)-1.2307E+25*T**(-9);
       800.00  Y  -8256.959+138.99688*T-28.4512*T*LN(T)-1.2307E+25*T**(-9);
      3000.00  N !
 FUNCTION GDIASN    100.00  -9579.608+114.007785*T-22.972*T*LN(T)
       -0.00813975*T**2+2.7288E-06*T**3+25615*T**(-1);
       298.15  Y  -9063.001+104.84654*T-21.5750771*T*LN(T)
       -0.008575282*T**2+1.784447E-06*T**3-2544*T**(-1);
       800.00  Y  -10909.351+147.396535*T-28.4512*T*LN(T);
      3000.00  N !
 FUNCTION GLIQSN    100.00  +7103.092-14.087767*T+GHSERSN+1.47031E-18*T**7;
       505.08  Y  +6971.586-13.814383*T+GHSERSN+1.2307E+25*T**(-9);
       800.00  Y  -1285.372+125.182498*T-28.4512*T*LN(T);
      3000.00  N !
 FUNCTION GBCCSN    298.15  +GHSERSN+4400-6*T;                         3000 N !
$ ------------------------------------------------------------------------------
$ Binary system
$
$ S.L. Wang, X.H. Su, S.S. Li, C.Y. Fu, Y.H. Guo, Y.X. Huang, D.X. Xiang,
$ C.P. Wang, X.J. Liu, Calphad, 60, 214-21(2018).
$
$ Checked against paper. Checked at 6000 K.
$
 PAR  L(LIQUID,ND,SN;0),,               -235000+30*T;,,               N 18Wan !
 PAR  L(LIQUID,ND,SN;1),,               +8000+9.028*T;,,              N 18Wan !
 PAR  L(LIQUID,ND,SN;2),,               +27482+6.2*T;,,               N 18Wan !
 PAR  L(LIQUID,ND,SN;3),,               +8200-3*T;,,                  N 18Wan !
$
 PAR  L(BCC_A2,ND,SN:VA;0),,            -235000+26.3*T;,,             N 18Wan !
 PAR  L(BCC_A2,ND,SN:VA;1),,            -1000+15*T;,,                 N 18Wan !
 PAR  L(BCC_A2,ND,SN:VA;2),,            +56500-5*T;,,                 N 18Wan !
$
 PAR  L(DHCP,ND,SN;0),,                 -170880;,,                    N 18Wan !
 PAR  L(DHCP,ND,SN;1),,                 +20*T;,,                      N 18Wan !
$
 PAR  G(ND5SN3_D88,ND:SN),,             +5*GHSERND+3*GHSERSN
             -584000+50.56*T;,,                                       N 18Wan !
 PAR  G(ND5SN4,ND:SN),,                 +5*GHSERND+4*GHSERSN
             -639000+30.366*T;,,                                      N 18Wan !
 PAR  G(ND11SN10,ND:SN),,               +11*GHSERND+10*GHSERSN
             -1475460+58.254*T;,,                                     N 18Wan !
 PAR  G(NDSN,ND:SN),,                   +GHSERND+GHSERSN
             -139280+5.184*T;,,                                       N 18Wan !
 PAR  G(ND3SN5,ND:SN),,                 +3*GHSERND+5*GHSERSN
             -534400+27.248*T;,,                                      N 18Wan !
 PAR  G(NDSN2,ND:SN),,                  +GHSERND+2*GHSERSN
             -197550+11.595*T;,,                                      N 18Wan !
 PAR  G(ND3SN7,ND:SN),,                 +3*GHSERND+7*GHSERSN
             -654000+55.7*T;,,                                        N 18Wan !
 PAR  G(ND2SN5,ND:SN),,                 +2*GHSERND+5*GHSERSN
             -456050+44.38*T;,,                                       N 18Wan !
 PAR  G(NDSN3_L12,ND:SN),,              +GHSERND+3*GHSERSN
             -258000+33.02*T;,,                                       N 18Wan !
$
$ Metastable
$
 PAR  L(FCC_A1,ND,SN:VA;0),,            -235000+26.3*T;,,             N Same !
 PAR  L(FCC_A1,ND,SN:VA;1),,            -1000+15*T;,,                 N Same !
 PAR  L(FCC_A1,ND,SN:VA;2),,            +56500-5*T;,,                 N Same !
$
 PAR  L(HCP_A3,ND,SN:VA;0),,            -235000+26.3*T;,,             N Same !
 PAR  L(HCP_A3,ND,SN:VA;1),,            -1000+15*T;,,                 N Same !
 PAR  L(HCP_A3,ND,SN:VA;2),,            +56500-5*T;,,                 N Same !
$ ------------------------------------------------------------------------------
$
$
 LIST-OF-REFERENCE
 NUMBER  SOURCE
  Null   'Unknown source'
  Same   'Same or similar interaction as in the corresponding stable phase'
  REFLAV 'Laves phase convention: G(LAVES,X:X)=+3*GHSERXX+15000'
  SGCOST 'COST 507 database, SGTE unary database V.3.0, 1996; Al, B, Nd, Ti, Zn'
  Ansar  'Himo Ansara, unpublished, SGTE unary database V.4.1, 1999; Sn'
  89Fec  'H.J. Fecht, M.X. Zhang, Y.A. Chang, J.H. Perepezko,
          Metall. Trans. A, 20A, 795-803(1989),
          SGTE unary database V.3.0, 1996; Sn'
  91Din  'A.T. Dinsdale, Calphad, 15, 317-425(1991).'
  99Ans  'I. Ansara, S.G. Fries, H.L. Lukas, unpublished, 1999,
          SGTE unary database V.5.0, 2009; In, Sn'
  00Nor2 'S. Norgren, PhD Thesis, KTH, Stockholm, 2000; Nd, Sc'
  01Mie  'J. Miettinen, Calphad, 25, 43-58(2001),
          SGTE unary database V.4.4, 2001; Sn, Zn'
  03Liu  'H.S. Liu, C.L. Liu, K. Ishida, Z.P. Jin, J. Electron. Mater.,
          32, 1290-96(2003), SGTE unary database V.5.0, 2009; Sn'
  18Wan  'S.L. Wang, X.H. Su, S.S. Li, C.Y. Fu, Y.H. Guo, Y.X. Huang,
          D.X. Xiang, C.P. Wang, X.J. Liu, Calphad, 60, 214-21(2018); Sn, Nd-Sn'
!
