$
$ Database for Mo-Ta from Y.W. Cui et al. 1999
$
$ Y.W. Cui, X.G. Lu, Z.P. Jin, Metall. Mater. Trans. A, 30, 2735(1999).
$
$ Dataset created 2010.02.14 by Bengt Hallstedt.
$ 2021.01.31: Modified for use with GES6.
$
$ ------------------------------------------------------------------------------
 TEMP-LIM 298.15 6000.00 !
$
$ELEMENT NAME  REF. STATE               ATOMIC MASS H298-H0    S298    !
$
 ELEMENT VA   VACUUM                      0.0          0.0      0.0    ! 
 ELEMENT MO   BCC_A2                     95.94      4589.0     28.56   ! 
 ELEMENT TA   BCC_A2                    180.9479    5681.872   41.4718 ! 
$ ------------------------------------------------------------------------------
$ Phase definitions
$
 PHASE LIQUID:L % 1 1 !
 CONST LIQUID:L : MO TA : !
$
$ Fcc (cF4, Fm-3m) and MeX (cF8, Fm-3m)
$
 PHASE FCC_A1 %A 2 1 1 !
 CONST FCC_A1 : MO TA : VA : !
$
$ Bcc (cI2, Im-3m)
$
 PHASE BCC_A2 %B 2 1 3 !
 CONST BCC_A2 : MO% TA% : VA : !
$
$ Hcp (hP2, P6_3/mmc) and Me2X (NiAs-type, hP4, P6_3/mmc, B8_1)
$
 PHASE HCP_A3 %A 2 1 0.5 !
 CONST HCP_A3 : MO TA : VA : !
$ ------------------------------------------------------------------------------
$ Defaults
$
 DEFINE-SYSTEM-DEFAULT ELEMENT 2 !
 DEFAULT-COM DEFINE_SYSTEM_ELEMENT VA !
 TYPE-DEF % SEQ * !
 TYPE-DEF A GES AMEND_PHASE_DESCRIPTION @ MAGNETIC -3 0.28 !
 TYPE-DEF B GES AMEND_PHASE_DESCRIPTION @ MAGNETIC -1 0.4 !
 FUNCTION ZERO      298.15  0;                                         6000 N !
 FUNCTION UN_ASS    298.15  0;                                         6000 N !
 FUNCTION R         298.15  +8.31451;                                  6000 N !
$ ------------------------------------------------------------------------------
$ Element data
$ ------------------------------------------------------------------------------
$ Mo
$
 PAR  G(BCC_A2,MO:VA),,                 +GHSERMO;                5000 N 91Din !
 PAR  G(FCC_A1,MO:VA),,                 +GHSERMO+15200+0.63*T;   5000 N 91Din !
 PAR  G(HCP_A3,MO:VA),,                 +GHSERMO+11550;          5000 N 91Din !
 PAR  G(LIQUID,MO),,                    +GLIQMO;                 5000 N 91Din !
$
$PAR  G(NI3TA_KAPPA,MO:MO),,            +4*GHSERMO+164360;,,          N 08Zho !
$PAR  G(NI3X_II_D0A,MO:MO),,            +4*GHSERMO+170600;,,          N 05Zho !
$
 FUNCTION GHSERMO   298.15  -7746.302+131.9197*T-23.56414*T*LN(T)
       -0.003443396*T**2+5.66283E-07*T**3+65812*T**(-1)-1.30927E-10*T**4;
      2896.00  Y  -30556.41+283.559746*T-42.63829*T*LN(T)-4.849315E+33*T**(-9);
      5000.00  N !
 FUNCTION GLIQMO    298.15  +41831.347-14.694912*T+GHSERMO+4.24519E-22*T**7;
      2896.00  Y  +3538.963+271.6697*T-42.63829*T*LN(T);
      5000.00  N !
 FUNCTION GFCCMO    298.15  +GHSERMO+15200+0.63*T;                     6000 N !
$ ------------------------------------------------------------------------------
$ Ta
$
 PAR  G(BCC_A2,TA:VA),,                 +GHSERTA;,,                   N 91Din !
 PAR  G(FCC_A1,TA:VA),,                 +GHSERTA+16000+1.7*T;,,       N 91Din !
 PAR  G(HCP_A3,TA:VA),,                 +GHSERTA+12000+2.4*T;,,       N 91Din !
 PAR  G(LIQUID,TA),,                    +GLIQTA;,,                    N 91Din !
$
$PAR  G(NI3TA_KAPPA,TA:TA),,            +4*GHSERTA+117280;,,          N 08Zho !
$PAR  G(NITA_D85,TA:TA:TA:TA),,         +6*GHSERTA+7*GFCCTA
$            +221650;,,                                               N 08Zho !
$PAR  G(NI3X_II_D0A,TA:TA),,            +4*GHSERTA+123200;,,          N 08Zho !
$
 FUNCTION GHSERTA   298.15  -7285.889+119.139857*T-23.7592624*T*LN(T)
       -0.002623033*T**2+1.70109E-07*T**3-3293*T**(-1);
      1300.00  Y  -22389.955+243.88676*T-41.137088*T*LN(T)
       +0.006167572*T**2-6.55136E-07*T**3+2429586*T**(-1);
      2500.00  Y  +229382.886-722.59722*T+78.5244752*T*LN(T)
       -0.017983376*T**2+1.95033E-07*T**3-93813648*T**(-1);
      3290.00  Y  -1042384.01+2985.49125*T-362.159132*T*LN(T)
       +0.043117795*T**2-1.055148E-06*T**3+5.54714342E+08*T**(-1);
      6000.00  N !
 FUNCTION GLIQTA    298.15  +29160.975-7.578729*T+GHSERTA;
      1000.00  Y  +43884.339-61.981795*T+0.0279523*T*LN(T)
       -0.012330066*T**2+6.14599E-07*T**3-3523338*T**(-1);
      3290.00  Y  -6314.543+258.110873*T-41.84*T*LN(T);
      6000.00  N !
 FUNCTION GFCCTA    298.15  +GHSERTA+16000+1.7*T;                      6000 N !
$ ------------------------------------------------------------------------------
$ Binary system
$
$ Y.W. Cui, X.G. Lu, Z.P. Jin, Metall. Mater. Trans. A, 30, 2735(1999).
$
$ Checked at 6000 K.
$
$ No phase diagram is shown in the paper.
$
 PAR  L(LIQUID,MO,TA;0),,               -73477;,,                     N 99Cui !
 PAR  L(LIQUID,MO,TA;1),,               -4091;,,                      N 99Cui !
$
 PAR  L(BCC_A2,MO,TA:VA;0),,            -67360;,,                     N 99Cui !
 PAR  L(BCC_A2,MO,TA:VA;1),,            -4190;,,                      N 99Cui !
$
$ Metastable
$
 PAR  L(FCC_A1,MO,TA:VA;0),,            -6572;,,                      N 99Cui !
 PAR  L(HCP_A3,MO,TA:VA;0),,            -6572;,,                      N Same !
$
$PAR  G(NI3TA_KAPPA,MO:TA),,            +3*GHSERMO+GHSERTA+146400;,,  N 09Zho !
$PAR  G(NI3TA_KAPPA,TA:MO),,            +3*GHSERTA+GHSERMO+128320;,,  N 09Zho !
$
$PAR  G(NITA_D85,TA:TA:MO:TA),,         +4*GHSERTA+7*GFCCTA
$            +2*GHSERMO;,,                                            N Lin !
$PAR  G(NITA_D85,TA:TA:MO:TA),,         +ZERO;,,                      N 09Zho !
$
$PAR  G(NI3X_II_D0A,MO:TA),,            +3*GHSERMO+GHSERTA;,,         N Lin !
$PAR  G(NI3X_II_D0A,MO:TA),,            +ZERO;,,                      N 09Zho !
$PAR  G(NI3X_II_D0A,TA:MO),,            +3*GHSERTA+GHSERMO;,,         N Lin !
$PAR  G(NI3X_II_D0A,TA:MO),,            +ZERO;,,                      N 09Zho !
$ ------------------------------------------------------------------------------
$
 ASSESSED_SYSTEM
  MO-TA(TDB -* +LIQUID +BCC_A2 ;P3 TMM:300/3500 *) !
$
$
 LIST-OF-REFERENCE
 NUMBER  SOURCE
  Null   'Unknown source'
  Same   'Same or similar interaction as in the corresponding stable phase'
  91Din  'A.T. Dinsdale, Calphad, 15, 317-425(1991).'
  99Cui  'Y.W. Cui, X.G. Lu, Z.P. Jin,
          Metall. Mater. Trans. A, 30, 2735(1999); Mo-Ta'
  09Zho  'S.H. Zhou, Y. Wang, L.-Q. Chen, Z.-K. Liu, R.E. Napolitano,
          Calphad, 33, 631-41(2009); Mo-Ni-Ta'
!
