$
$ Database for Pb-U from R. Agarwal 2021.
$
$ R. Agarwal, Thermochim. Acta, 699, 178913(2021).
$
$ Dataset created 2021.06.13 by Bengt Hallstedt.
$
$ The coefficients of the liquid interaction are about twice as large as those
$ from 10Li.
$
$ ------------------------------------------------------------------------------
 TEMP-LIM 298.15 6000.00 !
$
$ELEMENT NAME  REF. STATE               ATOMIC MASS H298-H0    S298    !
$
 ELEMENT VA   VACUUM                      0.0          0.0      0.0    ! 
 ELEMENT PB   FCC_A1                    207.2       6870.      64.80   ! 
 ELEMENT U    ORTHORHOMBIC_A20          238.0289    6364.      50.20   ! 
$ ------------------------------------------------------------------------------
$ Phase definitions
$
 PHASE LIQUID:L % 1 1 !
 CONST LIQUID:L : PB U : !
$
$ Fcc (cF4, Fm-3m) and MeX (cF8, Fm-3m)
$
 PHASE FCC_A1 %A 2 1 1 !
 CONST FCC_A1 : PB% U : VA : !
$
$ Bcc (cI2, Im-3m)
$
 PHASE BCC_A2 %B 2 1 3 !
 CONST BCC_A2 : PB U% : VA : !
$
$ Hcp (hP2, P6_3/mmc) and Me2X (NiAs-type, hP4, P6_3/mmc, B8_1)
$
 PHASE HCP_A3 %A 2 1 0.5 !
 CONST HCP_A3 : PB U : VA: !
$
$ Prototype alpha-U (oC4, Cmcm)
$
 PHASE ORTHORHOMBIC_A20 % 1 1 !
 CONST ORTHORHOMBIC_A20 : PB U% : !
$
$ Prototype beta-U (tP30, P4_2/mnm, SB: A_b)
$
 PHASE TETRAGONAL_U % 1 1 !
 CONST TETRAGONAL_U : PB U% : !
$
$ Prototype AuCu3 (cP4, Pm-3m)
$
 PHASE PB3U_L12 % 2 3 1 !
 CONST PB3U_L12 : PB : U : !
$
$ Prototype PbU (tI8, I4_1/amd, 141)
$
 PHASE PBU % 2 1 1 !
 CONST PBU : PB : U : !
$ ------------------------------------------------------------------------------
$ Defaults
$
 DEFINE-SYSTEM-DEFAULT ELEMENT 2 !
 DEFAULT-COM DEFINE_SYSTEM_ELEMENT VA !
 TYPE-DEF % SEQ * !
 TYPE-DEF A GES AMEND_PHASE_DESCRIPTION @ MAGNETIC -3 0.28 !
 TYPE-DEF B GES AMEND_PHASE_DESCRIPTION @ MAGNETIC -1 0.4 !
 FUNCTION ZERO      298.15  0;                                         6000 N !
 FUNCTION UN_ASS    298.15  0;                                         6000 N !
 FUNCTION R         298.15  +8.31451;                                  6000 N !
$ ------------------------------------------------------------------------------
$ Element data
$ ------------------------------------------------------------------------------
$ Pb
$
$ RHOMBOHEDRAL_A7 and TETRAGONAL_A6 added in unary 3.0
$ RHOMBOHEDRAL_A7, TETRAGONAL_A6 and TET_ALPHA1_A6 revised in unary 4.1
$ RHOMBO_A10 added in unary 5.0
$
$ RHOMBOHEDRAL_A7 from 98Yoo not included in unary
$ ORTHORHOMBIC_A20 and TETRAGONAL_U from 10Li not included in unary
$
 PAR  G(FCC_A1,PB:VA),,                 +GHSERPB;                2100 N 91Din !
 PAR  G(BCC_A2,PB:VA),,                 +GHSERPB+2400-1.1*T;     2100 N 91Din !
 PAR  G(HCP_A3,PB:VA),,                 +GHSERPB+300+T;          2100 N 91Din !
$PAR  G(BCT_A5,PB),,                    +GHSERPB+489+3.52*T;     2100 N 91Din !
$PAR  G(TETRAGONAL_A6,PB),,             +GHSERPB+4493.235;       2100 N 98Boa !
$PAR  G(TETRAGONAL_A6,PB),,             +GHSERPB+473.23+3.5531*T
$            -0.0396834*T*LN(T)+2.1489E-05*T**2;                 2100 N 96SGUN !
$PAR  G(TET_ALPHA1_A6,PB),,             +GHSERPB
$            +1903.3-2.0602*T;                                   2100 N 98Boa !
$PAR  G(TET_ALPHA1_A6,PB),,             +GHSERPB+183.2+0.45314*T
$            -0.0396834*T*LN(T)+2.149E-06*T**2;                  2100 N 91Din !
$PAR  G(RHOMBOHEDRAL_A7,PB),,           +GHSERPB+300+T;          2100 N 99SGUN !
$PAR  G(RHOMBOHEDRAL_A7,PB),,           +GHSERPB+4900+3.52*T;    2100 N 96SGUN !
$PAR  G(RHOMBOHEDRAL_A7,PB),,           +GHSERPB+15000;          2100 N 98Yoo !
$PAR  G(RHOMBO_A10,PB),,                +GHSERPB+10;             2100 N 09SGUN !
 PAR  G(ORTHORHOMBIC_A20,PB),,          +GHSERPB+20000;          2100 N 10Li !
 PAR  G(TETRAGONAL_U,PB),,              +GHSERPB+5000;           2100 N 10Li !
 PAR  G(LIQUID,PB),,                    +GLIQPB;                 2100 N 91Din !
$
 FUNCTION GHSERPB   298.15  -7650.085+101.700244*T-24.5242231*T*LN(T)
       -0.00365895*T**2-2.4395E-07*T**3;
       600.61  Y  -10531.095+154.243182*T-32.4913959*T*LN(T)
       +0.00154613*T**2+8.05448E+25*T**(-9);
      1200.00  Y  +4157.616+53.139072*T-18.9640637*T*LN(T)
       -0.002882943*T**2+9.8144E-08*T**3-2696755*T**(-1)+8.05448E+25*T**(-9);
      2100.00  N !
 FUNCTION GLIQPB    298.15  +4672.124-7.750683*T+GHSERPB-6.019E-19*T**7;
       600.61  Y  +4853.137-8.067136*T+GHSERPB-8.05448E+25*T**(-9);
      2100.00  N !
$ ------------------------------------------------------------------------------
$ U
$
$ FCC_A1 and HCP_A3 added in unary 4.1
$
$ HCP_A3 from 04Che not in unary
$ RHOMBOHEDRAL_A7 not in unary
$
 PAR  G(ORTHORHOMBIC_A20,U),,           +GHSERUU;                3000 N 91Din !
 PAR  G(TETRAGONAL_U,U),,               +GTETUU;                 3000 N 91Din !
 PAR  G(BCC_A2,U:VA),,                  +GBCCUU;                 3000 N 91Din !
 PAR  G(FCC_A1,U:VA),,                  +GHSERUU+5000;           3000 N 99SGUN !
 PAR  G(HCP_A3,U:VA),,                  +GBCCUU+5000-0.008*T;    3000 N 99SGUN !
$PAR  G(HCP_A3,U:VA),,                  +GHSERUU+50000;          3000 N 04Che3 !
 PAR  G(LIQUID,U),,                     +GHSERUU
             +12355.5-10.3239*T;                                 3000 N 91Din !
$
 FUNCTION GHSERUU   298.15  -8407.734+130.955151*T-26.9182*T*LN(T)
       +0.00125156*T**2-4.42605E-06*T**3+38568*T**(-1);
       955.00  Y  -22521.8+292.121093*T-48.66*T*LN(T);
      3000.00  N !
 FUNCTION GTETUU    298.15  -5156.136+106.976316*T-22.841*T*LN(T)
       -0.01084475*T**2+2.7889E-08*T**3+81944*T**(-1);
       941.50  Y  -14327.309+244.16802*T-42.9278*T*LN(T);
      3000.00  N !
 FUNCTION GBCCUU    298.15  -752.767+131.5381*T-27.5152*T*LN(T)
       -0.00835595*T**2+9.67907E-07*T**3+204611*T**(-1);
      1049.00  Y  -4698.365+202.685635*T-38.2836*T*LN(T);
      3000.00  N !
 FUNCTION GLIQUU    298.15  +GHSERUU+12355.5-10.3239*T;                3000 N !
$ ------------------------------------------------------------------------------
$ Binary system
$
$ R. Agarwal, Thermochim. Acta, 699, 178913(2021).
$
$ Checked against paper. Checked at 6000 K.
$
$ There is nothing to compare with in the paper, but the phase diagram seems
$ correctly reproduced.
$
$ The coefficients of the liquid interaction are about twice as large as those
$ from 10Li.
$
 PAR  L(LIQUID,PB,U;0),,                +124413-86.0931*T;,,          N 21Aga !
 PAR  L(LIQUID,PB,U;1),,                -53257-16.465*T;,,            N 21Aga !
 PAR  L(LIQUID,PB,U;2),,                -49969+24.091*T;,,            N 21Aga !
 PAR  L(LIQUID,PB,U;3),,                +38028.5;,,                   N 21Aga !
$
 PAR  L(FCC_A1,PB,U:VA;0),,             +ZERO;,,                      N 21Aga !
 PAR  L(BCC_A2,PB,U:VA;0),,             -11608.1+10.25*T;,,           N 21Aga !
 PAR  L(ORTHORHOMBIC_A20,PB,U;0),,      +ZERO;,,                      N 21Aga !
 PAR  L(TETRAGONAL_U,PB,U;0),,          -11302.6+7.07*T;,,            N 21Aga !
$
 PAR  G(PB3U_L12,PB:U),,                +3*GHSERPB+GHSERUU
             -70504+5.768*T-5.2*T*LN(T)+0.0188*T**2;,,                N 21Aga !
 PAR  G(PBU,PB:U),,                     +GHSERPB+GHSERUU
             -62900.08+17*T;,,                                        N 21Aga !
$
$ Metastable
$
 PAR  L(HCP_A3,PB,U:VA;0),,             +ZERO;,,                      N Same !
$ ------------------------------------------------------------------------------
$
$
 LIST-OF-REFERENCE
 NUMBER  SOURCE
  Null   'Unknown source'
  Same   'Same or similar interaction as in the corresponding stable phase'
  COST   'COST 507 database'
  91Din  'A.T. Dinsdale, Calphad, 15, 317-425(1991).'
  96SGUN 'SGTE unary database V.3.0, 1996.'
  98Boa  'D. Boa, I. Ansara, Thermochim. Acta, 314, 79-86(1998),
          SGTE unary database V.4.1, 1999; In, Pb'
  98Yoo  'S.W. Yoon, H.M. Lee, Calphad, 22, 167-78(1998); Pb'
  99SGUN 'SGTE unary database V.4.1, 1999.'
  04Che3 'P.-Y. Chevalier, E. Fischer, B. Cheynet,
          Calphad, 28, 15-40(2004); U, Zr'
  09SGUN 'SGTE unary database V.5.0, 2009.'
  10Li   'Z.S. Li, X.J. Liu, C.P. Wang,
          J. Nucl. Mater., 403, 1-6(2010); Pb'
  21Aga  'R. Agarwal, Thermochim. Acta, 699, 178913(2021); Pb-U'
!
