$
$ Database for Er-Lu from H. Okamoto 1992.
$
$ H. Okamoto, J. Phase Equilib., 13, 676-77(1992).
$
$ Dataset created 2021.11.06 by Bengt Hallstedt.
$
$ The system is assumed to be ideal.
$
$ ------------------------------------------------------------------------------
 TEMP-LIM 298.15 6000.00 !
$
$ELEMENT NAME  REF. STATE               ATOMIC MASS H298-H0    S298    !
$
 ELEMENT VA   VACUUM                      0.0          0.0      0.0    ! 
 ELEMENT ER   HCP_A3                    167.26      7392.2912  73.17816! 
 ELEMENT LU   HCP_A3                    174.967     6388.968   50.9611 ! 
$ ------------------------------------------------------------------------------
$ Phase definitions
$
 PHASE LIQUID:L % 1 1 !
 CONST LIQUID:L : ER LU : !
$
$ Fcc (cF4, Fm-3m) and MeX (cF8, Fm-3m)
$
 PHASE FCC_A1 %A 2 1 1 !
 CONST FCC_A1 : ER : VA : !
$
$ Bcc (cI2, Im-3m)
$
 PHASE BCC_A2 %B 2 1 3 !
 CONST BCC_A2 : ER : VA : !
$
$ Hcp (hP2, P6_3/mmc) and Me2X (NiAs-type, hP4, P6_3/mmc, B8_1)
$
 PHASE HCP_A3 %A 2 1 0.5 !
 CONST HCP_A3 : ER% LU% : VA : !
$ ------------------------------------------------------------------------------
$ Defaults
$
 DEFINE-SYSTEM-DEFAULT ELEMENT 2 !
 DEFAULT-COM DEFINE_SYSTEM_ELEMENT VA !
 TYPE-DEF % SEQ * !
 TYPE-DEF A GES AMEND_PHASE_DESCRIPTION @ MAGNETIC -3 0.28 !
 TYPE-DEF B GES AMEND_PHASE_DESCRIPTION @ MAGNETIC -1 0.4 !
 FUNCTION ZERO      298.15  0;                                         6000 N !
 FUNCTION UN_ASS    298.15  0;                                         6000 N !
 FUNCTION R         298.15  +8.31451;                                  6000 N !
$ ------------------------------------------------------------------------------
$ Element data
$ ------------------------------------------------------------------------------
$ Er
$
$ BCC_A2 added in unary 4.4
$
$ FCC_A1 from 02Cac not included in unary (but it should be)
$
 PAR  G(HCP_A3,ER:VA),,                 +GHSERER;                3200 N 91Din !
 PAR  G(FCC_A1,ER:VA),,                 +GHSERER
             +1950-0.831451*T;                                   3200 N 02Cac !
 PAR  G(BCC_A2,ER:VA),,                 +GHSERER
             +4600-2.494353*T;                                   3200 N 00Nor1 !
 PAR  G(LIQUID,ER),,                    +GLIQER;                 3200 N 91Din !
$
 FUNCTION GHSERER   298.15  -8489.136+116.698964*T-28.3846744*T*LN(T)
       +9.95792E-04*T**2-9.52557E-07*T**3+9581*T**(-1);
      1802.00  Y  -445688.206+2233.10212*T-298.135131*T*LN(T)
       +0.065950553*T**2-3.041405E-06*T**3+1.23973199E+08*T**(-1);
      3200.00  N !
 FUNCTION GLIQER    298.15  +19382.102-10.241846*T+GHSERER;
       500.00  Y  +17912.678+0.355564*T-12.0761776*T*LN(T)
       -0.014414687*T**2+1.316517E-06*T**3-528122*T**(-1);
      1802.00  Y  +747.131+187.623024*T-38.702*T*LN(T);
      3200.00  N !
$ ------------------------------------------------------------------------------
$ Lu
$
 PAR  G(HCP_A3,LU:VA),,                 +GHSERLU;                3700 N 91Din !
 PAR  G(LIQUID,LU),,                    +GLIQLU;                 3700 N 91Din !
$
 FUNCTION GHSERLU   298.15  -8788.329+146.536283*T-29.812*T*LN(T)
       +0.00519165*T**2-1.790717E-06*T**3+39723*T**(-1);
       700.00  Y  -9043.057+142.327643*T-29.0095*T*LN(T)
       +0.00371416*T**2-1.50147E-06*T**3+141549*T**(-1);
      1700.00  Y  +6940.092-46.91844*T-1.83986*T*LN(T)-0.0119001*T**2;
      1936.00  Y  -404023.691+1829.37943*T-239.019502*T*LN(T)
       +0.041800748*T**2-1.661174E-06*T**3+1.24825465E+08*T**(-1);
      3700.00  N !
 FUNCTION GLIQLU    298.15  +12772.12-4.998883*T+GHSERLU;
       600.00  Y  +30389.863-198.378793*T+20.9392663*T*LN(T)
       -0.034238743*T**2+2.890636E-06*T**3-2398650*T**(-1);
      1936.00  Y  -18994.687+292.091104*T-47.9068*T*LN(T);
      3700.00  N !
$ ------------------------------------------------------------------------------
$ Binary system
$
$ H. Okamoto, J. Phase Equilib., 13, 676-77(1992).
$
$ Checked against paper. Checked at 6000 K.
$
$ The system is assumed to be ideal.
$
 PAR  L(LIQUID,ER,LU;0),,               +ZERO;,,                      N 92Oka !
$
 PAR  L(HCP_A3,ER,LU:VA;0),,            +ZERO;,,                      N 92Oka !
$ ------------------------------------------------------------------------------
$
$
 LIST-OF-REFERENCE
 NUMBER  SOURCE
  Null   'Unknown source'
  COST   'COST 507 database'
  91Din  'A.T. Dinsdale, Calphad, 15, 317-425(1991).'
  92Oka  'H. Okamoto, J. Phase Equilib., 13, 676-77(1992); Er-Lu'
  00Nor1 'S. Norgren, J. Phase Equilib., 21, 148-56(2000),
          SGTE unary database V.4.4, 2001; Er, Ho'
  02Cac  'G. Cacciamani, A. Saccone, S. De Negri, R. Ferro,
          J. Phase Equilib., 23, 38-50(2002); Er'
!
