$
$ Database for Zn-Te from Y. Feutelais et al. 1997 (included in LB Vol. 4)
$
$ Y. Feutelais, A. Haloui, B. Legendre, J. Phase Equilib., 18, 48-61(1997).
$
$ Dataset created 2016.03.28 by Bengt Hallstedt.
$ 2021.02.07: Modified for use with GES6.
$
$ ------------------------------------------------------------------------------
 TEMP-LIM 298.15 6000.00 !
$
$ELEMENT NAME  REF. STATE               ATOMIC MASS H298-H0    S298    !
$
 ELEMENT VA   VACUUM                      0.0          0.0      0.0    ! 
 ELEMENT TE   HEXAGONAL_A8              127.60      6080.      49.221  ! 
 ELEMENT ZN   HCP_A3                     65.38      5657.0     41.63   ! 
$ ------------------------------------------------------------------------------
$ Species
$
 SPECIE  TE2                                TE2 !
 SPECIE  TE3                                TE3 !
 SPECIE  TE4                                TE4 !
 SPECIE  TE5                                TE5 !
 SPECIE  TE6                                TE6 !
 SPECIE  TE7                                TE7 !
 SPECIE  ZNTE                               ZN1TE1 !
$ ------------------------------------------------------------------------------
$ Phase definitions
$
 PHASE LIQUID:L % 1 1 !
 CONST LIQUID:L : TE ZN ZNTE : !
$
$ Hcp (hP2, P6_3/mmc) and Me2X (NiAs-type, hP4, P6_3/mmc, B8_1)
$
 PHASE HCP_A3 %A 2 1 0.5 !
 CONST HCP_A3 : ZN : VA : !
$
$ gamma-Se (hP3, P3_121)
$
 PHASE HEXAGONAL_A8 % 1 1 !
 CONST HEXAGONAL_A8 : TE : !
$
$ ZnS (cF8, F-43m)
$
 PHASE ZNTE_B3 % 2 1 1 !
 CONST ZNTE_B3 : ZN : TE : !
$
 PHASE GAS:G % 1 1 !
 CONST GAS:G : TE TE2 TE3 TE4 TE5 TE6 TE7 ZNTE ZN : !
$ ------------------------------------------------------------------------------
$ Defaults
$
 DEFINE-SYSTEM-DEFAULT ELEMENT 2 !
 DEFAULT-COM DEFINE_SYSTEM_ELEMENT VA !
 TYPE-DEF % SEQ * !
 TYPE-DEF A GES AMEND_PHASE_DESCRIPTION @ MAGNETIC -3 0.28 !
 TYPE-DEF B GES AMEND_PHASE_DESCRIPTION @ MAGNETIC -1 0.4 !
 FUNCTION ZERO      298.15  0;                                         6000 N !
 FUNCTION UN_ASS    298.15  0;                                         6000 N !
 FUNCTION R         298.15  +8.31451;                                  6000 N !
 FUNCTION RTLNP     298.15  +8.31451*T*LN(1E-05*P);                    6000 N !
$ ------------------------------------------------------------------------------
$ Element data
$ ------------------------------------------------------------------------------
$ Te
$
$ HEXAGONAL_A8 and LIQUID revised in unary 3.0
$
 PAR  G(HEXAGONAL_A8,TE),,              +GHSERTE;                2000 N 95Dav !
 PAR  G(LIQUID,TE),,                    +GLIQTE;                 2000 N 95Dav !
$
 PAR  G(GAS,TE),,                       +FTE+RTLNP;,,                 N 00SUB !
 PAR  G(GAS,TE2),,                      +FTE2+RTLNP;,,                N 00SUB !
 PAR  G(GAS,TE3),,                      +FTE3+RTLNP;,,                N 00SUB !
 PAR  G(GAS,TE4),,                      +FTE4+RTLNP;,,                N 00SUB !
 PAR  G(GAS,TE5),,                      +FTE5+RTLNP;,,                N 00SUB !
 PAR  G(GAS,TE6),,                      +FTE6+RTLNP;,,                N 00SUB !
 PAR  G(GAS,TE7),,                      +FTE7+RTLNP;,,                N 00SUB !
$
 FUNCTION GHSERTE   298.15  -10544.679+183.372894*T-35.6687*T*LN(T)
       +0.01583435*T**2-5.240417E-06*T**3+155015*T**(-1);
       722.66  Y  +9160.595-129.265373*T+13.004*T*LN(T)
       -0.0362361*T**2+5.006367E-06*T**3-1286810*T**(-1);
      1150.00  Y  -12781.349+174.901226*T-32.5596*T*LN(T);
      1600.00  N !
 FUNCTION GLIQTE    298.15  -17554.731+685.877639*T-126.318*T*LN(T)
       +0.2219435*T**2-9.42075E-05*T**3+827930*T**(-1);
       626.49  Y  -3165763.48+46756.357*T-7196.41*T*LN(T)
       +7.09775*T**2-0.00130692833*T**3+2.58051E+08*T**(-1);
       722.66  Y  +180326.959-1500.57909*T+202.743*T*LN(T)
       -0.142016*T**2+1.6129733E-05*T**3-24238450*T**(-1);
      1150.00  Y  +19110.036-26.1929273*T+GHSERTE;
      1600.00  N !
$ Te (g) :
 FUNCTION FTE       298.15  +203077-39.3937*T-21.4658*T*LN(T)
       +0.00106813*T**2-3.03132E-07*T**3+9080.15*T**(-1);
      1300.00  Y  +204434-64.4228*T-17.6757*T*LN(T)
       -0.00193648*T**2+8.01703E-08*T**3+123672*T**(-1);
      4100.00  Y  +169215+51.7696*T-31.8142*T*LN(T)
       +6.2125E-04*T**2-7.38245E-09*T**3+16889800*T**(-1);
     10000.00  N !
$ Te2 (g) :
 FUNCTION FTE2      298.15  +155823-93.7413*T-23.3943*T*LN(T)
       -0.0186449*T**2+2.81237E-06*T**3-164708*T**(-1);
      1000.00  Y  +141003+90.3569*T-50.7498*T*LN(T)
       +0.0026634*T**2-1.91725E-07*T**3+1217270*T**(-1);
      2600.00  Y  +136052+57.9731*T-45.6215*T*LN(T)
       -6.77045E-04*T**2+6.52445E-08*T**3+7374000*T**(-1);
      5800.00  Y  +128152+120.993*T-53.6328*T*LN(T)
       +0.00102992*T**2+9.34818E-09*T**3-1196190*T**(-1);
      6000.00  N !
$ Te3 (g) :
 FUNCTION FTE3      298.15  +185372+54.5927*T-58.1833*T*LN(T)
       -4.42972E-06*T**2+1.7586E-10*T**3+75006*T**(-1);
      6000.00  N !
$ Te4 (g) :
 FUNCTION FTE4      298.15  +191687+179.006*T-83.1138*T*LN(T)
       -7.69355E-06*T**2+3.07578E-10*T**3+127262*T**(-1);
      6000.00  N !
$ Te5 (g) :
 FUNCTION FTE5      298.15  +187059+263.053*T-108.07*T*LN(T)
       -4.33393E-06*T**2+1.71808E-10*T**3+111272*T**(-1);
      6000.00  N !
$ Te6 (g) :
 FUNCTION FTE6      298.15  +186041+400.857*T-133.016*T*LN(T)
       -3.74116E-06*T**2+1.49701E-10*T**3+128382*T**(-1);
      6000.00  N !
$ Te7 (g) :
 FUNCTION FTE7      298.15  +206091+501.61*T-157.955*T*LN(T)
       -4.85134E-06*T**2+1.92685E-10*T**3+156512*T**(-1);
      6000.00  N !
$ ------------------------------------------------------------------------------
$ Zn
$
$ BCT_A5 and DIAMOND_A4 added in unary 3.0
$ HCP_A3 revised in unary 4.1 (due to introduction of HCP_ZN)
$ RHOMBOHEDRAL_A7 and TETRAGONAL_A6 added in unary 4.1
$ TETRAGONAL_A6 revised in unary 4.4
$ CBCC_A12 and CUB_A13 added in unary 4.4
$ HCP_A3 and LIQUID modified in unary 5.0 (melting T and coefficients adjusted)
$ RHOMBO_A10 added in unary 5.0
$
$ Pure Zn restored as HCP_A3
$
 PAR  G(HCP_A3,ZN:VA),,                 +GHSERZN;                1700 N 91Din !
$PAR  G(HCP_A3,ZN:VA),,                 +GHSERZN
$            +2969.82-1.56968*T;                                 1700 N 93Kow !
$PAR  G(FCC_A1,ZN:VA),,                 +GHSERZN
$            +2969.82-1.56968*T;                                 1700 N 91Din !
$PAR  G(BCC_A2,ZN:VA),,                 +GHSERZN
$            +2886.96-2.5104*T;                                  1700 N 91Din !
$PAR  G(DIAMOND_A4,ZN),,                +GHSERZN+30*T;           1700 N SGCOST !
$PAR  G(BCT_A5,ZN),,                    +GHSERZN
$            +2886.96-2.5104*T;                                  1700 N SGCOST !
$PAR  G(TETRAGONAL_A6,ZN),,             +GHSERZN+4184;           1700 N 96Lee !
$PAR  G(TETRAGONAL_A6,ZN),,             +GHSERZN
$            +2886.96-2.5104*T;                                  1700 N 99SGUN !
$PAR  G(RHOMBOHEDRAL_A7,ZN),,           +GHSERZN+2300+11.5*T;    1700 N 99SGUN !
$PAR  G(RHOMBO_A10,ZN),,                +GLIQZN-2000+10*T;       1700 N 98Han !
$PAR  G(CBCC_A12,ZN:VA),,               +GHSERZN+2000;           1700 N 01Mie !
$PAR  G(CUB_A13,ZN:VA),,                +GHSERZN+2000;           1700 N 01Mie !
 PAR  G(LIQUID,ZN),,                    +GLIQZN;                 1700 N 91Din !
$
 PAR  G(GAS,ZN),,                       +F15669T+RTLNP;,,             N 97SUB !
$
 FUNCTION GHSERZN   298.15  -7285.787+118.470069*T-23.701314*T*LN(T)
       -0.001712034*T**2-1.264963E-06*T**3;
       692.677 Y  -11070.546+172.345644*T-31.38*T*LN(T)+4.7047E+26*T**(-9);
      1700.00  N !
 FUNCTION GLIQZN    298.15  +7157.222-10.29305*T+GHSERZN-3.58949E-19*T**7;
       692.677 Y  -3620.385+161.60854*T-31.38*T*LN(T);
      1700.00  N !
 FUNCTION GBCCZN    298.15  +GHSERZN+2886.96-2.5104*T;                 6000 N !
$ Zn(g)
 FUNCTION F15669T   298.15  +124152.804-21.0289705*T-20.897*T*LN(T)
       +6.65E-05*T**2-5.58E-09*T**3+3335*T**(-1);
      4300.00  Y  +104038.336+64.4573277*T-31.558*T*LN(T)
       +0.00230425*T**2-8.82333333E-08*T**3+5389360*T**(-1);
      8200.00  Y  +681283.394-922.574931*T+78.50201*T*LN(T)
       -0.0070638*T**2+6.18466667E-08*T**3-5.65175E+08*T**(-1);
     10000.00  N !
$ ------------------------------------------------------------------------------
$ Binary system
$
$ From Y. Feutelais et al. 1997 (included in LB Vol. 4)
$
$ Y. Feutelais, A. Haloui, B. Legendre, J. Phase Equilib., 18, 48-61(1997).
$
$ Checked against LB and paper. Checked at 6000 K.
$
 PAR  G(LIQUID,ZNTE),,                  +GLIQZN+GLIQTE
             -85580.45+14.15596*T;,,                                  N 97Feu !
 PAR  L(LIQUID,TE,ZNTE;0),,             +32907.74-27.19253*T;,,       N 97Feu !
 PAR  L(LIQUID,TE,ZNTE;1),,             +1963.48;,,                   N 97Feu !
 PAR  L(LIQUID,ZN,ZNTE;0),,             +71495.73-31.9686*T;,,        N 97Feu !
 PAR  L(LIQUID,ZN,ZNTE;1),,             +19933.56;,,                  N 97Feu !
$
 PAR  G(ZNTE,ZN:TE),,                   -134241.14+233.99357*T
             -45.543121*T*LN(T)-0.008813001*T**2;,,                   N 97Feu !
$
 PAR  G(GAS,ZNTE),,                     +FTEZN+RTLNP;,,               N 00SUB !
$ ZnSe(g)
 FUNCTION FTEZN     298.15  +243809.753-6.95676098*T-37.39241*T*LN(T)
       -5.31368E-06*T**2+39538.8*T**(-1);
      2000.00  N !
$ ------------------------------------------------------------------------------
$
 ASSESSED_SYSTEM
  TE-ZN(TDB -* +LIQUID +GAS +HCP_A3 +HEXAGONAL_A8 +ZNTE_B3 
  ;G5 C_S:LIQUID/ZN ;P3 TMM:300/2000 DOR:GAS STP:.8/1300) !
$
$
 LIST-OF-REFERENCE
 NUMBER  SOURCE
  Null   'Unknown source'
  Same   'Same or similar interaction as in the corresponding stable phase'
  REFLAV 'Laves phase convention: G(LAVES,X:X)=+3*GHSERXX+15000'
  SGCOST 'COST 507 database, SGTE unary database V.3.0, 1996; Al, B, Nd, Ti, Zn'
  91Din  'A.T. Dinsdale, Calphad, 15, 317-425(1991).'
  93Kow  'M. Kowalski, P.J. Spencer, J. Phase Equilib., 14, 432-38 (1993),
          SGTE unary database V.4.1, 1999; Zn'
  95Dav  'A.V. Davydov, M.H. Rand, B.B. Argent, Calphad, 19, 375-87(1995),
          SGTE unary database V.3.0, 1996; Te'
  96Lee  'B.-J. Lee, Calphad, 20, 471-80(1996)
          SGTE unary database V.4.4, 2001; Zn'
  97Feu  'Y. Feutelais, A. Haloui, B. Legendre,
          J. Phase Equilib., 18, 48-61(1997); Zn-Te'
  97SUB  'SGTE Substance Database, version 1997'
  98Han  'S.C. Hansen, Calphad, 22, 359-73(1998),
          SGTE unary database V.5.0, 2009; Zn'
  99SGUN 'SGTE unary database V.4.1, 1999.'
  00SUB  'SGTE Substance Database, version 2000'
  01Mie  'J. Miettinen, Calphad, 25, 43-58(2001),
          SGTE unary database V.4.4, 2001; Sn, Zn'
!
