$
$ Database for W-Zr from P. Zhou et al. 2015.
$
$ P. Zhou, Y. Peng, Y. Du, S. Wang, G. Wen,
$ Int. J. Refract. Met. Hard Mater., 50, 274-81(2015).
$
$ Dataset created 2024.08.15 by Bengt Hallstedt.
$
$ Modified from 14Guo. Hcp interaction changed.
$
$ The liquid and bcc interactions are not convincing.
$
$ ------------------------------------------------------------------------------
 TEMP-LIM 298.15 6000.00 !
$
$ELEMENT NAME  REF. STATE               ATOMIC MASS H298-H0    S298    !
$
 ELEMENT VA   VACUUM                      0.0          0.0      0.0    ! 
 ELEMENT W    BCC_A2                    183.85      4970.0     32.6176 ! 
 ELEMENT ZR   HCP_A3                     91.22      5566.27    39.1809 ! 
$ ------------------------------------------------------------------------------
$ Phase definitions
$
 PHASE LIQUID:L % 1 1 !
 CONST LIQUID:L : W ZR : !
$
$ Fcc (cF4, Fm-3m) and MeX (cF8, Fm-3m)
$
 PHASE FCC_A1 %A 2 1 1 !
 CONST FCC_A1 : W ZR : VA : !
$
$ Bcc (cI2, Im-3m)
$
 PHASE BCC_A2 %B 2 1 3 !
 CONST BCC_A2 : W% ZR% : VA : !
$
$ Hcp (hP2, P6_3/mmc) and Me2X (NiAs-type, hP4, P6_3/mmc, B8_1)
$
 PHASE HCP_A3 %A 2 1 0.5 !
 CONST HCP_A3 : W ZR% : VA : !
$
$ Prototype Cu2Mg (cF24, Fd-3m)
$
 PHASE W2ZR_C15 % 2 2 1 !
 CONST W2ZR_C15 : W : ZR : !
$ ------------------------------------------------------------------------------
$ Defaults
$
 DEFINE-SYSTEM-DEFAULT ELEMENT 2 !
 DEFAULT-COM DEFINE_SYSTEM_ELEMENT VA !
 TYPE-DEF % SEQ * !
 TYPE-DEF A GES AMEND_PHASE_DESCRIPTION @ MAGNETIC -3 0.28 !
 TYPE-DEF B GES AMEND_PHASE_DESCRIPTION @ MAGNETIC -1 0.4 !
 FUNCTION ZERO      298.15  0;                                         6000 N !
 FUNCTION UN_ASS    298.15  0;                                         6000 N !
 FUNCTION R         298.15  +8.31451;                                  6000 N !
$ ------------------------------------------------------------------------------
$ Element data
$ ------------------------------------------------------------------------------
$ W
$
 PAR  G(BCC_A2,W:VA),,                  +GHSERWW;,,                   N 91Din !
 PAR  G(FCC_A1,W:VA),,                  +GHSERWW+19300+0.63*T;,,      N 91Din !
 PAR  G(HCP_A3,W:VA),,                  +GHSERWW+14750;,,             N 91Din !
 PAR  G(LIQUID,W),,                     +GLIQWW;,,                    N 91Din !
$
 FUNCTION GHSERWW   298.15  -7646.311+130.4*T-24.1*T*LN(T)
       -0.001936*T**2+2.07E-07*T**3+44500*T**(-1)-5.33E-11*T**4;
      3695.00  Y  -82868.801+389.362335*T-54*T*LN(T)+1.528621E+33*T**(-9);
      6000.00  N !
 FUNCTION GLIQWW    298.15  +52160.584-14.10999*T+GHSERWW-2.713468E-24*T**7;
      3695.00  Y  -30436.051+375.175*T-54*T*LN(T);
      6000.00  N !
$ ------------------------------------------------------------------------------
$ ZR
$
$ CUB_A13, CBCC_A12, ORTHORHOMBIC_A20 and TETRAGONAL_U added in unary 4.1
$
 PAR  G(HCP_A3,ZR:VA)           130.00  +GHSERZR;,,                   N 91Din !
 PAR  G(BCC_A2,ZR:VA)           130.00  +GBCCZR;,,                    N 91Din !
$PAR  G(OMEGA,ZR)               130.00  +GOMEZR;,,                    N 91Din !
 PAR  G(FCC_A1,ZR:VA)           130.00  +GHSERZR+7600-0.9*T;,,        N 91Din !
$PAR  G(CBCC_A12,ZR:VA)         130.00  +GHSERZR+4602.2;,,            N 99SGUN !
$PAR  G(CUB_A13,ZR:VA)          130.00  +GHSERZR+7531.2;,,            N 99SGUN !
$PAR  G(ORTHORHOMBIC_A20,ZR)    130.00  +GBCCZR+5000;,,               N 99SGUN !
$PAR  G(TETRAGONAL_U,ZR)        130.00  +GBCCZR+5000;,,               N 99SGUN !
 PAR  G(LIQUID,ZR)              130.00  +GLIQZR;,,                    N 91Din !
$
 FUNCTION GHSERZR   130.00  -7827.595+125.64905*T-24.1618*T*LN(T)
       -0.00437791*T**2+34971*T**(-1);
      2128.00  Y  -26085.921+262.724183*T-42.144*T*LN(T)-1.342896E+31*T**(-9);
      6000.00  N !
 FUNCTION GBCCZR    130.00  -525.539+124.9457*T-25.607406*T*LN(T)
       -3.40084E-04*T**2-9.729E-09*T**3+25233*T**(-1)-7.6143E-11*T**4;
      2128.00  Y  -4620.034+1.55998*T+GHSERZR+1.4103476E+32*T**(-9);
      6000.00  N !
 FUNCTION GOMEZR    130.00  -8878.082+144.432234*T-26.8556*T*LN(T)
       -0.002799446*T**2+38376*T**(-1);
      2128.00  Y  -3414.603+2.566675*T+GHSERZR+8.517346E+31*T**(-9);
      6000.00  N !
 FUNCTION GLIQZR    130.00  +18147.69-9.080812*T+GHSERZR+1.6275E-22*T**7;
      2128.00  Y  -8281.26+253.812609*T-42.144*T*LN(T);
      6000.00  N !
$ ------------------------------------------------------------------------------
$ Binary system
$
$ P. Zhou, Y. Peng, Y. Du, S. Wang, G. Wen,
$ Int. J. Refract. Met. Hard Mater., 50, 274-81(2015).
$
$ Checked against paper. Checked at 6000K.
$
$ Modified from 14Guo. Hcp interaction changed.
$
$ The liquid and bcc interactions are not convincing.
$
 PAR  L(LIQUID,W,ZR;0),,                -48980+27.9599*T;,,           N 14Guo !
 PAR  L(LIQUID,W,ZR;1),,                -4645.4+0.7655*T;,,           N 14Guo !
 PAR  L(LIQUID,W,ZR;2),,                -8597.1+6.1958*T;,,           N 14Guo !
$
 PAR  L(BCC_A2,W,ZR:VA;0),,             -27355+49.8196*T;,,           N 14Guo !
 PAR  L(BCC_A2,W,ZR:VA;1),,             -1394.6+1.7438*T;,,           N 14Guo !
 PAR  L(BCC_A2,W,ZR:VA;2),,             +17298.1-16.5509*T;,,         N 14Guo !
$
 PAR  L(HCP_A3,W,ZR:VA;0),,             +3026.3+11.4345*T;,,          N 15Zho !
$
 PAR  G(W2ZR_C15,W:ZR),,                +2*GHSERWW+GHSERZR
             -23385.6+5.8578*T;,,                                     N 14Guo !
$
$ Metastable
$
 PAR  L(FCC_A1,W,ZR:VA;0),,             +3026.3+11.4345*T;,,          N Same !
$ ------------------------------------------------------------------------------
$
 ASSESSED_SYSTEM
   W-ZR(TDB -* +LIQUID +BCC_A2 +HCP_A3 +W2ZR_C15 ;G5 C_S:BCC_A2/ZR:VA
    MAJ:BCC_A2/W:VA ;P3 TMM:300/4000 STP:0.45/1200 ) !
$
$
 LIST-OF-REFERENCE
 NUMBER  SOURCE
  Null   'Unknown source'
  Same   'Same or similar interaction as in the corresponding stable phase'
  REFLAV 'Laves phase convention: G(LAVES,X:X)=+3*GHSERXX+15000'
  COST   'COST 507 database'
  91Din  'A.T. Dinsdale, Calphad, 15, 317-425(1991).'
  99SGUN 'SGTE unary database V.4.1, 1999.'
  14Guo  'C. Guo, C. Li, S. Shang, Z. Du,
          Int. J. Mater. Res., 105, 1048-56(2014); W-Zr'
  15Zho  'P. Zhou, Y. Peng, Y. Du, S. Wang, G. Wen,
          Int. J. Refract. Met. Hard Mater., 50, 274-81(2015); W-Zr'
!
