$
$ Database for Cd-Sn from A. Qin et al. 2014.
$
$ A. Qin, R. Wang, Y. Wang, J. Wang, S. Liu, K. Cheng, Y. Du, B. Sundman,
$ Calphad, 47, 83-91(2014).
$
$ Dataset created 2018.05.19 by Bengt Hallstedt.
$ 2020.12.25: Modified for use with GES6.
$
$ Hcp is also stable as a high-temperature phase close to Sn. This has been
$ modelled as a separate phase (HCP_A3_CDSN in this dataset). It is not clear
$ why.
$
$ ------------------------------------------------------------------------------
 TEMP-LIM 298.15 6000.00 !
$
$ELEMENT NAME  REF. STATE               ATOMIC MASS H298-H0    S298    !
$
 ELEMENT VA   VACUUM                      0.0          0.0      0.0    ! 
 ELEMENT CD   HCP_A3                    112.41      6247.      51.80   ! 
 ELEMENT SN   BCT_A5                    118.69      6323.      51.18   ! 
$ ------------------------------------------------------------------------------
$ Phase definitions
$
 PHASE LIQUID:L % 1 1 !
 CONST LIQUID:L : CD SN : !
$
$ Fcc (cF4, Fm-3m) and MeX (cF8, Fm-3m)
$
 PHASE FCC_A1 %A 2 1 1 !
 CONST FCC_A1 : CD SN : VA : !
$
$ Bcc (cI2, Im-3m)
$
 PHASE BCC_A2 %B 2 1 3 !
 CONST BCC_A2 : CD SN : VA : !
$
$ Hcp (hP2, P6_3/mmc) and Me2X (NiAs-type, hP4, P6_3/mmc, B8_1)
$
 PHASE HCP_A3 %A 2 1 0.5 !
 CONST HCP_A3 : CD% SN : VA : !
$
$ Prototype Mg (hP2, P6_3/mmc)
$
 PHASE HCP_A3_CDSN % 1 1 !
 CONST HCP_A3_CDSN : CD SN% : !
$
$ Prototype C (cF8, Fd-3m)
$
 PHASE DIAMOND_A4 % 1 1 !
 CONST DIAMOND_A4 : SN : !
$
$ Prototype beta-Sn (tI4, I4_1/amd)
$
 PHASE BCT_A5 % 1 1 !
 CONST BCT_A5 : CD SN% : !
$ ------------------------------------------------------------------------------
$ Defaults
$
 DEFINE-SYSTEM-DEFAULT ELEMENT 2 !
 DEFAULT-COM DEFINE_SYSTEM_ELEMENT VA !
 TYPE-DEF % SEQ * !
 TYPE-DEF A GES AMEND_PHASE_DESCRIPTION @ MAGNETIC -3 0.28 !
 TYPE-DEF B GES AMEND_PHASE_DESCRIPTION @ MAGNETIC -1 0.4 !
 FUNCTION ZERO      298.15  0;                                         6000 N !
 FUNCTION UN_ASS    298.15  0;                                         6000 N !
 FUNCTION R         298.15  +8.31451;                                  6000 N !
$ ------------------------------------------------------------------------------
$ Element data
$ ------------------------------------------------------------------------------
$ Cd
$
$ FCC_A1 and TETRAGONAL_A6 added in unary 3.0
$ BCT_A5 and RHOMBO_A10 added in unary 4.1
$ BCC_A2 added in unary 5.0
$
$ FCC_A1 from 04Che2 and 10Che not included in unary
$
 PAR  G(HCP_A3,CD:VA),,                 +GHSERCD;                1600 N 91Din !
 PAR  G(FCC_A1,CD:VA),,                 +GHSERCD+892.3-0.92*T;   1600 N 93Zak !
$PAR  G(FCC_A1,CD:VA),,                 +GLIQCD-5300+9.5*T;      1600 N 04Che2 !
$PAR  G(FCC_A1,CD:VA),,                 +GHSERCD+5000;           1600 N 10Che !
 PAR  G(BCC_A2,CD:VA),,                 +GHSERCD+1000;           1600 N 04Che1 !
$PAR  G(TETRAGONAL_A6,CD),,             +GHSERCD+892.3-0.92*T;   1600 N 93Zak !
 PAR  G(BCT_A5,CD),,                    +GHSERCD+5000;           1600 N 95Yan !
$PAR  G(RHOMBO_A10,CD),,                +GHSERCD+800-0.62*T;     1600 N 95Yan !
 PAR  G(LIQUID,CD),,                    +GLIQCD;                 1600 N 91Din !
$
 PAR  G(HCP_A3_CDSN,CD),,               +GHSERCD+1000;           1600 N 14Qin !
$
 FUNCTION GHSERCD   298.15  -7083.469+99.506198*T-22.0442408*T*LN(T)
       -0.006273908*T**2-6966*T**(-1);
       594.22  Y  -20064.971+256.812233*T-45.1611543*T*LN(T)
       +0.008832011*T**2-8.99604E-07*T**3+1241290*T**(-1);
      1500.00  Y  -9027.489+148.20548*T-29.7064*T*LN(T);
      1600.00  N !
 FUNCTION GLIQCD    298.15  +6128.444-10.296916*T+GHSERCD;
       400.00  Y  +21716.884-371.046869*T+53.1313898*T*LN(T)
       -0.115159917*T**2+2.8899781E-05*T**3-1271815*T**(-1);
       594.22  Y  -3252.303+138.251107*T-29.7064*T*LN(T);
      1500.00  Y  +5775.186-9.954373*T+GHSERCD;
      1600.00  N !
 FUNCTION GBCCCD    298.15  +GHSERCD+1000;                             6000 N !
$ ------------------------------------------------------------------------------
$ Sn
$
$ FCC_A1 revised in unary 3.0
$ HCP_A3 revised in unary 4.1
$ TETRAGONAL_A6 added in unary 4.1
$ CBCC_A12 and CUB_A13 added in unary 4.4
$ FCC_A1 modified in unary 5.0
$ DHCP and TET_ALPHA1_A6 added in unary 5.0
$
$ The DHCP phase is labelled D0_24 in 03Liu and alpha-prime in 92Ans. The
$ phase is present between the fcc and hcp phases in the Au-Sn and Au-In
$ systems.
$
 PAR  G(BCT_A5,SN)              100.00  +GHSERSN;                3000 N 91Din !
 PAR  G(DIAMOND_A4,SN)          100.00  +GDIASN;                 3000 N 91Din !
 PAR  G(FCC_A1,SN:VA)           100.00  +GHSERSN+5510-8.46*T;    3000 N 89Fec !
$PAR  G(FCC_A1,SN:VA)           100.00  +GHSERSN+4150-5.2*T;     3000 N 91Din !
 PAR  G(BCC_A2,SN:VA)           100.00  +GHSERSN+4400-6*T;       3000 N 91Din !
 PAR  G(HCP_A3,SN:VA)           100.00  +GHSERSN+3900-7.646*T;   3000 N Ansar !
$PAR  G(HCP_A3,SN:VA)           100.00  +GHSERSN+3900-4.4*T;     3000 N 91Din !
$PAR  G(DHCP,SN)                100.00  +GHSERSN+3803.52-3.46*T; 3000 N 03Liu !
$PAR  G(RHOMBOHEDRAL_A7,SN)     100.00  +GHSERSN+2035;           3000 N 91Din !
$PAR  G(TETRAGONAL_A6,SN)       100.00  +GHSERSN+5387-8.26212*T; 3000 N 99Ans !
$PAR  G(CBCC_A12,SN:VA)         100.00  +GHSERSN+2000;           3000 N 01Mie !
$PAR  G(CUB_A13,SN:VA)          100.00  +GHSERSN+2000;           3000 N 01Mie !
$PAR  G(TET_ALPHA1_A6,SN)       100.00  +GHSERSN+5510-8.46*T;    3000 N 99Ans !
 PAR  G(LIQUID,SN)              100.00  +GLIQSN;                 3000 N 91Din !
$
 PAR  G(HCP_A3_CDSN,SN)         100.00  +GHSERSN+885.1-1.671*T;  3000 N 14Qin !
$
 FUNCTION GHSERSN   100.00  -7958.517+122.765451*T-25.858*T*LN(T)
       +5.1185E-04*T**2-3.192767E-06*T**3+18440*T**(-1);
       250.00  Y  -5855.135+65.443315*T-15.961*T*LN(T)
       -0.0188702*T**2+3.121167E-06*T**3-61960*T**(-1);
       505.08  Y  +2524.724+4.005269*T-8.2590486*T*LN(T)
       -0.016814429*T**2+2.623131E-06*T**3-1081244*T**(-1)-1.2307E+25*T**(-9);
       800.00  Y  -8256.959+138.99688*T-28.4512*T*LN(T)-1.2307E+25*T**(-9);
      3000.00  N !
 FUNCTION GDIASN    100.00  -9579.608+114.007785*T-22.972*T*LN(T)
       -0.00813975*T**2+2.7288E-06*T**3+25615*T**(-1);
       298.15  Y  -9063.001+104.84654*T-21.5750771*T*LN(T)
       -0.008575282*T**2+1.784447E-06*T**3-2544*T**(-1);
       800.00  Y  -10909.351+147.396535*T-28.4512*T*LN(T);
      3000.00  N !
 FUNCTION GLIQSN    100.00  +7103.092-14.087767*T+GHSERSN+1.47031E-18*T**7;
       505.08  Y  +6971.586-13.814383*T+GHSERSN+1.2307E+25*T**(-9);
       800.00  Y  -1285.372+125.182498*T-28.4512*T*LN(T);
      3000.00  N !
 FUNCTION GBCCSN    298.15  +GHSERSN+4400-6*T;                         3000 N !
$ ------------------------------------------------------------------------------
$ Binary system
$
$ A. Qin, R. Wang, Y. Wang, J. Wang, S. Liu, K. Cheng, Y. Du, B. Sundman,
$ Calphad, 47, 83-91(2014).
$
$ Checked against paper and author's tdb. Checked at 6000 K.
$
$ Hcp is also stable as a high-temperature phase close to Sn. This has been
$ modelled as a separate phase (HCP_A3_CDSN in this dataset). It is not clear
$ why.
$
 PAR  L(LIQUID,CD,SN;0),,               +7912.5-5.4*T;,,              N 14Qin !
 PAR  L(LIQUID,CD,SN;1),,               +1460.8-1.45*T;,,             N 14Qin !
$
 PAR  L(HCP_A3,CD,SN:VA;0),,            +22505;,,                     N 14Qin !
 PAR  L(BCT_A5,CD,SN;0),,               +21000-26.19*T;,,             N 14Qin !
$
 PAR  L(HCP_A3_CDSN,CD,SN;0),,          +23543+3.496*T;,,             N 14Qin !
 PAR  L(HCP_A3_CDSN,CD,SN;1),,          +18725;,,                     N 14Qin !
$
$ Metastable
$
 PAR  L(FCC_A1,CD,SN:VA;0),,            +22505;,,                     N Same !
 PAR  L(BCC_A2,CD,SN:VA;0),,            +22505;,,                     N Same !
$ ------------------------------------------------------------------------------
$
$
 LIST-OF-REFERENCE
 NUMBER  SOURCE
  Null   'Unknown source'
  Same   'Same or similar interaction as in the corresponding stable phase'
  COST   'COST 507 database'
  Ansar  'Himo Ansara, unpublished, SGTE unary database V.4.1, 1999; Sn'
  89Fec  'H.J. Fecht, M.X. Zhang, Y.A. Chang, J.H. Perepezko,
          Metall. Trans. A, 20A, 795-803(1989),
          SGTE unary database V.3.0, 1996; Sn'
  91Din  'A.T. Dinsdale, Calphad, 15, 317-425(1991).'
  93Zak  'W. Zakulski, Z. Moser, K. Rzyman, H.L. Lukas, S.G. Fries,
          M. Sukiennik, R. Kaczmarczyk, R. Castanet,
          J. Phase Equilib., 14, 184-96(1993),
          SGTE unary database V.3.0, 1996; Cd'
  95Yan  'J. Yang, N.J. Silk, A. Watson, A.W. Bryant, T.G. Chart, B.B. Argent,
          Calphad, 19, 415-30(1995), SGTE unary database V.4.1, 1999; Cd, Hg'
  99Ans  'I. Ansara, S.G. Fries, H.L. Lukas, unpublished, 1999,
          SGTE unary database V.5.0, 2009; In, Sn'
  01Mie  'J. Miettinen, Calphad, 25, 43-58(2001),
          SGTE unary database V.4.4, 2001; Sn, Zn'
  03Liu  'H.S. Liu, C.L. Liu, K. Ishida, Z.P. Jin, J. Electron. Mater.,
          32, 1290-96(2003), SGTE unary database V.5.0, 2009; Sn'
  04Che1 'P.-Y. Chevalier, unpublished, Thermodata, 2004,
          SGTE unary database V.5.0, 2009; Cd'
  04Che2 'P.-Y. Chevalier, unpublished, Thermodata, 2004; Cd'
  10Che  'X.M. Chen, L.B. Liu, L.G. Zhang, H. Bo, Z.P. Jin,
          Trans. Nonferrous Met. Soc. China, 20, 649-54(2010); Cd'
  14Qin  'A. Qin, R. Wang, Y. Wang, J. Wang, S. Liu, K. Cheng, Y. Du,
          B. Sundman, Calphad, 47, 83-91(2014); Cd-Sn'
!
