$
$ Database for Co-Fe from I. Ohnuma et al. 2002
$
$ I. Ohnuma, H. Enoki, O. Ikeda, R. Kainuma, H. Ohtani, B. Sundman, K. Ishida,
$ Acta Mater., 50, 379-93(2002).
$
$ Dataset created 2010.12.04 by Bengt Hallstedt.
$ 2016.11.10: Parameters for CBCC_A12 and CUB_A13 added (metastable).
$ 2020.12.25: Modified for use with GES6.
$
$ In 02Ohn the magnetic properties of pure Co were changed somewhat. These
$ changes are not included here. This does not visibly change the phase diagram.
$
$ ------------------------------------------------------------------------------
 TEMP-LIM 298.15 6000.00 !
$
$ELEMENT NAME  REF. STATE               ATOMIC MASS H298-H0    S298    !
$
 ELEMENT VA   VACUUM                      0.0          0.0      0.0    ! 
 ELEMENT CO   HCP_A3                     58.9332    4765.567   30.0400 ! 
 ELEMENT FE   BCC_A2                     55.847     4489.0     27.2797 ! 
$ ------------------------------------------------------------------------------
$ Phase definitions
$
 PHASE LIQUID:L % 1 1 !
 CONST LIQUID:L : CO FE : !
$
$ Fcc (cF4, Fm-3m) and MeX (cF8, Fm-3m)
$
 PHASE FCC_A1 %A 2 1 1 !
 CONST FCC_A1 : CO% FE% : VA : !
$
$ Bcc (cI2, Im-3m)
$
 PHASE BCC_A2 %B 2 1 3 !
 CONST BCC_A2 : CO FE% : VA : !
$
$ Disordered part of B2_BCC, identical to BCC_A2
$
 PHASE A2_BCC %B 2 1 3 !
 CONST A2_BCC : CO FE : VA : !
$
$ Prototype CsCl (cP2, Pm-3m)
$
 PHASE B2_BCC %BO 3 0.5 0.5 3 !
 CONST B2_BCC : CO% FE : CO FE% : VA : !
$
$ Hcp (hP2, P6_3/mmc) and Me2X (NiAs-type, hP4, P6_3/mmc, B8_1)
$
 PHASE HCP_A3 %A 2 1 0.5 !
 CONST HCP_A3 : CO% FE : VA : !
$ ------------------------------------------------------------------------------
$ Defaults
$
 DEFINE-SYSTEM-DEFAULT ELEMENT 2 !
 DEFAULT-COM DEFINE_SYSTEM_ELEMENT VA !
 DEFAULT-COM REJECT_PHASE BCC_A2 !
 TYPE-DEF % SEQ * !
 TYPE-DEF A GES AMEND_PHASE_DESCRIPTION @ MAGNETIC -3 0.28 !
 TYPE-DEF B GES AMEND_PHASE_DESCRIPTION @ MAGNETIC -1 0.4 !
 TYPE-DEF O GES AMEND_PHASE_DESCRIPTION B2_BCC DIS_PART A2_BCC !
 FUNCTION ZERO      298.15  0;                                         6000 N !
 FUNCTION UN_ASS    298.15  0;                                         6000 N !
 FUNCTION R         298.15  +8.31451;                                  6000 N !
$ ------------------------------------------------------------------------------
$ Element data
$ ------------------------------------------------------------------------------
$ Co
$
 PAR  G(HCP_A3,CO:VA),,                 +GHSERCO;,,                   N 91Din !
 PAR  TC(HCP_A3,CO:VA),,                 1396.00;,,                   N 91Din !
 PAR  BM(HCP_A3,CO:VA),,                    1.35;,,                   N 91Din !
 PAR  G(FCC_A1,CO:VA),,                 +GHSERCO
             +427.591-0.615248*T;,,                                   N 91Din !
 PAR  TC(FCC_A1,CO:VA),,                 1396.00;,,                   N 91Din !
 PAR  BM(FCC_A1,CO:VA),,                    1.35;,,                   N 91Din !
 PAR  G(BCC_A2,CO:VA),,                 +GHSERCO+2938-0.7138*T;,,     N 91Din !
 PAR  TC(BCC_A2,CO:VA),,                 1450.00;,,                   N 91Din !
 PAR  BM(BCC_A2,CO:VA),,                    1.35;,,                   N 91Din !
 PAR  G(A2_BCC,CO:VA),,                 +GHSERCO+2938-0.7138*T;,,     N 91Din !
 PAR  TC(A2_BCC,CO:VA),,                 1450.00;,,                   N 91Din !
 PAR  BM(A2_BCC,CO:VA),,                    1.35;,,                   N 91Din !
$PAR  G(CBCC_A12,CO:VA),,               +GHSERCO+4155;,,              N 91Din !
$PAR  G(CUB_A13,CO:VA),,                +GHSERCO+3155;,,              N 91Din !
 PAR  G(LIQUID,CO),,                    +GLIQCO;,,                    N 91Din !
$
 FUNCTION GHSERCO   298.15  +310.241+133.36601*T-25.0861*T*LN(T)
       -0.002654739*T**2-1.7348E-07*T**3+72527*T**(-1);
      1768.00  Y  -17197.666+253.28374*T-40.5*T*LN(T)+9.3488E+30*T**(-9);
      6000.00  N !
 FUNCTION GLIQCO    298.15  +15085.037-8.931932*T+GHSERCO-2.19801E-21*T**7;
      1768.00  Y  -846.61+243.599944*T-40.5*T*LN(T);
      6000.00  N !
$ ------------------------------------------------------------------------------
$ Fe
$
$ ORTHORHOMBIC_A20 and TETRAGONAL_U added im unary 4.1
$
 PAR  G(BCC_A2,FE:VA),,                 +GHSERFE;,,                   N 91Din !
 PAR  TC(BCC_A2,FE:VA),,                 1043.00;,,                   N 91Din !
 PAR  BM(BCC_A2,FE:VA),,                    2.22;,,                   N 91Din !
 PAR  G(A2_BCC,FE:VA),,                 +GHSERFE;,,                   N 91Din !
 PAR  TC(A2_BCC,FE:VA),,                 1043.00;,,                   N 91Din !
 PAR  BM(A2_BCC,FE:VA),,                    2.22;,,                   N 91Din !
 PAR  G(FCC_A1,FE:VA),,                 +GFCCFE;,,                    N 91Din !
 PAR  TC(FCC_A1,FE:VA),,                 -201.00;,,                   N 91Din !
 PAR  BM(FCC_A1,FE:VA),,                   -2.10;,,                   N 91Din !
 PAR  G(HCP_A3,FE:VA),,                 +GHCPFE;,,                    N 91Din !
$PAR  G(CBCC_A12,FE:VA),,               +GHSERFE+4745;,,              N 91Din !
$PAR  G(CUB_A13,FE:VA),,                +GHSERFE+3745;,,              N 91Din !
$PAR  G(ORTHORHOMBIC_A20,FE),,          +GHSERFE+5000;,,              N 99SGUN !
$PAR  G(TETRAGONAL_U,FE),,              +GHSERFE+5000;,,              N 99SGUN !
 PAR  G(LIQUID,FE),,                    +GLIQFE;,,                    N 91Din !
$
 FUNCTION GHSERFE   298.15  +1225.7+124.134*T-23.5143*T*LN(T)
       -0.00439752*T**2-5.8927E-08*T**3+77359*T**(-1);
      1811.00  Y  -25383.581+299.31255*T-46*T*LN(T)+2.29603E+31*T**(-9);
      6000.00  N !
 FUNCTION GFCCFE    298.15  -1462.4+8.282*T-1.15*T*LN(T)
       +6.4E-04*T**2+GHSERFE;
      1811.00  Y  -1713.815+0.940009*T+GHSERFE+4.9251E+30*T**(-9);
      6000.00  N !
 FUNCTION GHCPFE    298.15  -3705.78+12.591*T-1.15*T*LN(T)
       +6.4E-04*T**2+GHSERFE;
      1811.00  Y  -3957.195+5.249009*T+GHSERFE+4.9251E+30*T**(-9);
      6000.00  N !
 FUNCTION GLIQFE    298.15  +12040.17-6.55843*T+GHSERFE-3.67516E-21*T**7;
      1811.00  Y  -10838.83+291.302*T-46*T*LN(T);
      6000.00  N !
$ ------------------------------------------------------------------------------
$ Binary system
$
$ I. Ohnuma, H. Enoki, O. Ikeda, R. Kainuma, H. Ohtani, B. Sundman, K. Ishida,
$ Acta Mater., 50, 379-93(2002).
$
$ Checked against paper. Checked at 6000 K.
$
$ In 02Ohn the magnetic properties of pure Co were changed somewhat. These
$ changes are not included here. This does not visibly change the phase diagram.
$
 PAR  L(LIQUID,CO,FE;0),,               -9753.82;,,                   N 02Ohn !
 PAR  L(LIQUID,CO,FE;2),,               +2757.96;,,                   N 02Ohn !
$
 PAR  L(FCC_A1,CO,FE:VA;0),,            -8968.75;,,                   N 02Ohn !
 PAR  L(FCC_A1,CO,FE:VA;2),,            +3528.8;,,                    N 02Ohn !
 PAR  TC(FCC_A1,CO,FE:VA;0),,            +283;,,                      N 87Fer2 !
 PAR  TC(FCC_A1,CO,FE:VA;1),,            +879;,,                      N 87Fer2 !
 PAR  BM(FCC_A1,CO,FE:VA;0),,              +8.407;,,                  N 02Ohn !
 PAR  BM(FCC_A1,CO,FE:VA;1),,              -3.644;,,                  N 02Ohn !
$
 PAR  L(BCC_A2,CO,FE:VA;0),,            -26222.7+125*T-15.502*T*LN(T)
             +0.25*SBCOFE;,,                                          N 02Ohn !
 PAR  L(BCC_A2,CO,FE:VA;2),,            +2686.79-0.25*SBCOFE;,,       N 02Ohn !
 PAR  TC(BCC_A2,CO,FE:VA;0),,            +590;,,                      N 87Fer2 !
 PAR  BM(BCC_A2,CO,FE:VA;0),,              +1.406;,,                  N 02Ohn !
 PAR  BM(BCC_A2,CO,FE:VA;1),,              -0.6617;,,                 N 02Ohn !
$
 PAR  L(A2_BCC,CO,FE:VA;0),,            -26222.7+125*T-15.502*T*LN(T)
             +0.25*SBCOFE;,,                                          N 02Ohn !
 PAR  L(A2_BCC,CO,FE:VA;2),,            +2686.79-0.25*SBCOFE;,,       N 02Ohn !
 PAR  TC(A2_BCC,CO,FE:VA;0),,            +590;,,                      N 87Fer2 !
 PAR  BM(A2_BCC,CO,FE:VA;0),,              +1.406;,,                  N 02Ohn !
 PAR  BM(A2_BCC,CO,FE:VA;1),,              -0.6617;,,                 N 02Ohn !
$
 PAR  G(B2_BCC,CO:FE:VA),,              -1621.23;,,                   N 02Ohn !
 PAR  G(B2_BCC,FE:CO:VA),,              -1621.23;,,                   N 02Ohn !
 PAR  L(B2_BCC,CO,FE:CO:VA;0),,         +1744.89;,,                   N 02Ohn !
 PAR  L(B2_BCC,CO:CO,FE:VA;0),,         +1744.89;,,                   N 02Ohn !
 PAR  L(B2_BCC,CO,FE:CO:VA;1),,         -123.653;,,                   N 02Ohn !
 PAR  L(B2_BCC,CO:CO,FE:VA;1),,         -123.653;,,                   N 02Ohn !
 PAR  L(B2_BCC,CO,FE:FE:VA;0),,         +1497.58;,,                   N 02Ohn !
 PAR  L(B2_BCC,FE:CO,FE:VA;0),,         +1497.58;,,                   N 02Ohn !
 PAR  L(B2_BCC,CO,FE:FE:VA;1),,         -123.653;,,                   N 02Ohn !
 PAR  L(B2_BCC,FE:CO,FE:VA;1),,         -123.653;,,                   N 02Ohn !
 PAR  L(B2_BCC,CO,FE:CO,FE:VA;0),,      +SBCOFE;,,                    N 02Ohn !
 PAR  TC(B2_BCC,CO:FE:VA),,              +370;,,                      N 02Ohn !
 PAR  TC(B2_BCC,FE:CO:VA),,              +370;,,                      N 02Ohn !
 PAR  TC(B2_BCC,CO,FE:CO:VA;0),,         -370;,,                      N 02Ohn !
 PAR  TC(B2_BCC,CO:CO,FE:VA;0),,         -370;,,                      N 02Ohn !
 PAR  TC(B2_BCC,CO,FE:FE:VA;0),,         -370;,,                      N 02Ohn !
 PAR  TC(B2_BCC,FE:CO,FE:VA;0),,         -370;,,                      N 02Ohn !
 PAR  BM(B2_BCC,CO:FE:VA),,                +0.1;,,                    N 02Ohn !
 PAR  BM(B2_BCC,FE:CO:VA),,                +0.1;,,                    N 02Ohn !
 PAR  BM(B2_BCC,CO,FE:CO:VA;0),,           -0.1;,,                    N 02Ohn !
 PAR  BM(B2_BCC,CO:CO,FE:VA;0),,           -0.1;,,                    N 02Ohn !
 PAR  BM(B2_BCC,CO,FE:FE:VA;0),,           -0.1;,,                    N 02Ohn !
 PAR  BM(B2_BCC,FE:CO,FE:VA;0),,           -0.1;,,                    N 02Ohn !
$
 PAR  L(HCP_A3,CO,FE:VA;0),,            +5000;,,                      N 02Ohn !
 PAR  TC(HCP_A3,CO,FE:VA;0),,            -253;,,                      N 87Fer2 !
 PAR  TC(HCP_A3,CO,FE:VA;1),,           +1494;,,                      N 87Fer2 !
 PAR  BM(HCP_A3,CO,FE:VA;0),,              +5.41;,,                   N 87Fer2 !
 PAR  BM(HCP_A3,CO,FE:VA;1),,              -0.24;,,                   N 87Fer2 !
$
 FUNCTION SBCOFE    298.15  -2529000*T**(-1);                          6000 N !
$
$ Metastable
$
$PAR  L(CBCC_A12,CO,FE:VA;0),,          -10000;,,                     N 90Hua4 !
$PAR  L(CUB_A13,CO,FE:VA;0),,           -10000;,,                     N 90Hua4 !
$ ------------------------------------------------------------------------------
$
 ASSESSED_SYSTEM
  CO-FE(TDB -* +LIQ +HCP_A3 +FCC_A1 +A2_BCC +B2_BCC
  ;P3 TMM:300/2000 STP:.5/1500/2/-2) !
$
$
 LIST-OF-REFERENCE
 NUMBER  SOURCE
  Null   'Unknown source'
  REFLAV 'Laves phase convention: G(LAVES,X:X)=+3*GHSERXX+15000'
  87Fer2 'A. Fernandez Guillermet,
          High Temp. High Press., 19, 477-99(1987); Co-Fe'
  90Hua4 'W. Huang, Calphad, 14, 11-22(1990); Co-Fe-Mn'
  91Din  'A.T. Dinsdale, Calphad, 15, 317-425(1991).'
  99SGUN 'SGTE unary database V.4.1, 1999.'
  02Ohn  'I. Ohnuma, H. Enoki, O. Ikeda, R. Kainuma, H. Ohtani, B. Sundman,
          K. Ishida, Acta Mater., 50, 379-93(2002); Co-Fe'
!
