$
$ Database for Nb-Zn from Z. Long et al. 2016.
$
$ Z. Long, J. Gong, J. Ding, C. Tang, Z. Li, F. Yin,
$ J. Phase Equilib. Diffus., 37, 293-300(2016).
$
$ Dataset created 2018.12.16 by Bengt Hallstedt.
$ 2021.01.31: Modified for use with GES6.
$
$ ------------------------------------------------------------------------------
 TEMP-LIM 298.15 6000.00 !
$
$ELEMENT NAME  REF. STATE               ATOMIC MASS H298-H0    S298    !
$
 ELEMENT VA   VACUUM                      0.0          0.0      0.0    ! 
 ELEMENT NB   BCC_A2                     92.9064    5220.0     36.27   ! 
 ELEMENT ZN   HCP_A3                     65.38      5657.0     41.63   ! 
$ ------------------------------------------------------------------------------
$ Phase definitions
$
 PHASE LIQUID:L % 1 1 !
 CONST LIQUID:L : NB ZN : !
$
$ Fcc (cF4, Fm-3m) and MeX (cF8, Fm-3m)
$
 PHASE FCC_A1 %A 2 1 1 !
 CONST FCC_A1 : NB ZN : VA : !
$
$ Bcc (cI2, Im-3m)
$
 PHASE BCC_A2 %B 2 1 3 !
 CONST BCC_A2 : NB% ZN : VA : !
$
$ Hcp (hP2, P6_3/mmc) and Me2X (NiAs-type, hP4, P6_3/mmc, B8_1)
$
 PHASE HCP_A3 %A 2 1 0.5 !
 CONST HCP_A3 : NB ZN% : VA : !
$
$ unknown structure
$
 PHASE NBZN % 2 1 1 !
 CONST NBZN : NB : ZN : !
$
$ Prototype Fe7W6 (hR13)
$
 PHASE NB2ZN3_D85 % 2 2 3 !
 CONST NB2ZN3_D85 : NB : ZN : !
$
$ Prototype MgNi2 (hP24, P6_3/mmc)
$
 PHASE NBZN2_C36 % 2 1 2 !
 CONST NBZN2_C36 : NB : ZN : !
$
$ Prototype AuCu3 (cP4, Pm-3m)
$
 PHASE NBZN3_L12 % 2 1 3 !
 CONST NBZN3_L12 : NB : ZN : !
$
$ unknown structure
$
 PHASE NBZN7 % 2 1 7 !
 CONST NBZN7 : NB : ZN : !
$
$ Prototype TiZn16 (oC68, Cmcm)
$
 PHASE NBZN15 % 2 1 15 !
 CONST NBZN15 : NB : ZN : !
$ ------------------------------------------------------------------------------
$ Defaults
$
 DEFINE-SYSTEM-DEFAULT ELEMENT 2 !
 DEFAULT-COM DEFINE_SYSTEM_ELEMENT VA !
 TYPE-DEF % SEQ * !
 TYPE-DEF A GES AMEND_PHASE_DESCRIPTION @ MAGNETIC -3 0.28 !
 TYPE-DEF B GES AMEND_PHASE_DESCRIPTION @ MAGNETIC -1 0.4 !
 FUNCTION ZERO      298.15  0;                                         6000 N !
 FUNCTION UN_ASS    298.15  0;                                         6000 N !
 FUNCTION R         298.15  +8.31451;                                  6000 N !
$ ------------------------------------------------------------------------------
$ Element data
$ ------------------------------------------------------------------------------
$ Nb
$
 PAR  G(BCC_A2,NB:VA),,                 +GHSERNB;,,                   N 91Din !
 PAR  G(FCC_A1,NB:VA),,                 +GHSERNB+13500+1.7*T;,,       N 91Din !
 PAR  G(HCP_A3,NB:VA),,                 +GHSERNB+10000+2.4*T;,,       N 91Din !
 PAR  G(LIQUID,NB),,                    +GLIQNB;,,                    N 91Din !
$
 FUNCTION GHSERNB   298.15  -8519.353+142.045475*T-26.4711*T*LN(T)
       +2.03475E-04*T**2-3.5012E-07*T**3+93399*T**(-1);
      2750.00  Y  -37669.3+271.720843*T-41.77*T*LN(T)+1.528238E+32*T**(-9);
      6000.00  N !
 FUNCTION GLIQNB    298.15  +29781.555-10.816418*T+GHSERNB-3.06098E-23*T**7;
      2750.00  Y  -7499.398+260.756148*T-41.77*T*LN(T);
      6000.00  N !
$ ------------------------------------------------------------------------------
$ Zn
$
$ BCT_A5 and DIAMOND_A4 added in unary 3.0
$ HCP_A3 revised in unary 4.1 (due to introduction of HCP_ZN)
$ RHOMBOHEDRAL_A7 and TETRAGONAL_A6 added in unary 4.1
$ TETRAGONAL_A6 revised in unary 4.4
$ CBCC_A12 and CUB_A13 added in unary 4.4
$ HCP_A3 and LIQUID modified in unary 5.0 (melting T and coefficients adjusted)
$ RHOMBO_A10 added in unary 5.0
$
$ Pure Zn restored as HCP_A3
$
 PAR  G(HCP_A3,ZN:VA),,                 +GHSERZN;                1700 N 91Din !
$PAR  G(HCP_A3,ZN:VA),,                 +GHSERZN
$            +2969.82-1.56968*T;                                 1700 N 93Kow !
 PAR  G(FCC_A1,ZN:VA),,                 +GHSERZN
             +2969.82-1.56968*T;                                 1700 N 91Din !
 PAR  G(BCC_A2,ZN:VA),,                 +GHSERZN
             +2886.96-2.5104*T;                                  1700 N 91Din !
$PAR  G(DIAMOND_A4,ZN),,                +GHSERZN+30*T;           1700 N SGCOST !
$PAR  G(BCT_A5,ZN),,                    +GHSERZN
$            +2886.96-2.5104*T;                                  1700 N SGCOST !
$PAR  G(TETRAGONAL_A6,ZN),,             +GHSERZN+4184;           1700 N 96Lee !
$PAR  G(TETRAGONAL_A6,ZN),,             +GHSERZN
$            +2886.96-2.5104*T;                                  1700 N 99SGUN !
$PAR  G(RHOMBOHEDRAL_A7,ZN),,           +GHSERZN+2300+11.5*T;    1700 N 99SGUN !
$PAR  G(RHOMBO_A10,ZN),,                +GLIQZN-2000+10*T;       1700 N 98Han !
$PAR  G(CBCC_A12,ZN:VA),,               +GHSERZN+2000;           1700 N 01Mie !
$PAR  G(CUB_A13,ZN:VA),,                +GHSERZN+2000;           1700 N 01Mie !
 PAR  G(LIQUID,ZN),,                    +GLIQZN;                 1700 N 91Din !
$
 FUNCTION GHSERZN   298.15  -7285.787+118.470069*T-23.701314*T*LN(T)
       -0.001712034*T**2-1.264963E-06*T**3;
       692.677 Y  -11070.546+172.345644*T-31.38*T*LN(T)+4.7047E+26*T**(-9);
      1700.00  N !
 FUNCTION GLIQZN    298.15  +7157.222-10.29305*T+GHSERZN-3.58949E-19*T**7;
       692.677 Y  -3620.385+161.60854*T-31.38*T*LN(T);
      1700.00  N !
 FUNCTION GBCCZN    298.15  +GHSERZN+2886.96-2.5104*T;                 6000 N !
$ ------------------------------------------------------------------------------
$ Binary system
$
$ Z. Long, J. Gong, J. Ding, C. Tang, Z. Li, F. Yin,
$ J. Phase Equilib. Diffus., 37, 293-300(2016).
$
$ Checked against paper. Checked at 6000 K.
$
 PAR  L(LIQUID,NB,ZN;0),,               +26625.466-0.318*T;,,         N 16Lon !
$
 PAR  L(BCC_A2,NB,ZN:VA;0),,            +110000;,,                    N 16Lon !
 PAR  L(HCP_A3,NB,ZN:VA;0),,            +UN_ASS;,,                    N !
$
 PAR  G(NBZN,NB:ZN),,                   +GHSERNB+GHSERZN
             -22827.824+10.72*T;,,                                    N 16Lon !
 PAR  G(NB2ZN3_D85,NB:ZN),,             +2*GHSERNB+3*GHSERZN
             -68499.645+32.275*T;,,                                   N 16Lon !
 PAR  G(NBZN2_C36,NB:ZN),,              +GHSERNB+2*GHSERZN
             -45699.528+22.11*T;,,                                    N 16Lon !
 PAR  G(NBZN3_L12,NB:ZN),,              +GHSERNB+3*GHSERZN
             -54279.492+23.5*T;,,                                     N 16Lon !
 PAR  G(NBZN7,NB:ZN),,                  +GHSERNB+7*GHSERZN
             -57462.04+24.48*T;,,                                     N 16Lon !
 PAR  G(NBZN15,NB:ZN),,                 +GHSERNB+15*GHSERZN
             -58178.624+24.432*T;,,                                   N 16Lon !
$
$ metastable
$
 PAR  L(FCC_A1,NB,ZN:VA;0),,            +110000;,,                    N Same !
$ ------------------------------------------------------------------------------
$
$
 LIST-OF-REFERENCE
 NUMBER  SOURCE
  Null   'Unknown source'
  Same   'Same or similar interaction as in the corresponding stable phase'
  REFLAV 'Laves phase convention: G(LAVES,X:X)=+3*GHSERXX+15000'
  SGCOST 'COST 507 database, SGTE unary database V.3.0, 1996; Al, B, Nd, Ti, Zn'
  91Din  'A.T. Dinsdale, Calphad, 15, 317-425(1991).'
  93Kow  'M. Kowalski, P.J. Spencer, J. Phase Equilib., 14, 432-38 (1993),
          SGTE unary database V.4.1, 1999; Zn'
  96Lee  'B.-J. Lee, Calphad, 20, 471-80(1996)
          SGTE unary database V.4.4, 2001; Zn'
  98Han  'S.C. Hansen, Calphad, 22, 359-73(1998),
          SGTE unary database V.5.0, 2009; Zn'
  99SGUN 'SGTE unary database V.4.1, 1999.'
  01Mie  'J. Miettinen, Calphad, 25, 43-58(2001),
          SGTE unary database V.4.4, 2001; Sn, Zn'
  16Lon  'Z. Long, J. Gong, J. Ding, C. Tang, Z. Li, F. Yin,
          J. Phase Equilib. Diffus., 37, 293-300(2016); Nb-Zn'
!
