$
$ Database for Mo-Th from C.P. Wang et al. 2008.
$
$ C.P. Wang, Y.F. Li, X.J. Liu, K. Ishida, J. Alloys Compd., 458, 208-13(2008).
$
$ Dataset created 2021.06.26 by Bengt Hallstedt.
$
$ ------------------------------------------------------------------------------
 TEMP-LIM 298.15 6000.00 !
$
$ELEMENT NAME  REF. STATE               ATOMIC MASS H298-H0    S298    !
$
 ELEMENT VA   VACUUM                      0.0          0.0      0.0    ! 
 ELEMENT MO   BCC_A2                     95.94      4589.0     28.56   ! 
 ELEMENT TH   FCC_A1                    232.0381    6350.0     51.8    ! 
$ ------------------------------------------------------------------------------
$ Phase definitions
$
 PHASE LIQUID:L % 1 1 !
 CONST LIQUID:L : MO TH : !
$
$ Fcc (cF4, Fm-3m) and MeX (cF8, Fm-3m)
$
 PHASE FCC_A1 %A 2 1 1 !
 CONST FCC_A1 : MO TH% : VA : !
$
$ Bcc (cI2, Im-3m)
$
 PHASE BCC_A2 %B 2 1 3 !
 CONST BCC_A2 : MO% TH% : VA : !
$
$ Hcp (hP2, P6_3/mmc) and Me2X (NiAs-type, hP4, P6_3/mmc, B8_1)
$
 PHASE HCP_A3 %A 2 1 0.5 !
 CONST HCP_A3 : MO : VA : !
$ ------------------------------------------------------------------------------
$ Defaults
$
 DEFINE-SYSTEM-DEFAULT ELEMENT 2 !
 DEFAULT-COM DEFINE_SYSTEM_ELEMENT VA !
 TYPE-DEF % SEQ * !
 TYPE-DEF A GES AMEND_PHASE_DESCRIPTION @ MAGNETIC -3 0.28 !
 TYPE-DEF B GES AMEND_PHASE_DESCRIPTION @ MAGNETIC -1 0.4 !
 FUNCTION ZERO      298.15  0;                                         6000 N !
 FUNCTION UN_ASS    298.15  0;                                         6000 N !
 FUNCTION R         298.15  +8.31451;                                  6000 N !
$ ------------------------------------------------------------------------------
$ Element data
$ ------------------------------------------------------------------------------
$ Mo
$
 PAR  G(BCC_A2,MO:VA),,                 +GHSERMO;                5000 N 91Din !
 PAR  G(FCC_A1,MO:VA),,                 +GHSERMO+15200+0.63*T;   5000 N 91Din !
 PAR  G(HCP_A3,MO:VA),,                 +GHSERMO+11550;          5000 N 91Din !
 PAR  G(LIQUID,MO),,                    +GLIQMO;                 5000 N 91Din !
$
 FUNCTION GHSERMO   298.15  -7746.302+131.9197*T-23.56414*T*LN(T)
       -0.003443396*T**2+5.66283E-07*T**3+65812*T**(-1)-1.30927E-10*T**4;
      2896.00  Y  -30556.41+283.559746*T-42.63829*T*LN(T)-4.849315E+33*T**(-9);
      5000.00  N !
 FUNCTION GLIQMO    298.15  +41831.347-14.694912*T+GHSERMO+4.24519E-22*T**7;
      2896.00  Y  +3538.963+271.6697*T-42.63829*T*LN(T);
      5000.00  N !
 FUNCTION GFCCMO    298.15  +GHSERMO+15200+0.63*T;                     6000 N !
$ ------------------------------------------------------------------------------
$ Th
$
$ FCC_A1, BCC_A2 and LIQUID modified in unary 4.4
$
 PAR  G(FCC_A1,TH:VA),,                 +GHSERTH;                4000 N 01SGUN !
 PAR  G(BCC_A2,TH:VA),,                 +GBCCTH;                 4000 N 01SGUN !
 PAR  G(LIQUID,TH),,                    +GLIQTH;                 4000 N 01SGUN !
$
 FUNCTION GHSERTH   298.15  -7732.08+116.273975*T-24.841*T*LN(T)
       -0.00236725*T**2-5.2883E-07*T**3+13010*T**(-1);
      1633.00  Y  -37352.871+236.906118*T-39.107*T*LN(T)
       -0.00358025*T**2+2.36893E-07*T**3+7981000*T**(-1);
      2900.00  Y  -33353.313+283.231045*T-46.024*T*LN(T);
      4000.00  N !
 FUNCTION GBCCTH    298.15  -2321.06+133.531195*T-28.244*T*LN(T)
       +4.3775E-04*T**2-5.3048E-07*T**3+91190*T**(-1);
      1633.00  Y  -115978.348+800.909049*T-116.453*T*LN(T)
       +0.03098*T**2-2.536883E-06*T**3+27512600*T**(-1);
      2023.00  Y  -33602.796+208.774709*T-35.813*T*LN(T)
       -0.00346655*T**2+1.66067E-07*T**3+11876950*T**(-1);
      3600.00  Y  -980.302-0.049551*T+GHSERTH;
      4000.00  N !
 FUNCTION GLIQTH    298.15  +5031.109+110.886346*T-24.987*T*LN(T)
       -0.00168345*T**2-9.09067E-07*T**3+10865*T**(-1);
      1499.80  Y  -15602.847+127.657716*T-24.03*T*LN(T)
       -0.0136421*T**2+1.210117E-06*T**3+7111100*T**(-1);
      2014.50  Y  -17273.382+275.001274*T-46.024*T*LN(T);
      4000.00  N !
$ ------------------------------------------------------------------------------
$ Binary system
$
$ C.P. Wang, Y.F. Li, X.J. Liu, K. Ishida, J. Alloys Compd., 458, 208-13(2008).
$
$ Checked against paper. Checked at 6000 K.
$
 PAR  L(LIQUID,MO,TH;0),,               +22800-2*T;,,                 N 08Wan !
 PAR  L(LIQUID,MO,TH;1),,               +13500;,,                     N 08Wan !
 PAR  L(LIQUID,MO,TH;2),,               -10500+4*T;,,                 N 08Wan !
$
 PAR  L(FCC_A1,MO,TH:VA;0),,            +48000;,,                     N 08Wan !
 PAR  L(FCC_A1,MO,TH:VA;1),,            -5000;,,                      N 08Wan !
 PAR  L(FCC_A1,MO,TH:VA;2),,            -12000;,,                     N 08Wan !
$
 PAR  L(BCC_A2,MO,TH:VA;0),,            +45000+2*T;,,                 N 08Wan !
 PAR  L(BCC_A2,MO,TH:VA;1),,            -6500+8*T;,,                  N 08Wan !
 PAR  L(BCC_A2,MO,TH:VA;2),,            +10000+4*T;,,                 N 08Wan !
$ ------------------------------------------------------------------------------
$
$
 LIST-OF-REFERENCE
 NUMBER  SOURCE
  Null   'Unknown source'
  Same   'Same or similar interaction as in the corresponding stable phase'
  91Din  'A.T. Dinsdale, Calphad, 15, 317-425(1991).'
  01SGUN 'SGTE unary database V.4.4, 2001.'
  08Wan  'C.P. Wang, Y.F. Li, X.J. Liu, K. Ishida,
          J. Alloys Compd., 458, 208-13(2008); Mo-Th'
!
