$
$ Database for Nd-Ti from N. Mattern et al. 2014.
$
$ N. Mattern, Y. Yokoyama, A. Mizuno, J.H. Han, O. Fabrichnaya, T. Harada,
$ S. Kohara, J. Eckert, Calphad, 47, 136-43(2014).
$
$ Dataset created 2018.12.24 by Bengt Hallstedt.
$ 2021.02.02: Modified for use with GES6.
$
$ ------------------------------------------------------------------------------
 TEMP-LIM 298.15 6000.00 !
$
$ELEMENT NAME  REF. STATE               ATOMIC MASS H298-H0    S298    !
$
 ELEMENT VA   VACUUM                      0.0          0.0      0.0    ! 
 ELEMENT ND   DHCP                      144.24      7133.72    71.0862 ! 
 ELEMENT TI   HCP_A3                     47.88      4824.      30.72   ! 
$ ------------------------------------------------------------------------------
$ Phase definitions
$
 PHASE LIQUID:L % 1 1 !
 CONST LIQUID:L : ND TI : !
$
$ Fcc (cF4, Fm-3m) and MeX (cF8, Fm-3m)
$
 PHASE FCC_A1 %A 2 1 1 !
 CONST FCC_A1 : ND TI : VA : !
$
$ Bcc (cI2, Im-3m)
$
 PHASE BCC_A2 %B 2 1 3 !
 CONST BCC_A2 : ND TI : VA : !
$
$ Hcp (hP2, P6_3/mmc) and Me2X (NiAs-type, hP4, P6_3/mmc, B8_1)
$
 PHASE HCP_A3 %A 2 1 0.5 !
 CONST HCP_A3 : ND TI% : VA : !
$
$ Prototype alpha-La (SB A3', hP4, P6_3/mmc)
$
 PHASE DHCP % 1 1 !
 CONST DHCP : ND% TI : !
$ ------------------------------------------------------------------------------
$ Defaults
$
 DEFINE-SYSTEM-DEFAULT ELEMENT 2 !
 DEFAULT-COM DEFINE_SYSTEM_ELEMENT VA !
 TYPE-DEF % SEQ * !
 TYPE-DEF A GES AMEND_PHASE_DESCRIPTION @ MAGNETIC -3 0.28 !
 TYPE-DEF B GES AMEND_PHASE_DESCRIPTION @ MAGNETIC -1 0.4 !
 FUNCTION ZERO      298.15  0;                                         6000 N !
 FUNCTION UN_ASS    298.15  0;                                         6000 N !
 FUNCTION R         298.15  +8.31451;                                  6000 N !
$ ------------------------------------------------------------------------------
$ Element data
$ ------------------------------------------------------------------------------
$ Nd
$
$ DHCP and LIQUID modified in unary 3.0 (upper/lower T interval added)
$ FCC_A1 added in unary 3.0
$ HCP_A3 added in unary 4.4
$
 PAR  G(DHCP,ND),,                      +GHSERND;                1800 N 91Din !
 PAR  G(BCC_A2,ND:VA),,                 +GBCCND;                 1800 N 91Din !
 PAR  G(FCC_A1,ND:VA),,                 +GHSERND+500;            1800 N SGCOST !
 PAR  G(HCP_A3,ND:VA),,                 +GHSERND
             +1500-0.415725*T;                                   1800 N 00Nor2 !
 PAR  G(LIQUID,ND),,                    +GLIQND;                 1800 N 91Din !
$
 FUNCTION GHSERND   298.15  -8402.93+111.10239*T-27.0858*T*LN(T)
       +5.56125E-04*T**2-2.6923E-06*T**3+34887*T**(-1);
       900.00  Y  -6984.083+83.662617*T-22.7536*T*LN(T)
       -0.00420402*T**2-1.802E-06*T**3;
      1128.00  Y  -225610.846+1673.04075*T-238.182873*T*LN(T)
       +0.078615997*T**2-6.048207E-06*T**3+38810350*T**(-1);
      1799.00  Y  -25742.331+276.257088*T-48.7854*T*LN(T);
      1800.00  N !
 FUNCTION GBCCND    298.15  +1437.295-0.546281*T+GHSERND;
       400.00  Y  +7312.2-153.033976*T+14.9956777*T*LN(T)
       -0.050479*T**2+7.287217E-06*T**3-831810*T**(-1);
      1128.00  Y  -18030.266+239.677322*T-44.5596*T*LN(T);
      1289.00  Y  +334513.017-2363.9199*T+311.409193*T*LN(T)
       -0.156030778*T**2+1.2408421E-05*T**3-64319604*T**(-1);
      1800.00  N !
 FUNCTION GLIQND    298.15  +5051.743-1.585076*T+GHSERND;
       300.00  Y  +5350.01-86.593963*T+5.357301*T*LN(T)
       -0.046955463*T**2+6.860782E-06*T**3-374380*T**(-1);
      1128.00  Y  -16335.232+268.625903*T-48.7854*T*LN(T);
      1799.00  Y  +9407.099-7.631185*T+GHSERND;
      1800.00  N !
$ ------------------------------------------------------------------------------
$ Ti
$
$ BCT_A5 added in unary 3.0
$
$ DHCP from 14Mat and 16Mat not included in unary
$
 PAR  G(HCP_A3,TI:VA),,                 +GHSERTI;                4000 N 91Din !
 PAR  G(BCC_A2,TI:VA),,                 +GBCCTI;                 4000 N 91Din !
 PAR  G(FCC_A1,TI:VA),,                 +GHSERTI+6000-0.1*T;     4000 N 91Din !
 PAR  G(DHCP,TI),,                      +GHSERTI+1000;           4000 N 14Mat !
$PAR  G(DHCP,TI),,                      +GHSERTI+3670;           4000 N 16Mat !
$PAR  G(CBCC_A12,TI:VA),,               +GHSERTI+4602.2;         4000 N 91Din !
$PAR  G(CUB_A13,TI:VA),,                +GHSERTI+7531.2;         4000 N 91Din !
$PAR  G(DIAMOND_A4,TI),,                +GHSERTI+25000;          4000 N 91Din !
$PAR  G(BCT_A5,TI),,                    +GHSERTI+4602.2;         3000 N SGCOST !
 PAR  G(LIQUID,TI),,                    +GLIQTI;                 4000 N 91Din !
$
 FUNCTION GHSERTI   298.15  -8059.921+133.615208*T-23.9933*T*LN(T)
       -0.004777975*T**2+1.06716E-07*T**3+72636*T**(-1);
       900.00  Y  -7811.815+132.988068*T-23.9887*T*LN(T)
       -0.0042033*T**2-9.0876E-08*T**3+42680*T**(-1);
      1155.00  Y  +908.837+66.976538*T-14.9466*T*LN(T)
       -0.0081465*T**2+2.02715E-07*T**3-1477660*T**(-1);
      1941.00  Y  -124526.786+638.806871*T-87.2182461*T*LN(T)
       +0.008204849*T**2-3.04747E-07*T**3+36699805*T**(-1);
      4000.00  N !
 FUNCTION GBCCTI    298.15  -1272.064+134.71418*T-25.5768*T*LN(T)
       -6.63845E-04*T**2-2.78803E-07*T**3+7208*T**(-1);
      1155.00  Y  +6667.385+105.366379*T-22.3771*T*LN(T)
       +0.00121707*T**2-8.4534E-07*T**3-2002750*T**(-1);
      1941.00  Y  +26483.26-182.426471*T+19.0900905*T*LN(T)
       -0.02200832*T**2+1.228863E-06*T**3+1400501*T**(-1);
      4000.00  N !
 FUNCTION GLIQTI    298.15  +12194.415-6.980938*T+GHSERTI;
      1300.00  Y  +369519.198-2554.0225*T+342.059267*T*LN(T)
       -0.163409355*T**2+1.2457117E-05*T**3-67034516*T**(-1);
      1941.00  Y  -19887.066+298.7367*T-46.29*T*LN(T);
      4000.00  N !
$ ------------------------------------------------------------------------------
$ Binary system
$
$ N. Mattern, Y. Yokoyama, A. Mizuno, J.H. Han, O. Fabrichnaya, T. Harada,
$ S. Kohara, J. Eckert, Calphad, 47, 136-43(2014).
$
$ Checked against paper and author's tdb. Checked at 6000 K.
$
 PAR  L(LIQUID,ND,TI;0),,               +97687.38-29.51124*T;,,       N 14Mat !
 PAR  L(LIQUID,ND,TI;1),,               -1439.56;,,                   N 14Mat !
$
 PAR  L(BCC_A2,ND,TI:VA;0),,            +60551.77+10.678*T;,,         N 14Mat !
 PAR  L(BCC_A2,ND,TI:VA;1),,            -3891.4;,,                    N 14Mat !
$
 PAR  L(HCP_A3,ND,TI:VA;0),,            +33238.18+20.15756*T;,,       N 14Mat !
 PAR  L(HCP_A3,ND,TI:VA;1),,            +2415.88;,,                   N 14Mat !
$
 PAR  L(DHCP,ND,TI;0),,                 +73871.93;,,                  N 14Mat !
$
$ Metastable
$
 PAR  L(FCC_A1,ND,TI:VA;0),,            +33238.18+20.15756*T;,,       N Same !
 PAR  L(FCC_A1,ND,TI:VA;1),,            +2415.88;,,                   N Same !
$ ------------------------------------------------------------------------------
$
$
 LIST-OF-REFERENCE
 NUMBER  SOURCE
  Null   'Unknown source'
  Same   'Same or similar interaction as in the corresponding stable phase'
  REFLAV 'Laves phase convention: G(LAVES,X:X)=+3*GHSERXX+15000'
  SGCOST 'COST 507 database, SGTE unary database V.3.0, 1996; Al, B, Nd, Ti, Zn'
  91Din  'A.T. Dinsdale, Calphad, 15, 317-425(1991).'
  00Nor2 'S. Norgren, PhD Thesis, KTH, Stockholm, 2000; Nd, Sc'
  14Mat  'N. Mattern, Y. Yokoyama, A. Mizuno, J.H. Han, O. Fabrichnaya,
          T. Harada, S. Kohara, J. Eckert, Calphad, 47, 136-43(2014); Ti, Nd-Ti'
  16Mat  'N. Mattern, Y. Yokoyama, A. Mizuno, J.H. Han, O. Fabrichnaya,
          M. Richter, S. Kohara, Calphad, 52, 8-20(2016); La, Ti, Zr'
!
