$
$ Database for In-S from C. Shi et al. 2021.
$
$ C. Shi, N. Li, W. Zhang, Int. J. Mater. Res., 112, 373-83(2021).
$
$ Dataset created 2022.11.26 by Bengt Hallstedt.
$
$ Associate liquid with In2S3 associates.
$
$ ------------------------------------------------------------------------------
 TEMP-LIM 298.15 6000.00 !
$
$ELEMENT NAME  REF. STATE               ATOMIC MASS H298-H0    S298    !
$
 ELEMENT VA   VACUUM                      0.0          0.0      0.0    ! 
 ELEMENT IN   TETRAGONAL_A6             114.82      6610.0     57.65   ! 
 ELEMENT S    ORTHORHOMBIC_A16           32.06      4412.0     32.07   ! 
$ ------------------------------------------------------------------------------
$ Species
$
 SPECIE  IN2S3                              IN2S3 !
$ ------------------------------------------------------------------------------
$ Phase definitions
$
 PHASE LIQUID:L % 1 1 !
 CONST LIQUID:L : IN IN2S3 S : !
$
$ Fcc (cF4, Fm-3m) and MeX (cF8, Fm-3m)
$
 PHASE FCC_A1 %A 2 1 1 !
 CONST FCC_A1 : IN S : VA : !
$
$ Bcc (cI2, Im-3m)
$
 PHASE BCC_A2 %B 2 1 3 !
 CONST BCC_A2 : IN S : VA : !
$
$ Hcp (hP2, P6_3/mmc) and Me2X (NiAs-type, hP4, P6_3/mmc, B8_1)
$
 PHASE HCP_A3 %A 2 1 0.5 !
 CONST HCP_A3 : IN : VA: !
$
$ Prototype In (tI2, I4/mmm)
$
 PHASE TETRAGONAL_A6 % 1 1 !
 CONST TETRAGONAL_A6 : IN : !
$
$ Prototype alpha-S (oF128, Fddd)
$
 PHASE ORTHORHOMBIC_A16 % 1 1 !
 CONST ORTHORHOMBIC_A16 : S : !
$
$ Prototype beta-S (mP48, P2_1/a)
$
 PHASE MONOCLINIC_S % 1 1 !
 CONST MONOCLINIC_S : S : !
$
$ Prototype InS (oP8, Pnnm)
$
 PHASE INS_ALPHA % 2 1 1 !
 CONST INS_ALPHA : IN : S : !
$
$ unknown structure
$
 PHASE INS_BETA % 2 1 1 !
 CONST INS_BETA : IN : S : !
$
$ Prototype In6S7 (mP26, P2_1/m)
$
 PHASE IN6S7 % 2 6 7 !
 CONST IN6S7 : IN : S : !
$
$ Prototype In2S3 (tI80, I4_1/amd)
$
 PHASE IN2S3_ALPHA % 3 1 2 4 !
 CONST IN2S3_ALPHA : IN VA : IN : S : !
$
$ Prototype Al2MgO4 (cF56, Fd-3m)
$
 PHASE IN2S3_H11 % 3 1 2 4 !
 CONST IN2S3_H11 : IN VA : IN : S : !
$
$ Prototype (In,As)2S3 (hP7, P-3m1)
$
 PHASE IN2S3_GAMMA % 3 1 2 4 !
 CONST IN2S3_GAMMA : IN VA : IN : S : !
$ ------------------------------------------------------------------------------
$ Defaults
$
 DEFINE-SYSTEM-DEFAULT ELEMENT 2 !
 DEFAULT-COM DEFINE_SYSTEM_ELEMENT VA !
 TYPE-DEF % SEQ * !
 TYPE-DEF A GES AMEND_PHASE_DESCRIPTION @ MAGNETIC -3 0.28 !
 TYPE-DEF B GES AMEND_PHASE_DESCRIPTION @ MAGNETIC -1 0.4 !
 FUNCTION ZERO      298.15  0;                                         6000 N !
 FUNCTION UN_ASS    298.15  0;                                         6000 N !
 FUNCTION R         298.15  +8.31451;                                  6000 N !
$ ------------------------------------------------------------------------------
$ Element data
$ ------------------------------------------------------------------------------
$ In
$
$ FCC_A1 and TET_ALPHA1 revised in unary 4.1
$ BCT_A5 and RHOMBOHEDRAL_A7 added in unary 4.1
$ TET_ALPHA1 revised in unary 5.0 (using the value from 99Ans)
$ DHCP added in unary 5.0
$
$ There is quite a bit of confusion about TET_ALPHA1_A6. The structure is
$ the same as In (TETRAGONAL_A6), but with a different (presumably) c/a ratio.
$ TET_ALPHA1_A6 is present in Bi-In, In-Pb and In-Sn (possibly more). Between
$ the TETRAGONAL_A6 (In-ss) and TET_ALPHA1_A6 there is a narrow two-phase
$ region. In each system a different G(TET_ALPHA1_A6,IN) lattice stability
$ was used.
$ In 91Din a value from an unpublished revision of the Bi-In system by
$ P.-Y. Chevalier 1990 is included. In SGTE Unary V 4.4 a value from 98Boa
$ for the In-Pb system is included. 98Boa treated the TET_ALPHA1_A6
$ phase in Bi-In and In-Pb as two different phases and used the lattice
$ stability from 88Che0 for the Bi-In branch of this phase. Finally, SGTE
$ unary V 5.0 uses a value from an unpublished evaluation by 99Ans of the
$ In-Sn system. Due to the close proximity of the TETRAGONAL_A6 and
$ TET_ALPHA1_A6 phases in these systems, any change of lattice stability
$ will cause a distortion of the phase diagram and require reoptimisation.
$
$ The DHCP phase is labelled D0_24 in 03Liu and alpha-prime in 92Ans. The
$ phase is present between the fcc and hcp phases in the Au-Sn and Au-In
$ systems.
$
 PAR  G(TETRAGONAL_A6,IN),,             +GHSERIN;                3800 N 91Din !
 PAR  G(FCC_A1,IN:VA),,                 +GHSERIN+162.061;        3800 N 98Boa !
$PAR  G(FCC_A1,IN:VA),,                 +GHSERIN+123-0.1988*T;   3800 N 91Din !
 PAR  G(BCC_A2,IN:VA),,                 +GHSERIN+800-0.8*T;      3800 N 91Din !
 PAR  G(HCP_A3,IN:VA),,                 +GHSERIN+533-0.6868*T;   3800 N 91Din !
$PAR  G(DHCP,IN),,                      +GHSERIN+520-0.384*T;    3800 N 92Ans !
$PAR  G(TET_ALPHA1_A6,IN),,             +GHSERIN+123-0.1988*T;   3800 N 99Ans !
$PAR  G(TET_ALPHA1_A6,IN),,             +GHSERIN+0.31*T;         3800 N 98Boa !
$PAR  G(TET_ALPHA1_A6,IN),,             +GHSERIN+193-0.16479*T;  3800 N 91Din !
$PAR  G(TET_ALPHA1_A6,IN),,             +GHSERIN-33+0.16*T;      3800 N 88Che0 !
$PAR  G(BCT_A5,IN),,                    +GHSERIN
$            +5040.87-3.33969*T;                                 3800 N 99Ans !
$PAR  G(RHOMBOHEDRAL_A7,IN),,           +GHSERIN+4184;           3800 N 88Che0 !
 PAR  G(LIQUID,IN),,                    +GLIQIN;                 3800 N 91Din !
$
 FUNCTION GHSERIN   298.15  -6978.89+92.338115*T-21.8386*T*LN(T)
       -0.00572566*T**2-2.120321E-06*T**3-22906*T**(-1);
       429.75  Y  -7033.516+124.476588*T-27.4562*T*LN(T)
       +5.4607E-04*T**2-8.367E-08*T**3-211708*T**(-1)+3.53116E+22*T**(-9);
      3800.00  N !
 FUNCTION GLIQIN    298.15  +3282.092-7.63686*T+GHSERIN-5.59058E-20*T**7;
       429.75  Y  +3283.706-7.640804*T+GHSERIN-3.53116E+22*T**(-9);
      3800.00  N !
$ ------------------------------------------------------------------------------
$ S
$
$ FCC_A1 and BCC_A2 revised in unary 3.0
$ ORTHORHOMBIC_A16 and LIQUID modified in unary 4.1
$ MONOCLINIC revised in unary 4.1
$ ORTHORHOMBIC_A16 and LIQUID revised in unary 4.4
$
 PAR  G(ORTHORHOMBIC_A16,S),,           +GHSERSS;                1300 N 01SGUN !
 PAR  G(MONOCLINIC_S,S),,               +GMONSS;                 1300 N 01SGUN !
 PAR  G(FCC_A1,S:VA),,                  +GHSERSS+105000;         1300 N Sundm !
$PAR  G(FCC_A1,S:VA),,                  +GHSERSS+30000+32*T;     1300 N 91Din !
 PAR  G(BCC_A2,S:VA),,                  +GHSERSS+105000;         1300 N Sundm !
$PAR  G(BCC_A2,S:VA),,                  +GHSERSS+31000+32*T;     1300 N 91Din !
 PAR  G(LIQUID,S),,                     +GLIQSS;                 1300 N 01SGUN !
$
 FUNCTION GHSERSS   298.15  -5198.294+53.913855*T-10.726*T*LN(T)
       -0.0273801*T**2+8.179537E-6*T**3; 
       368.30  Y  -6475.706+94.182332*T-17.8693298*T*LN(T)
       -0.010936877*T**2+1.406467E-6*T**3+36871*T**(-1); 
      1300.00  Y  -12485.546+188.304687*T-32*T*LN(T); 
      1301.00  N !
 FUNCTION GMONSS    298.15  -5725.422+89.544275*T-17.413*T*LN(T)
       -0.00993935*T**2-0.070062E-6*T**3+1250*T**(-1); 
       388.36  Y  -7455.008+114.782945*T-21.1531404*T*LN(T)
       -0.008566163*T**2+1.112484E-6*T**3+122167*T**(-1); 
      1300.00  Y  -11779.415+186.699065*T-32*T*LN(T); 
      1301.00  N !
 FUNCTION GLIQSS    298.15  -4196.575+85.63027*T-17.413*T*LN(T)
       -0.00993935*T**2-0.070062E-6*T**3+1250*T**(-1); 
       335.00  Y  1790361.982-44195.451432*T+7511.6194258*T*LN(T)
       -13.985517511*T**2+4838.738601E-6*T**3-79880891*T**(-1); 
       388.36  Y  -876313.954+23366.872986*T-4028.756*T*LN(T)
       +7.954595*T**2-2908.513333E-6*T**3+33980035*T**(-1); 
       432.25  Y  454088.687-7814.670231*T+1237.001*T*LN(T)
       -1.5607295*T**2+359.883667E-6*T**3-31765395*T**(-1); 
       500.00  Y  18554.561-144.895285*T+16.535*T*LN(T)
       -0.0454119*T**2+8.327402E-6*T**3-2705030*T**(-1); 
       700.00  Y  21243.126-113.298877*T+9.944*T*LN(T)
       -0.0288384*T**2+3.791365E-6*T**3-3507570*T**(-1); 
       900.00  Y  16117.849-32.79523*T-2.425*T*LN(T)
       -0.01712545*T**2+1.84974E-6*T**3-3215170*T**(-1); 
      1300.00  Y  -6461.814+175.590536*T-32*T*LN(T); 
      1301.00  N !
$ ------------------------------------------------------------------------------
$ Binary system
$
$ C. Shi, N. Li, W. Zhang, Int. J. Mater. Res., 112, 373-83(2021).
$
$ Checked against paper and author's tdb. Checked at 6000 K.
$
$ Associate liquid with In2S3 associates.
$
 PAR  G(LIQUID,IN2S3),,                 +2*GHSERIN+3*GHSERSS
             -213001.18-102.22*T;,,                                   N 21Shi !
 PAR  L(LIQUID,IN,IN2S3;0),,            -62512.39-71.57*T;,,          N 21Shi !
 PAR  L(LIQUID,IN,IN2S3;1),,            +72942.86;,,                  N 21Shi !
 PAR  L(LIQUID,IN,IN2S3;2),,            +35723.65-32.2*T;,,           N 21Shi !
 PAR  L(LIQUID,IN2S3,S;0),,             +100159.88-150.94*T;,,        N 21Shi !
 PAR  L(LIQUID,IN2S3,S;1),,             -35000.99;,,                  N 21Shi !
$
 PAR  G(INS_ALPHA,IN:S),,               +GHSERIN+GHSERSS
             -129012.9-2.414*T;,,                                     N 21Shi !
 PAR  G(INS_BETA,IN:S),,                +GHSERIN+GHSERSS
             -127097.25-4.46*T;,,                                     N 21Shi !
 PAR  G(IN6S7,IN:S),,                   +6*GHSERIN+7*GHSERSS
             -875962.5-34.092*T;,,                                    N 21Shi !
$
 PAR  G(IN2S3_ALPHA,IN:IN:S),,          +3*GHSERIN+4*GHSERSS
             -446711.34-26.67*T;,,                                    N 21Shi !
 PAR  G(IN2S3_ALPHA,VA:IN:S),,          +2*GHSERIN+4*GHSERSS
             -224372.99+66.82*T;,,                                    N 21Shi !
 PAR  L(IN2S3_ALPHA,IN,VA:IN:S;0),,     -386666.67-53.33*T;,,         N 21Shi !
$
 PAR  G(IN2S3_H11,IN:IN:S),,            +3*GHSERIN+4*GHSERSS
             -482776.45-12*T;,,                                       N 21Shi !
 PAR  G(IN2S3_H11,VA:IN:S),,            +2*GHSERIN+4*GHSERSS
             -211680.14-30.17*T;,,                                    N 21Shi !
 PAR  L(IN2S3_H11,IN,VA:IN:S;0),,       -263031.63-5.01*T;,,          N 21Shi !
$
 PAR  G(IN2S3_GAMMA,IN:IN:S),,          +3*GHSERIN+4*GHSERSS
             -326353.97-126.13*T;,,                                   N 21Shi !
 PAR  G(IN2S3_GAMMA,VA:IN:S),,          +2*GHSERIN+4*GHSERSS
             -158909.59-67.92*T;,,                                    N 21Shi !
 PAR  L(IN2S3_GAMMA,IN,VA:IN:S;0),,     -352000-40*T;,,               N 21Shi !
$ ------------------------------------------------------------------------------
$
$
 LIST-OF-REFERENCE
 NUMBER  SOURCE
  Null   'Unknown source'
  Same   'Same or similar interaction as in the corresponding stable phase'
  Sundm  'Bosse Sundman, unpublished, SGTE unary database V.3.0, 1996; S'
  COST   'COST 507 database'
  88Che0 'P.-Y Chevalier, Calphad, 12, 383-92(1988)
          SGTE unary database V.4.1, 1999; In'
  91Din  'A.T. Dinsdale, Calphad, 15, 317-425(1991).'
  92Ans  'I. Ansara, J.-Ph. Nabot, Calphad, 16, 13-18(1992),
          SGTE unary database V.5.0, 2009; In'
  98Boa  'D. Boa, I. Ansara, Thermochim. Acta, 314, 79-86(1998),
          SGTE unary database V.4.1, 1999; In, Pb'
  99Ans  'I. Ansara, S.G. Fries, H.L. Lukas, unpublished, 1999,
          SGTE unary database V.5.0, 2009; In, Sn'
  01SGUN 'SGTE unary database V.4.4, 2001.'
  21Shi  'C. Shi, N. Li, W. Zhang,
          Int. J. Mater. Res., 112, 373-83(2021); In-S'
!
