$
$ Database for Si-P from H. Dong et al. 2021.
$
$ H. Dong, X. Tao, M. Paulasto-Krockel, J. Electron. Mater., 50, 4272-88(2021).
$
$ Dataset created 2022.06.26 by Bengt Hallstedt.
$
$ Modified from 14Lia.
$
$ The gas phase is taken from SGSUB 1997.
$
$ ------------------------------------------------------------------------------
 TEMP-LIM 298.15 6000.00 !
$
$ELEMENT NAME  REF. STATE               ATOMIC MASS H298-H0    S298    !
$
 ELEMENT VA   VACUUM                      0.0          0.0      0.0    ! 
 ELEMENT P    WHITE_P                    30.97376   5360.0     41.09   ! 
 ELEMENT SI   DIAMOND_A4                 28.0855    3217.      18.81   ! 
$ ------------------------------------------------------------------------------
$ Species
$
 SPECIE  SI2                                SI2 !
 SPECIE  SI3                                SI3 !
 SPECIE  SIP                                SI1P1 !
 SPECIE  SIP2                               SI1P2 !
 SPECIE  SI2P                               SI2P1 !
 SPECIE  SI2P2                              SI2P2 !
 SPECIE  P2                                 P2 !
 SPECIE  P3                                 P3 !
 SPECIE  P4                                 P4 !
$ ------------------------------------------------------------------------------
$ Phase definitions
$
 PHASE LIQUID:L % 1 1 !
 CONST LIQUID:L : P SI : !
$
$ Fcc (cF4, Fm-3m) and MeX (cF8, Fm-3m)
$
 PHASE FCC_A1 %A 2 1 1 !
 CONST FCC_A1 : P SI : VA : !
$
$ Bcc (cI2, Im-3m)
$
 PHASE BCC_A2 %B 2 1 3 !
 CONST BCC_A2 : P SI : VA : !
$
$ Hcp (hP2, P6_3/mmc) and Me2X (NiAs-type, hP4, P6_3/mmc, B8_1)
$
 PHASE HCP_A3 %A 2 1 0.5 !
 CONST HCP_A3 : P SI : VA : !
$
$ Prototype C (cF8)
$
 PHASE DIAMOND_A4 % 1 1 !
 CONST DIAMOND_A4 : P SI% : !
$
$ Structure not well defined
$
 PHASE WHITE_P % 1 1 !
 CONST WHITE_P : P : !
$
$ Structure not well defined
$
 PHASE RED_P % 1 1 !
 CONST RED_P : P : !
$
$ Prototype SiP (oC48, Cmc2_1)
$
 PHASE SIP % 2 1 1 !
 CONST SIP : SI : P : !
$
$ Prototype GeAs2 (oP24, Pbam)
$
 PHASE SIP2 % 2 1 2 !
 CONST SIP2 : SI : P : !
$
 PHASE GAS:G % 1 1 !
 CONST GAS:G : SI SI2 SI3 P P2 P3 P4 SIP SIP2 SI2P SI2P2 : !
$ ------------------------------------------------------------------------------
$ Defaults
$
 DEFINE-SYSTEM-DEFAULT ELEMENT 2 !
 DEFAULT-COM DEFINE_SYSTEM_ELEMENT VA !
 TYPE-DEF % SEQ * !
 TYPE-DEF A GES AMEND_PHASE_DESCRIPTION @ MAGNETIC -3 0.28 !
 TYPE-DEF B GES AMEND_PHASE_DESCRIPTION @ MAGNETIC -1 0.4 !
 FUNCTION ZERO      298.15  0;                                         6000 N !
 FUNCTION UN_ASS    298.15  0;                                         6000 N !
 FUNCTION R         298.15  +8.31451;                                  6000 N !
 FUNCTION RTLNP     298.15  +8.31451*T*LN(1E-05*P);                    6000 N !
$ ------------------------------------------------------------------------------
$ Element data
$ ------------------------------------------------------------------------------
$ P
$
$ RHOMBOHEDRAL_A7 added in unary 4.4
$
$ DIAMOND_A4 from 04Din (used in SGSOL 5.0) not included in unary
$ DIAMOND_A4 from 14Lia and 21Don not included in unary
$
 PAR  G(WHITE_P,P)              250.00  +GHSERPP;                3000 N 91Din !
 PAR  G(RED_P,P)                250.00  +GREDPP;                 3000 N 91Din !
 PAR  G(FCC_A1,P:VA)            250.00  +GREDPP+36819-13.138*T;  3000 N 91Din !
 PAR  G(BCC_A2,P:VA)            250.00  +GREDPP+44768.8-13.26*T; 3000 N 91Din !
$PAR  G(DIAMOND_A4,P)           250.00  +GREDPP+15000;           3000 N 04Din !
$PAR  G(DIAMOND_A4,P)           250.00  +GHSERPP+30*T;           3000 N 14Lia !
 PAR  G(DIAMOND_A4,P)           250.00  +GHSERPP
             +43106.57+2.092*T;                                  3000 N 21Don !
$PAR  G(RHOMBOHEDRAL_A7,P)      250.00  +GHSERPP-188+0.12527*T;  3000 N 01SGUN !
 PAR  G(LIQUID,P)               250.00  +GLIQPP;                 3000 N 91Din !
$
 PAR  G(GAS,P),,                        +F14404T+RTLNP;,,             N 97SGT !
 PAR  G(GAS,P2),,                       +F14448T+RTLNP;,,             N 97SGT !
 PAR  G(GAS,P3),,                       +F14471T+RTLNP;,,             N 97SGT !
 PAR  G(GAS,P4),,                       +F14479T+RTLNP;,,             N 97SGT !
$
 FUNCTION GHSERPP   250.00  -43821.799+1026.69389*T-178.426*T*LN(T)
       +0.290708*T**2-1.04022667E-04*T**3+1632695*T**(-1);
       317.30  Y  -9587.448+152.341487*T-28.7335301*T*LN(T)
       +0.001715669*T**2-2.2829E-07*T**3+172966*T**(-1);
      1000.00  Y  -8093.075+135.876831*T-26.326*T*LN(T);
      3000.00  N !
 FUNCTION GREDPP    250.00  -25976.559+148.672002*T-25.55*T*LN(T)
       +0.0034121*T**2-2.418867E-06*T**3+160095*T**(-1);
       500.00  Y  -21723.721+77.671737*T-14.368*T*LN(T)
       -0.00957685*T**2+3.93917E-07*T**3-141375*T**(-1);
       852.35  Y  -119408.413+1026.02962*T-149.449556*T*LN(T)
       +0.067272364*T**2-6.651929E-06*T**3+12495943*T**(-1);
      1500.00  Y  -16431.044+17.96235*T+GHSERPP;
      3000.00  N !
 FUNCTION GLIQPP    250.00  -26316.111+434.930931*T-70.7440584*T*LN(T)
       -0.002898936*T**2+3.9049371E-05*T**3+1141147*T**(-1);
       317.30  Y  -7232.449+133.291873*T-26.326*T*LN(T);
      3000.00  N !
$ P(g)
 FUNCTION F14404T   298.15  +310152.015-21.3997112*T-21.18864*T*LN(T)
       +3.9907815E-04*T**2-6.467185E-08*T**3+9337.96*T**(-1);
      1900.00  Y  +332461.723-123.51155*T-8.27475*T*LN(T)
       -0.0025407355*T**2+2.77886167E-08*T**3-6752450*T**(-1);
      3900.00  Y  +295561.679-61.0229009*T-14.92054*T*LN(T)
       -0.002691344*T**2+7.37562667E-08*T**3+20828775*T**(-1);
      7000.00  Y  +105621.967+337.540131*T-60.52207*T*LN(T)
       +0.002171204*T**2-2.32968833E-08*T**3+1.6928265E+08*T**(-1);
     10000.00  N !
$ P2(g)
 FUNCTION F14448T   298.15  +133357.681+.182114942*T-32.02798*T*LN(T)
       -0.004670767*T**2+7.28558667E-07*T**3+106826.35*T**(-1);
       900.00  Y  +128832.659+49.3136341*T-39.23087*T*LN(T)
       +7.156115E-04*T**2-6.82824333E-08*T**3+666443.5*T**(-1);
      3500.00  Y  +164091.361-27.2592211*T-30.65569*T*LN(T)
       +3.4990285E-04*T**2-1.0132875E-07*T**3-21312200*T**(-1);
      6000.00  N !
$ P3(g)
 FUNCTION F14471T   298.15  +191023.012+115.134799*T-55.58992*T*LN(T)
       -0.00549647*T**2+8.37126667E-07*T**3+291982.3*T**(-1);
      1000.00  Y  +187367.887+160.095451*T-62.29736*T*LN(T)
       -1.1488665E-05*T**2+3.82699333E-10*T**3+671571.5*T**(-1);
      6000.00  N !
$ P4(g)
 FUNCTION F14479T   298.15  +31689.2272+246.976573*T-77.33235*T*LN(T)
       -0.0046207025*T**2+6.76817E-07*T**3+563393*T**(-1);
      1100.00  Y + 28520.4461+285.801742*T-83.11153*T*LN(T)
       -6.057165E-06*T**2+1.99865333E-10*T**3+890230*T**(-1);
      6000.00  N !
$ ------------------------------------------------------------------------------
$ Si
$
 PAR  G(DIAMOND_A4,SI),,                +GHSERSI;                3600 N 91Din !
 PAR  G(FCC_A1,SI:VA),,                 +GHSERSI+51000-21.8*T;   3600 N 91Din !
 PAR  G(BCC_A2,SI:VA),,                 +GHSERSI+47000-22.5*T;   3600 N 91Din !
 PAR  G(HCP_A3,SI:VA),,                 +GHSERSI+49200-20.8*T;   3600 N 91Din !
$PAR  G(CBCC_A12,SI:VA),,               +GHSERSI+50208-20.377*T; 3600 N 91Din !
$PAR  G(CUB_A13,SI:VA),,                +GHSERSI+47279-20.377*T; 3600 N 91Din !
 PAR  G(LIQUID,SI),,                    +GLIQSI;                 3600 N 91Din !
$
 PAR  G(GAS,SI),,                       +F15201T+RTLNP;,,             N 97SGT !
 PAR  G(GAS,SI2),,                      +F15232T+RTLNP;,,             N 97SGT !
 PAR  G(GAS,SI3),,                      +F15253T+RTLNP;,,             N 97SGT !
$
 FUNCTION GHSERSI   298.15  -8162.609+137.236859*T-22.8317533*T*LN(T)
       -0.001912904*T**2-3.552E-09*T**3+176667*T**(-1);
      1687.00  Y  -9457.642+167.281367*T-27.196*T*LN(T)-4.20369E+30*T**(-9);
      3600.00  N !
 FUNCTION GLIQSI    298.15  +50696.36-30.099439*T+GHSERSI+2.09307E-21*T**7;
      1687.00  Y  +40370.523+137.722298*T-27.196*T*LN(T);
      3600.00  N !
 FUNCTION GBCCSI    298.15  +GHSERSI+47000-22.5*T;               3600 N 91Din !
$ Si(g)
 FUNCTION F15201T   298.15  +444169.766-27.9507103*T-21.04097*T*LN(T)
       +3.7970425E-04*T**2-9.73407167E-08*T**3-61797.2*T**(-1);
      2000.00  Y  +437545.354-12.9504906*T-22.5648*T*LN(T)
       -2.428964E-04*T**2+1.1169705E-08*T**3+2760718.5*T**(-1);
      5500.00  Y  +405256.153+76.2660207*T-33.14557*T*LN(T)
       +0.0012877205*T**2-3.00107333E-08*T**3+21167395*T**(-1);
     10000.00  N !
$ Si2(g)
 FUNCTION F15232T   298.15  +572963.738+3.71111611*T-35.9832*T*LN(T)
       -9.4063E-04*T**2-4.840215E-08*T**3+12476.05*T**(-1);
      2600.00  Y  +609343.923-151.775041*T-16.36102*T*LN(T)
       -0.005711295*T**2+1.72754333E-07*T**3-12777080*T**(-1);
      6000.00  N !
$ Si3(g)
 FUNCTION F15253T   298.15  +611231.759+46.355823*T-46.87401*T*LN(T)
       -0.01734593*T**2+3.536315E-06*T**3+194880.6*T**(-1);
       700.00  Y  +604474.516+159.236355*T-64.54462*T*LN(T)
       +0.0019320005*T**2-2.38038667E-07*T**3+630559*T**(-1);
      2400.00  Y  +613241.601+78.626845*T-53.45528*T*LN(T)
       -0.0027577635*T**2+9.275105E-08*T**3+606517*T**(-1);
      6000.00  N !
$ ------------------------------------------------------------------------------
$ Binary system
$
$ H. Dong, X. Tao, M. Paulasto-Krockel, J. Electron. Mater., 50, 4272-88(2021).
$
$ Checked against paper. Checked at 6000 K.
$
$ Modified from 14Lia.
$
$ The gas phase is taken from SGSUB 1997.
$
 PAR  L(LIQUID,P,SI;0),,                -46554.9965+20.649*T;,,       N 21Don !
 PAR  L(LIQUID,P,SI;1),,                +4361.9054;,,                 N 21Don !
$
 PAR  L(DIAMOND_A4,P,SI;0),,            -85396.4302+51.02066*T;,,     N 21Don !
$
 PAR  G(SIP,SI:P),,                     -77110.5+228.49*T
             -38.34*T*LN(T)-0.00544*T**2+282500*T**(-1);,,            N 14Lia !
 PAR  G(SIP2,SI:P),,                    -100809+389.8*T
             -67*T*LN(T)-0.00855*T**2;,,                              N 14Lia !
$
 PAR  G(GAS,SIP),,                      +F14433T+RTLNP;,,             N 97SGT !
 PAR  G(GAS,SI2P),,                     +F14436T+RTLNP;,,             N 97SGT !
 PAR  G(GAS,SIP2),,                     +F14457T+RTLNP;,,             N 97SGT !
 PAR  G(GAS,SI2P2),,                    +F14461T+RTLNP;,,             N 97SGT !
$
$ SiP(g)
 FUNCTION F14433T   298.15  +408398.468-2.73496794*T-33.83454*T*LN(T)
       -0.003110553*T**2+5.05211E-07*T**3+112079.95*T**(-1);
      1000.00  Y  +408137.662+10.6413789*T-36.03905*T*LN(T)-3.805871E-04*T**2;
      1500.00  N !
$ Si2P(g)
 FUNCTION F14436T   298.15  +417920.543+85.8341548*T-51.81884*T*LN(T)
       -0.010116245*T**2+1.86090333E-06*T**3+218714.4*T**(-1);
       800.00  Y  +413210.407+152.370012*T-62.00855*T*LN(T)
       -1.2615825E-04*T**2+8.54686667E-09*T**3+640798.5*T**(-1);
      1500.00  N !
$ SiP2(g)
 FUNCTION F14457T   298.15  +252388.028+81.1933234*T-51.85482*T*LN(T)
       -0.01005384*T**2+1.84577167E-06*T**3+213591.1*T**(-1);
       800.00  Y  +247679.131+147.539337*T-62.01106*T*LN(T)
       -1.220544E-04*T**2+7.916755E-09*T**3+636905*T**(-1);
      2000.00  N !
$ Si2P2(g)
 FUNCTION F14461T   298.15  +436646.91+187.392021*T-74.16893*T*LN(T)
       -0.01268825*T**2+2.34465833E-06*T**3+276788.35*T**(-1);
       800.00  Y  +430448.051+273.804209*T-87.34184*T*LN(T)
       -1.0638405E-04*T**2+5.67704E-09*T**3+803911.5*T**(-1);
      1500.00  N !
$ ------------------------------------------------------------------------------
$
 ASSESSED_SYSTEM
  P-SI(TDB -* +LIQUID +GAS +DIAMOND +SIP +SIP2 +RED_P +WHITE_P 
  ;P3 TMM:300/2000 *) !
$
$
 LIST-OF-REFERENCE
 NUMBER  SOURCE
  Null   'Unknown source'
  Same   'Same or similar interaction as in the corresponding stable phase'
  REFLAV 'Laves phase convention: G(LAVES,X:X)=+3*GHSERXX+15000'
  91Din  'A.T. Dinsdale, Calphad, 15, 317-425(1991).'
  97SGT  'SGTE Substance Database, version 1997'
  01SGUN 'SGTE unary database V.4.4, 2001.'
  04Din  'A.T. Dinsdale, unpublished work, 2004; P, Si-P'
  14Lia  'S.-M. Liang, R. Schmid-Fetzer,
          J. Phase Equilib. Diffus., 35, 24-35(2014); P, Si-P'
  21Don  'H. Dong, X. Tao, M. Paulasto-Krockel,
          J. Electron. Mater., 50, 4272-88(2021); P, Si-P'
!
