$
$ Database for Ni-W from A. Fernandez Guillermet and L. Ostlund 1986
$ (included in LB Vol. 4)
$
$ A. Fernandez Guillermet, L. Ostlund, Metall. Trans. A, 17A, 1809-23(1986).
$
$ Dataset created 2010.02.19 by Bengt Hallstedt.
$ 2019.12.08: Modified for use with GES6.
$
$ Liquid, fcc and bcc parameters are from P. Gustafson et al. 1987.
$
$ There is a misprint in the NiW2 parameter in the original paper (86Fer).
$ This was corrected in 88Fer3, but the incorrect parameter is included
$ in LB and TCFE99. In LB NiW2 is stable up to 1337 K instead of 1300 K in
$ the paper(s).
$
$ NI4X_D1A is not stable below 401 K.
$
$ ------------------------------------------------------------------------------
 TEMP-LIM 298.15 6000.00 !
$
$ELEMENT NAME  REF. STATE               ATOMIC MASS H298-H0    S298    !
$
 ELEMENT VA   VACUUM                      0.0          0.0      0.0    ! 
 ELEMENT NI   FCC_A1                     58.69      4787.0     29.7955 ! 
 ELEMENT W    BCC_A2                    183.85      4970.0     32.6176 ! 
$ ------------------------------------------------------------------------------
$ Phase definitions
$
 PHASE LIQUID:L % 1 1 !
 CONST LIQUID:L : NI W : !
$
$ Fcc (cF4, Fm-3m) and MeX (cF8, Fm-3m)
$
 PHASE FCC_A1 %A 2 1 1 !
 CONST FCC_A1 : NI% W : VA : !
$
$ Bcc (cI2, Im-3m)
$
 PHASE BCC_A2 %B 2 1 3 !
 CONST BCC_A2 : NI W% : VA : !
$
$ Hcp (hP2, P6_3/mmc) and Me2X (NiAs-type, hP4, P6_3/mmc, B8_1)
$
 PHASE HCP_A3 %A 2 1 0.5 !
 CONST HCP_A3 : NI W : VA : !
$
$ Prototype MoNi4 (tI10, I4/m)
$
 PHASE NI4X_D1A % 2 4 1 !
 CONST NI4X_D1A : NI : W : !
$
$ Prototype MoNi (oP56, P2_12_12_1)
$
 PHASE NIW % 2 1 1 !
 CONST NIW : NI : W : !
$
$ Pearson tI96
$
 PHASE NIW2 % 2 1 2 !
 CONST NIW2 : NI : W : !
$ ------------------------------------------------------------------------------
$ Defaults
$
 DEFINE-SYSTEM-DEFAULT ELEMENT 2 !
 DEFAULT-COM DEFINE_SYSTEM_ELEMENT VA !
 TYPE-DEF % SEQ * !
 TYPE-DEF A GES AMEND_PHASE_DESCRIPTION @ MAGNETIC -3 0.28 !
 TYPE-DEF B GES AMEND_PHASE_DESCRIPTION @ MAGNETIC -1 0.4 !
 FUNCTION ZERO      298.15  0;                                         6000 N !
 FUNCTION UN_ASS    298.15  0;                                         6000 N !
 FUNCTION R         298.15  +8.31451;                                  6000 N !
$ ------------------------------------------------------------------------------
$ Element data
$ ------------------------------------------------------------------------------
$ Ni
$
$ FCC_A1 and LIQUID modified in unary 5.0 (slight change in upper T interval)
$ BCT_A5 added in unary 5.0
$
 PAR  G(FCC_A1,NI:VA),,                 +GHSERNI;                3000 N 91Din !
 PAR  TC(FCC_A1,NI:VA),,                  633.00;                3000 N 91Din !
 PAR  BM(FCC_A1,NI:VA),,                    0.52;                3000 N 91Din !
 PAR  G(BCC_A2,NI:VA),,                 +GHSERNI
             +8715.084-3.556*T;                                  3000 N 91Din !
 PAR  TC(BCC_A2,NI:VA),,                  575.00;                3000 N 91Din !
 PAR  BM(BCC_A2,NI:VA),,                    0.85;                3000 N 91Din !
 PAR  G(HCP_A3,NI:VA),,                 +GHSERNI+1046+1.255*T;   3000 N 91Din !
 PAR  TC(HCP_A3,NI:VA),,                  633.00;                3000 N 91Din !
 PAR  BM(HCP_A3,NI:VA),,                    0.52;                3000 N 91Din !
$PAR  G(BCT_A5,NI),,                    +GHSERNI+10023-4.556*T;  3000 N 99Gho !
$PAR  G(CBCC_A12,NI:VA),,               +GHSERNI+3556;           3000 N 91Din !
$PAR  G(CUB_A13,NI:VA),,                +GHSERNI+2092;           3000 N 91Din !
 PAR  G(LIQUID,NI),,                    +GLIQNI;                 3000 N 91Din !
$
 FUNCTION GHSERNI   298.15  -5179.159+117.854*T-22.096*T*LN(T)-0.0048407*T**2;
      1728.00  Y  -27840.62+279.134977*T-43.1*T*LN(T)+1.12754E+31*T**(-9);
      3000.00  N !
 FUNCTION GLIQNI    298.15  +16414.686-9.397*T+GHSERNI-3.82318E-21*T**7;
      1728.00  Y  -9549.817+268.597977*T-43.1*T*LN(T);
      3000.00  N !
 FUNCTION GBCCNI    298.15  +GHSERNI+8715.084-3.556*T;                 6000 N !
$ ------------------------------------------------------------------------------
$ W
$
 PAR  G(BCC_A2,W:VA),,                  +GHSERWW;,,                   N 91Din !
 PAR  G(FCC_A1,W:VA),,                  +GHSERWW+19300+0.63*T;,,      N 91Din !
 PAR  G(HCP_A3,W:VA),,                  +GHSERWW+14750;,,             N 91Din !
 PAR  G(LIQUID,W),,                     +GLIQWW;,,                    N 91Din !
$
 FUNCTION GHSERWW   298.15  -7646.311+130.4*T-24.1*T*LN(T)
       -0.001936*T**2+2.07E-07*T**3+44500*T**(-1)-5.33E-11*T**4;
      3695.00  Y  -82868.801+389.362335*T-54*T*LN(T)+1.528621E+33*T**(-9);
      6000.00  N !
 FUNCTION GLIQWW    298.15  +52160.584-14.10999*T+GHSERWW-2.713468E-24*T**7;
      3695.00  Y  -30436.051+375.175*T-54*T*LN(T);
      6000.00  N !
 FUNCTION GFCCWW    298.15  +GHSERWW+19300+0.63*T;                     6000 N !
$ ------------------------------------------------------------------------------
$ Binary system
$
$ From A. Fernandez Guillermet and L. Ostlund 1986 (included in LB Vol. 4)
$
$ A. Fernandez Guillermet, L. Ostlund, Metall. Trans. A, 17A, 1809-23(1986).
$
$ Liquid, fcc and bcc parameters are from P. Gustafson et al. 1987.
$
$ Checked against 86Fer, 88Fer3 and LB. Checked at 6000 K.
$
$ There is a misprint in the NiW2 parameter in the original paper (86Fer).
$ This was corrected in 88Fer3, but the incorrect parameter is included
$ in LB and TCFE99. In LB NiW2 is stable up to 1337 K instead of 1300 K in
$ the paper(s).
$
$ NI4X_D1A is not stable below 401 K.
$
 PAR  L(LIQUID,NI,W;0),,                +16290-10.25*T;,,             N 87Gus3 !
 PAR  L(LIQUID,NI,W;1),,                -22450;,,                     N 87Gus3 !
$
 PAR  L(FCC_A1,NI,W:VA;0),,             +2556+11.6*T;,,               N 87Gus3 !
 PAR  L(FCC_A1,NI,W:VA;1),,             -52900;,,                     N 87Gus3 !
$
 PAR  L(BCC_A2,NI,W:VA;0),,             +82000;,,                     N 87Gus3 !
$
 PAR  G(NI4X_D1A,NI:W),,                +4*GHSERNI+GHSERWW
             -12862-4.747*T;,,                                        N 86Fer !
$
 PAR  G(NIW,NI:W),,                     +GHSERNI+GHSERWW
             -8885.91+3*T;,,                                          N 86Fer !
$
 PAR  G(NIW2,NI:W),,                    +GHSERNI+2*GHSERWW
             -8888.28+3*T;,,                                          N 86Fer !
$ Original parameter from 86Fer below, also in LBall-v7+fun.tdb
$PAR  G(NIW2,NI:W),,                    +GHSERNI+2*GHSERWW
$            -8889.05+3*T;,,                                          N 86Fer !
$
$ Metastable
$
 PAR  L(HCP_A3,NI,W:VA;0),,             +2556+11.6*T;,,               N 88Fer3 !
 PAR  L(HCP_A3,NI,W:VA;1),,             -52900;,,                     N 88Fer3 !
$ ------------------------------------------------------------------------------
$
 ASSESSED_SYSTEM
  NI-W(TDB -* +LIQUID +FCC_A1 +BCC_A2 +NI4X_D1A +NIW +NIW2 ;G5 MAJ:FCC/NI:VA
  ;P3 TMM:300/4000 STP:0.4/2000 ) !
$
$
 LIST-OF-REFERENCE
 NUMBER  SOURCE
  Null   'Unknown source'
  NIST   'NIST-Ni0209 Database, Ursula Kattner, 2002'
  86Fer  'A. Fernandez Guillermet, L. Ostlund,
          Metall. Trans. A, 17A, 1809-23(1986); Ni-W, Fe-Ni-W'
  87Gus3 'P. Gustafson, A. Gabriel, I. Ansara,
          Z. Metallkd., 78, 151-156(1987); Ni-W'
  88Fer3 'A. Fernandez Guillermet, TRITA-MAC 373 (1988); Co-Ni-W'
  91Din  'A.T. Dinsdale, Calphad, 15, 317-425(1991).'
  99Gho  'G. Ghosh, Metall. Mater. Trans. A, 30A, 1481-94(1999),
          SGTE unary database V.5.0, 2009; Ni'
!
