$
$ Database for Be-Mo from K. Nakashima et al. 2007.
$
$ K. Nakashima, T. Tokunaga, H. Ohtani, M.Hasebe,
$ J. Japan Inst. Met., 71, 187-89(2007).
$
$ Dataset created 2018.04.02 by Bengt Hallstedt.
$ 2020.12.22: Modified for use with GES6.
$
$ ------------------------------------------------------------------------------
 TEMP-LIM 298.15 6000.00 !
$
$ELEMENT NAME  REF. STATE               ATOMIC MASS H298-H0    S298    !
$
 ELEMENT VA   VACUUM                      0.0          0.0      0.0    ! 
 ELEMENT BE   HCP_A3                      9.01218   1950.0      9.50   ! 
 ELEMENT MO   BCC_A2                     95.94      4589.0     28.56   ! 
$ ------------------------------------------------------------------------------
$ Phase definitions
$
 PHASE LIQUID:L % 1 1 !
 CONST LIQUID:L : BE MO : !
$
$ Fcc (cF4, Fm-3m) and MeX (cF8, Fm-3m)
$
 PHASE FCC_A1 %A 2 1 1 !
 CONST FCC_A1 : BE MO : VA : !
$
$ Bcc (cI2, Im-3m)
$
 PHASE BCC_A2 %B 2 1 3 !
 CONST BCC_A2 : BE MO : VA : !
$
$ Hcp (hP2, P6_3/mmc) and Me2X (NiAs-type, hP4, P6_3/mmc, B8_1)
$
 PHASE HCP_A3 %A 2 1 0.5 !
 CONST HCP_A3 : BE% MO : VA : !
$
$ Prototype Zn22Zr (cF184, Fd-3m)
$
 PHASE BE22MO % 2 22 1 !
 CONST BE22MO : BE : MO : !
$
$ Prototype Mn12Th (tI26, I4/mmm)
$
 PHASE BE12MO_D2B % 2 12 1 !
 CONST BE12MO_D2B : BE : MO : !
$
$ Prototype MgZn2 (hP12, P6_3/mmc)
$
 PHASE BE2MO_C14 % 2 2 1 !
 CONST BE2MO_C14 : BE : MO : !
$
$ Prototype Cr3Si (cP8, Pm-3n)
$
 PHASE BEMO3_A15 % 2 1 3 !
 CONST BEMO3_A15 : BE : MO : !
$ ------------------------------------------------------------------------------
$ Defaults
$
 DEFINE-SYSTEM-DEFAULT ELEMENT 2 !
 DEFAULT-COM DEFINE_SYSTEM_ELEMENT VA !
 TYPE-DEF % SEQ * !
 TYPE-DEF A GES AMEND_PHASE_DESCRIPTION @ MAGNETIC -3 0.28 !
 TYPE-DEF B GES AMEND_PHASE_DESCRIPTION @ MAGNETIC -1 0.4 !
 FUNCTION ZERO      298.15  0;                                         6000 N !
 FUNCTION UN_ASS    298.15  0;                                         6000 N !
 FUNCTION R         298.15  +8.31451;                                  6000 N !
$ ------------------------------------------------------------------------------
$ Element data
$ ------------------------------------------------------------------------------
$ Be
$
 PAR  G(HCP_A3,BE:VA),,                 +GHSERBE;                3000 N 91Din !
 PAR  G(BCC_A2,BE:VA),,                 +GBCCBE;                 3000 N 91Din !
 PAR  G(FCC_A1,BE:VA),,                 +GHSERBE+6349-1.085*T;   3000 N 91Din !
 PAR  G(LIQUID,BE),,                    +GLIQBE;                 3000 N 91Din !
$
 FUNCTION GHSERBE   298.15  -8553.651+137.560219*T-21.204*T*LN(T)
       -0.00284715*T**2-1.60413E-07*T**3+293690*T**(-1);
      1527.00  Y  -121305.858+772.405844*T-103.9843*T*LN(T)
       +0.021078651*T**2-1.119065E-06*T**3+27251743*T**(-1);
      3000.00  N !
 FUNCTION GBCCBE    298.15  -1076.057+109.411712*T-17.1727841*T*LN(T)
       -0.008672487*T**2+9.61427E-07*T**3+242309*T**(-1);
      1527.00  Y  -6970.378+196.411689*T-30*T*LN(T);
      1560.00  Y  -2609.973+178.131722*T-27.7823769*T*LN(T)
       -1.03629E-04*T**2-5.9331E-08*T**3-1250847*T**(-1);
      3000.00  N !
 FUNCTION GLIQBE    298.15  +7511.838+120.362788*T-20.0497038*T*LN(T)
       -0.004821347*T**2+4.15958E-07*T**3+281044*T**(-1);
      1560.00  Y  +5364.713+156.961141*T-25.486*T*LN(T)
       -0.0010572*T**2-1.117E-09*T**3+15920*T**(-1);
      3000.00  N !
$ ------------------------------------------------------------------------------
$ Mo
$
 PAR  G(BCC_A2,MO:VA),,                 +GHSERMO;                5000 N 91Din !
 PAR  G(FCC_A1,MO:VA),,                 +GHSERMO+15200+0.63*T;   5000 N 91Din !
 PAR  G(HCP_A3,MO:VA),,                 +GHSERMO+11550;          5000 N 91Din !
 PAR  G(LIQUID,MO),,                    +GLIQMO;                 5000 N 91Din !
$
 FUNCTION GHSERMO   298.15  -7746.302+131.9197*T-23.56414*T*LN(T)
       -0.003443396*T**2+5.66283E-07*T**3+65812*T**(-1)-1.30927E-10*T**4;
      2896.00  Y  -30556.41+283.559746*T-42.63829*T*LN(T)-4.849315E+33*T**(-9);
      5000.00  N !
 FUNCTION GLIQMO    298.15  +41831.347-14.694912*T+GHSERMO+4.24519E-22*T**7;
      2896.00  Y  +3538.963+271.6697*T-42.63829*T*LN(T);
      5000.00  N !
 FUNCTION GFCCMO    298.15  +GHSERMO+15200+0.63*T;                     6000 N !
$ ------------------------------------------------------------------------------
$ Binary system
$
$ K. Nakashima, T. Tokunaga, H. Ohtani, M.Hasebe,
$ J. Japan Inst. Met., 71, 187-89(2007).
$
$ Checked against paper. Checked at 6000 K.
$
 PAR  L(LIQUID,BE,MO;0),,               -44930;,,                     N 07Nak !
 PAR  L(LIQUID,BE,MO;1),,               -28205;,,                     N 07Nak !
$
 PAR  L(BCC_A2,BE,MO:VA;0),,            +44310;,,                     N 07Nak !
 PAR  L(HCP_A3,BE,MO:VA;0),,            +UN_ASS;,,                    N !
$
 PAR  G(BE22MO,BE:MO),,                 +22*GHSERBE+GHSERMO
             -130000-13.8*T;,,                                        N 07Nak !
$ Rounding error in paper?
$PAR  G(BE22MO,BE:MO),,                 +22*GHSERBE+GHSERMO
$            -128800-13.8*T;,,                                        N 07Nak !
 PAR  G(BE12MO_D2B,BE:MO),,             +12*GHSERBE+GHSERMO
             -130000-13*T;,,                                          N 07Nak !
 PAR  G(BE2MO_C14,BE:MO),,              +2*GHSERBE+GHSERMO
             -93000+5.61*T;,,                                         N 07Nak !
 PAR  G(BEMO3_A15,BE:MO),,              +GHSERBE+3*GHSERMO
             -52000+7.48*T;,,                                         N 07Nak !
$ ------------------------------------------------------------------------------
$
$
 LIST-OF-REFERENCE
 NUMBER  SOURCE
  Null   'Unknown source'
  Same   'Same or similar interaction as in the corresponding stable phase'
  REFLAV 'Laves phase convention: G(LAVES,X:X)=+3*GHSERXX+15000'
  91Din  'A.T. Dinsdale, Calphad, 15, 317-425(1991).'
  07Nak  'K. Nakashima, T. Tokunaga, H. Ohtani, M.Hasebe,
          J. Japan Inst. Met., 71, 187-89(2007); Be-Mo'
!
