$
$ Database for Eu-Sn from L. Liu et al. 2004 (included in LB Vol. 5)
$
$ L. Liu, C. Li, F. Wang, Z. Du, W. Zhang, J. Alloys Compd., 379, 148-53(2004).
$
$ Dataset created 2013.05.30 by Bengt Hallstedt.
$ 2020.12.26: Modified for use with GES6.
$
$ ------------------------------------------------------------------------------
 TEMP-LIM 298.15 6000.00 !
$
$ELEMENT NAME  REF. STATE               ATOMIC MASS H298-H0    S298    !
$
 ELEMENT VA   VACUUM                      0.0          0.0      0.0    ! 
 ELEMENT EU   BCC_A2                    151.96      8004.0     80.79304! 
 ELEMENT SN   BCT_A5                    118.69      6323.      51.18   ! 
$ ------------------------------------------------------------------------------
$ Phase definitions
$
 PHASE LIQUID:L % 1 1 !
 CONST LIQUID:L : EU SN : !
$
$ Bcc (cI2, Im-3m)
$
 PHASE BCC_A2 %B 2 1 3 !
 CONST BCC_A2 : EU% SN : VA : !
$
$ Prototype C (cF8, Fd-3m)
$
 PHASE DIAMOND_A4 % 1 1 !
 CONST DIAMOND_A4 : SN : !
$
$ Prototype beta-Sn (tI4, I4_1/amd)
$
 PHASE BCT_A5 % 1 1 !
 CONST BCT_A5 : SN : !
$
$ Prototype Co2Si (oP12, Pnma)
$
 PHASE EU2SN_C37 % 2 2 1 !
 CONST EU2SN_C37 : EU : SN : !
$
$ Prototype Si3W5 (tI32, I4/mcm)
$
 PHASE EU5SN3_D8M % 2 5 3 !
 CONST EU5SN3_D8M : EU : SN : !
$
$ Prototype CrB (oC8, Cmcm)
$
 PHASE EUSN_B33 % 2 1 1 !
 CONST EUSN_B33 : EU : SN : !
$
$ Prototype Pd5Pu3 (oC32, Cmcm)
$
 PHASE EU3SN5 % 2 3 5 !
 CONST EU3SN5 : EU : SN : !
$
$ Prototype AuCu3 (cP4, Pm-3m)
$
 PHASE EUSN3_L12 % 2 1 3 !
 CONST EUSN3_L12 : EU : SN : !
$ ------------------------------------------------------------------------------
$ Defaults
$
 DEFINE-SYSTEM-DEFAULT ELEMENT 2 !
 DEFAULT-COM DEFINE_SYSTEM_ELEMENT VA !
 TYPE-DEF % SEQ * !
 TYPE-DEF A GES AMEND_PHASE_DESCRIPTION @ MAGNETIC -3 0.28 !
 TYPE-DEF B GES AMEND_PHASE_DESCRIPTION @ MAGNETIC -1 0.4 !
 FUNCTION ZERO      298.15  0;                                         6000 N !
 FUNCTION UN_ASS    298.15  0;                                         6000 N !
 FUNCTION R         298.15  +8.31451;                                  6000 N !
$ ------------------------------------------------------------------------------
$ Element data
$ ------------------------------------------------------------------------------
$ Eu
$
$ BCC_A2 modified in unary 5.0
$ (upper T interval added + trailing decimals added)
$
 PAR  G(BCC_A2,EU:VA),,                 +GHSEREU;                1900 N 91Din !
 PAR  G(LIQUID,EU),,                    +GLIQEU;                 1900 N 91Din !
$
 FUNCTION GHSEREU   298.15  -9864.965+135.836737*T-32.8418896*T*LN(T)
       +0.00931735*T**2-4.006564E-06*T**3+102717*T**(-1);
      1095.00  Y  -287423.476+2174.733036*T-309.3571009*T*LN(T)
       +0.114530917*T**2-8.809866E-06*T**3+48455305*T**(-1);
      1900.00  Y  -13663.125+182.113799*T-38.11624*T*LN(T);
      1901.00  N !
 FUNCTION GLIQEU    298.15  +8382.505-7.175215*T+GHSEREU;
       400.00  Y  +10972.726-103.688201*T+4.3501554*T*LN(T)
       -0.036811218*T**2+5.452934E-06*T**3-646908*T**(-1);
      1095.00  Y  -6890.641+175.517247*T-38.11624*T*LN(T);
      1900.00  N !
$ ------------------------------------------------------------------------------
$ Sn
$
$ FCC_A1 revised in unary 3.0
$ HCP_A3 revised in unary 4.1
$ TETRAGONAL_A6 added in unary 4.1
$ CBCC_A12 and CUB_A13 added in unary 4.4
$ FCC_A1 modified in unary 5.0
$ DHCP and TET_ALPHA1_A6 added in unary 5.0
$
$ The DHCP phase is labelled D0_24 in 03Liu and alpha-prime in 92Ans. The
$ phase is present between the fcc and hcp phases in the Au-Sn and Au-In
$ systems.
$
 PAR  G(BCT_A5,SN)              100.00  +GHSERSN;                3000 N 91Din !
 PAR  G(DIAMOND_A4,SN)          100.00  +GDIASN;                 3000 N 91Din !
$PAR  G(FCC_A1,SN:VA)           100.00  +GHSERSN+5510-8.46*T;    3000 N 89Fec !
$PAR  G(FCC_A1,SN:VA)           100.00  +GHSERSN+4150-5.2*T;     3000 N 91Din !
 PAR  G(BCC_A2,SN:VA)           100.00  +GHSERSN+4400-6*T;       3000 N 91Din !
$PAR  G(HCP_A3,SN:VA)           100.00  +GHSERSN+3900-7.646*T;   3000 N Ansar !
$PAR  G(HCP_A3,SN:VA)           100.00  +GHSERSN+3900-4.4*T;     3000 N 91Din !
$PAR  G(DHCP,SN)                100.00  +GHSERSN+3803.52-3.46*T; 3000 N 03Liu !
$PAR  G(RHOMBOHEDRAL_A7,SN)     100.00  +GHSERSN+2035;           3000 N 91Din !
$PAR  G(TETRAGONAL_A6,SN)       100.00  +GHSERSN+5387-8.26212*T; 3000 N 99Ans !
$PAR  G(CBCC_A12,SN:VA)         100.00  +GHSERSN+2000;           3000 N 01Mie !
$PAR  G(CUB_A13,SN:VA)          100.00  +GHSERSN+2000;           3000 N 01Mie !
$PAR  G(TET_ALPHA1_A6,SN)       100.00  +GHSERSN+5510-8.46*T;    3000 N 99Ans !
 PAR  G(LIQUID,SN)              100.00  +GLIQSN;                 3000 N 91Din !
$
 FUNCTION GHSERSN   100.00  -7958.517+122.765451*T-25.858*T*LN(T)
       +5.1185E-04*T**2-3.192767E-06*T**3+18440*T**(-1);
       250.00  Y  -5855.135+65.443315*T-15.961*T*LN(T)
       -0.0188702*T**2+3.121167E-06*T**3-61960*T**(-1);
       505.08  Y  +2524.724+4.005269*T-8.2590486*T*LN(T)
       -0.016814429*T**2+2.623131E-06*T**3-1081244*T**(-1)-1.2307E+25*T**(-9);
       800.00  Y  -8256.959+138.99688*T-28.4512*T*LN(T)-1.2307E+25*T**(-9);
      3000.00  N !
 FUNCTION GDIASN    100.00  -9579.608+114.007785*T-22.972*T*LN(T)
       -0.00813975*T**2+2.7288E-06*T**3+25615*T**(-1);
       298.15  Y  -9063.001+104.84654*T-21.5750771*T*LN(T)
       -0.008575282*T**2+1.784447E-06*T**3-2544*T**(-1);
       800.00  Y  -10909.351+147.396535*T-28.4512*T*LN(T);
      3000.00  N !
 FUNCTION GLIQSN    100.00  +7103.092-14.087767*T+GHSERSN+1.47031E-18*T**7;
       505.08  Y  +6971.586-13.814383*T+GHSERSN+1.2307E+25*T**(-9);
       800.00  Y  -1285.372+125.182498*T-28.4512*T*LN(T);
      3000.00  N !
 FUNCTION GBCCSN    298.15  +GHSERSN+4400-6*T;                         3000 N !
$ ------------------------------------------------------------------------------
$ Binary system
$
$ From L. Liu et al. 2004 (included in LB Vol. 5)
$
$ L. Liu, C. Li, F. Wang, Z. Du, W. Zhang, J. Alloys Compd., 379, 148-53(2004).
$
$ Checked against LB and paper. Checked at 6000 K.
$
 PAR  L(LIQUID,EU,SN;0),,               -166740.093+9.35648626*T;,,    N 04Liu !
 PAR  L(LIQUID,EU,SN;1),,               +50387.7145-7.89834928*T;,,    N 04Liu !
 PAR  L(LIQUID,EU,SN;2),,               +20426.2867+6.30622781*T;,,    N 04Liu !
$
 PAR  L(BCC_A2,EU,SN:VA;0),,            -63584.1875;,,                 N 04Liu !
$
 PAR  G(EU2SN_C37,EU:SN),,              +2*GHSEREU+GHSERSN
             -111028.8-17.5995254*T;,,                                 N 04Liu !
 PAR  G(EU5SN3_D8M,EU:SN),,             +5*GHSEREU+3*GHSERSN
             -333142-34.0773552*T;,,                                   N 04Liu !
 PAR  G(EUSN_B33,EU:SN),,               +GHSEREU+GHSERSN
             -111088.341+2.52913384*T;,,                               N 04Liu !
 PAR  G(EU3SN5,EU:SN),,                 +3*GHSEREU+5*GHSERSN
             -444204.072+31.2926257*T;,,                               N 04Liu !
 PAR  G(EUSN3_L12,EU:SN),,              +GHSEREU+3*GHSERSN
             -219508.836+45.082154*T;,,                                N 04Liu !
$ ------------------------------------------------------------------------------
$
 ASSESSED_SYSTEM
   EU-SN (TDB -* +LIQUID +BCC_A2 +BCT_A5 +DIAMOND +EU2SN_C37 +EU5SN3_D8M
    +EUSN_B33 +EU3SN5 +EUSN3_L12 ;P3 * ) !
$
$
 LIST-OF-REFERENCE
 NUMBER  SOURCE
  Null   'Unknown source'
  Same   'Same or similar interaction as in the corresponding stable phase'
  COST   'COST 507 database'
  Ansar  'Himo Ansara, unpublished, SGTE unary database V.4.1, 1999; Sn'
  89Fec  'H.J. Fecht, M.X. Zhang, Y.A. Chang, J.H. Perepezko,
          Metall. Trans. A, 20A, 795-803(1989),
          SGTE unary database V.3.0, 1996; Sn'
  91Din  'A.T. Dinsdale, Calphad, 15, 317-425(1991).'
  99Ans  'I. Ansara, S.G. Fries, H.L. Lukas, unpublished, 1999,
          SGTE unary database V.5.0, 2009; In, Sn'
  01Mie  'J. Miettinen, Calphad, 25, 43-58(2001),
          SGTE unary database V.4.4, 2001; Sn, Zn'
  03Liu  'H.S. Liu, C.L. Liu, K. Ishida, Z.P. Jin, J. Electron. Mater.,
          32, 1290-96(2003), SGTE unary database V.5.0, 2009; Sn'
  04Liu  'L. Liu, C. Li, F. Wang, Z. Du, W. Zhang,
          J. Alloys Compd., 379, 148-53(2004); Eu-Sn'
!
