$
$ Database for In-Ni from T.T. Dorini and L.T.F. Eleno 2018.
$
$ T.T. Dorini, L.T.F. Eleno, Calphad, 62, 42-48(2018).
$
$ Dataset created 2018.10.03 by Bengt Hallstedt.
$ 2021.01.17: Modified for use with GES6.
$
$ Old value for fcc-In used.
$
$ This system has a rich life above 4000 K. InNi-B2 is stable above 4130 K for
$ In-rich compositions. InNi2-B81 is stable for Ni above 5220 K. There is an
$ inverse miscibility gap with a minimum at 3984 K and x(Ni)=0.60.
$
$ In3Ni2 and In9Ni13 are not stable at 200 K.
$
$ ------------------------------------------------------------------------------
 TEMP-LIM 298.15 6000.00 !
$
$ELEMENT NAME  REF. STATE               ATOMIC MASS H298-H0    S298    !
$
 ELEMENT VA   VACUUM                      0.0          0.0      0.0    ! 
 ELEMENT IN   TETRAGONAL_A6             114.82      6610.0     57.65   ! 
 ELEMENT NI   FCC_A1                     58.69      4787.0     29.7955 ! 
$ ------------------------------------------------------------------------------
$ Phase definitions
$
 PHASE LIQUID:L % 1 1 !
 CONST LIQUID:L : IN NI : !
$
$ Fcc (cF4) and MeX (cF8)
$
 PHASE FCC_A1 %A 2 1 1 !
 CONST FCC_A1 : IN NI% : VA : !
$
$ Bcc (cI2, Im-3m)
$
 PHASE BCC_A2 %B 2 1 3 !
 CONST BCC_A2 : IN NI : VA : !
$
$ Hcp (hP2, P6_3/mmc) and Me2X (NiAs-type, hP4, P6_3/mmc, B8_1)
$
 PHASE HCP_A3 %A 2 1 0.5 !
 CONST HCP_A3 : IN NI : VA : !
$
$ Prototype In (tI2, I4/mmm)
$
 PHASE TETRAGONAL_A6 % 1 1 !
 CONST TETRAGONAL_A6 : IN : !
$
$ Prototype Ru3Sn7 (cI40, Im-3m)
$
 PHASE IN7NI3_D8F % 2 7 3 !
 CONST IN7NI3_D8F : IN : NI : !
$
$ Prototype Al3Ni2 (hP5, P-3m1)
$
 PHASE IN3NI2_D513 % 2 3 2 !
 CONST IN3NI2_D513 : IN : NI : !
$
$ Prototype CsCl (cP2, Pm-3m), delta
$
 PHASE INNI_B2 % 2 1 1 !
 CONST INNI_B2 : IN% NI : NI% VA : !
$
$ Prototype CoSn (hP6, P6/mmm), epsilon
$
 PHASE INNI_B35 % 2 1 1 !
 CONST INNI_B35 : IN : NI : !
$
$ Prototype Ga9Ni13 (mC44, C2/m), zeta-prime, related to NiAs (B8_1) ?
$
 PHASE IN9NI13 % 2 9 13 !
 CONST IN9NI13 : IN : NI : !
$
$ Prototype NiAs (hP4, P6_3/mmc), zeta
$ Prototype InNi2 is also suggested, but this makes no sense since the low T
$ phase is already InNi2.
$
 PHASE INNI2_B81 % 3 1 1 1 !
 CONST INNI2_B81 : IN% NI : NI% VA : NI VA : !
$
$ Prototype InNi2 (hP6, P6_3/mmc)
$
 PHASE INNI2_B82 % 2 1 2 !
 CONST INNI2_B82 : IN : NI : !
$
$ Prototype CdMg3 (hP8, P6_3/mmc)
$
 PHASE INNI3_D019 % 2 1 3 !
 CONST INNI3_D019 : IN : NI : !
$ ------------------------------------------------------------------------------
$ Defaults
$
 DEFINE-SYSTEM-DEFAULT ELEMENT 2 !
 DEFAULT-COM DEFINE_SYSTEM_ELEMENT VA !
 TYPE-DEF % SEQ * !
 TYPE-DEF A GES AMEND_PHASE_DESCRIPTION @ MAGNETIC -3 0.28 !
 TYPE-DEF B GES AMEND_PHASE_DESCRIPTION @ MAGNETIC -1 0.4 !
 FUNCTION ZERO      298.15  0;                                         6000 N !
 FUNCTION UN_ASS    298.15  0;                                         6000 N !
 FUNCTION R         298.15  +8.31451;                                  6000 N !
$ ------------------------------------------------------------------------------
$ Element data
$ ------------------------------------------------------------------------------
$ In
$
$ FCC_A1 and TET_ALPHA1 revised in unary 4.1
$ BCT_A5 and RHOMBOHEDRAL_A7 added in unary 4.1
$ TET_ALPHA1 revised in unary 5.0 (using the value from 99Ans)
$ DHCP added in unary 5.0
$
$ There is quite a bit of confusion about TET_ALPHA1_A6. The structure is
$ the same as In (TETRAGONAL_A6), but with a different (presumably) c/a ratio.
$ TET_ALPHA1_A6 is present in Bi-In, In-Pb and In-Sn (possibly more). Between
$ the TETRAGONAL_A6 (In-ss) and TET_ALPHA1_A6 there is a narrow two-phase
$ region. In each system a different G(TET_ALPHA1_A6,IN) lattice stability
$ was used.
$ In 91Din a value from an unpublished revision of the Bi-In system by
$ P.-Y. Chevalier 1990 is included. In SGTE Unary V 4.4 a value from 98Boa
$ for the In-Pb system is included. 98Boa treated the TET_ALPHA1_A6
$ phase in Bi-In and In-Pb as two different phases and used the lattice
$ stability from 88Che0 for the Bi-In branch of this phase. Finally, SGTE
$ unary V 5.0 uses a value from an unpublished evaluation by 99Ans of the
$ In-Sn system. Due to the close proximity of the TETRAGONAL_A6 and
$ TET_ALPHA1_A6 phases in these systems, any change of lattice stability
$ will cause a distortion of the phase diagram and require reoptimisation.
$
$ The DHCP phase is labelled D0_24 in 03Liu and alpha-prime in 92Ans. The
$ phase is present between the fcc and hcp phases in the Au-Sn and Au-In
$ systems.
$
 PAR  G(TETRAGONAL_A6,IN),,             +GHSERIN;                3800 N 91Din !
$PAR  G(FCC_A1,IN:VA),,                 +GHSERIN+162.061;        3800 N 98Boa !
 PAR  G(FCC_A1,IN:VA),,                 +GHSERIN+123-0.1988*T;   3800 N 91Din !
 PAR  G(BCC_A2,IN:VA),,                 +GHSERIN+800-0.8*T;      3800 N 91Din !
 PAR  G(HCP_A3,IN:VA),,                 +GHSERIN+533-0.6868*T;   3800 N 91Din !
$PAR  G(DHCP,IN),,                      +GHSERIN+520-0.384*T;    3800 N 92Ans !
$PAR  G(TET_ALPHA1_A6,IN),,             +GHSERIN+123-0.1988*T;   3800 N 99Ans1 !
$PAR  G(TET_ALPHA1_A6,IN),,             +GHSERIN+0.31*T;         3800 N 98Boa !
$PAR  G(TET_ALPHA1_A6,IN),,             +GHSERIN+193-0.16479*T;  3800 N 91Din !
$PAR  G(TET_ALPHA1_A6,IN),,             +GHSERIN-33+0.16*T;      3800 N 88Che0 !
$PAR  G(BCT_A5,IN),,                    +GHSERIN
$            +5040.87-3.33969*T;                                 3800 N 99Ans1 !
$PAR  G(BCT_A5,IN),,                    +GHSERIN+2092;           3800 N 03Liu1 !
$PAR  G(RHOMBOHEDRAL_A7,IN),,           +GHSERIN+4184;           3800 N 88Che0 !
 PAR  G(LIQUID,IN),,                    +GLIQIN;                 3800 N 91Din !
$
 PAR  G(INNI_B2,IN:VA),,                +GHSERIN+16740-7*T;,,         N 18Dor !
 PAR  G(INNI2_B81,IN:VA:VA),,           +GHSERIN+1422+60*T;,,         N 18Dor !
$
 FUNCTION GHSERIN   298.15  -6978.89+92.338115*T-21.8386*T*LN(T)
       -0.00572566*T**2-2.120321E-06*T**3-22906*T**(-1);
       429.75  Y  -7033.516+124.476588*T-27.4562*T*LN(T)
       +5.4607E-04*T**2-8.367E-08*T**3-211708*T**(-1)+3.53116E+22*T**(-9);
      3800.00  N !
 FUNCTION GLIQIN    298.15  +3282.092-7.63686*T+GHSERIN-5.59058E-20*T**7;
       429.75  Y  +3283.706-7.640804*T+GHSERIN-3.53116E+22*T**(-9);
      3800.00  N !
$ ------------------------------------------------------------------------------
$ Ni
$
$ FCC_A1 and LIQUID modified in unary 5.0 (slight change in upper T interval)
$ BCT_A5 added in unary 5.0
$
 PAR  G(FCC_A1,NI:VA),,                 +GHSERNI;                3000 N 91Din !
 PAR  TC(FCC_A1,NI:VA),,                  633.00;                3000 N 91Din !
 PAR  BM(FCC_A1,NI:VA),,                    0.52;                3000 N 91Din !
 PAR  G(BCC_A2,NI:VA),,                 +GHSERNI
             +8715.084-3.556*T;                                  3000 N 91Din !
 PAR  TC(BCC_A2,NI:VA),,                  575.00;                3000 N 91Din !
 PAR  BM(BCC_A2,NI:VA),,                    0.85;                3000 N 91Din !
 PAR  G(HCP_A3,NI:VA),,                 +GHSERNI+1046+1.255*T;   3000 N 91Din !
 PAR  TC(HCP_A3,NI:VA),,                  633.00;                3000 N 91Din !
 PAR  BM(HCP_A3,NI:VA),,                    0.52;                3000 N 91Din !
$PAR  G(BCT_A5,NI),,                    +GHSERNI+10023-4.556*T;  3000 N 99Gho !
$PAR  G(CUB_A13,NI:VA),,                +GHSERNI+2092;           3000 N 91Din !
$PAR  G(CBCC_A12,NI:VA),,               +GHSERNI+3556;           3000 N 91Din !
 PAR  G(LIQUID,NI),,                    +GLIQNI;                 3000 N 91Din !
$
 PAR  G(INNI_B2,NI:NI),,                +2*GHSERNI+8500-0.4*T;,,      N 18Dor !
 PAR  G(INNI_B2,NI:VA),,                +GHSERNI+129680-10*T;,,       N 18Dor !
$
 PAR  G(INNI2_B81,NI:NI:NI),,           +3*GHSERNI+35271-6.6*T;,,     N 18Dor !
 PAR  G(INNI2_B81,NI:NI:VA),,           +2*GHSERNI+264981+30*T;,,     N 18Dor !
 PAR  G(INNI2_B81,NI:VA:NI),,           +2*GHSERNI+150003-42*T;,,     N 18Dor !
 PAR  G(INNI2_B81,NI:VA:VA),,           +GHSERNI+17184+30*T;,,        N 18Dor !
$
 FUNCTION GHSERNI   298.15  -5179.159+117.854*T-22.096*T*LN(T)-0.0048407*T**2;
      1728.00  Y  -27840.62+279.134977*T-43.1*T*LN(T)+1.12754E+31*T**(-9);
      3000.00  N !
 FUNCTION GLIQNI    298.15  +16414.686-9.397*T+GHSERNI-3.82318E-21*T**7;
      1728.00  Y  -9549.817+268.597977*T-43.1*T*LN(T);
      3000.00  N !
 FUNCTION GBCCNI    298.15  +GHSERNI+8715.084-3.556*T;                 6000 N !
$ ------------------------------------------------------------------------------
$ Binary system
$
$ T.T. Dorini, L.T.F. Eleno, Calphad, 62, 42-48(2018).
$
$ Checked against paper and author's tdb. Checked at 6000 K.
$
$ Old value for fcc-In used.
$
$ This system has a rich life above 4000 K. InNi-B2 is stable above 4130 K for
$ In-rich compositions. InNi2-B81 is stable for Ni above 5220 K. There is an
$ inverse miscibility gap with a minimum at 3984 K and x(Ni)=0.60.
$
$ In3Ni2 and In9Ni13 are not stable at 200 K.
$
 PAR  L(LIQUID,IN,NI;0),,               -45050.29+16.0985016*T;,,     N 18Dor !
 PAR  L(LIQUID,IN,NI;1),,               +12000-5.1*T;,,               N 18Dor !
 PAR  L(LIQUID,IN,NI;2),,               +1700-7.75*T;,,               N 18Dor !
 PAR  L(LIQUID,IN,NI;3),,               -20000+16*T;,,                N 18Dor !
$
 PAR  L(FCC_A1,IN,NI:VA;0),,            -31500+20*T;,,                N 18Dor !
$
 PAR  G(IN7NI3_D8F,IN:NI),,             +7*GHSERIN+3*GHSERNI
             -206890+112.56624*T;,,                                   N 18Dor !
 PAR  G(IN3NI2_D513,IN:NI),,            +3*GHSERIN+2*GHSERNI
             -102170+27.05*T;,,                                       N 18Dor !
$
 PAR  G(INNI_B2,IN:NI),,                +GHSERIN+GHSERNI
             -25180-0.2*T;,,                                          N 18Dor !
 PAR  L(INNI_B2,IN:NI,VA;0),,           -45000+24*T;,,                N 18Dor !
 PAR  L(INNI_B2,IN:NI,VA;1),,           -93827.87+84.821804*T;,,      N 18Dor !
$
 PAR  G(INNI_B35,IN:NI),,               +GHSERIN+GHSERNI
             -46300+16.19*T;,,                                        N 18Dor !
 PAR  G(IN9NI13,IN:NI),,                +9*GHSERIN+13*GHSERNI
             -435952+130.46*T;,,                                      N 18Dor !
$
 PAR  G(INNI2_B81,IN:NI:NI),,           +GHSERIN+2*GHSERNI
             -52017+17.1*T;,,                                         N 18Dor !
 PAR  G(INNI2_B81,IN:NI:VA),,           +GHSERIN+GHSERNI
             +84084+60*T;,,                                           N 18Dor !
 PAR  G(INNI2_B81,IN:VA:NI),,           +GHSERIN+GHSERNI
             -21642-2.37*T;,,                                         N 18Dor !
 PAR  L(INNI2_B81,IN,NI:NI:NI;0),,      -13286.01417;,,               N 18Dor !
 PAR  L(INNI2_B81,IN:NI,VA:NI;0),,      -20649.7737+27.34580061*T;,,  N 18Dor !
$
 PAR  G(INNI2_B82,IN:NI),,              +GHSERIN+2*GHSERNI
             -52017+15.76666317*T;,,                                  N 18Dor !
 PAR  G(INNI3_D019,IN:NI),,             +GHSERIN+3*GHSERNI
             -55696+17.88210268*T;,,                                  N 18Dor !
$
$ Metastable
$
 PAR  L(BCC_A2,IN,NI:VA;0),,            -31500+20*T;,,                N Same !
 PAR  L(HCP_A3,IN,NI:VA;0),,            -31500+20*T;,,                N Same !
$ ------------------------------------------------------------------------------
$
$
 LIST-OF-REFERENCE
 NUMBER  SOURCE
  Null   'Unknown source'
  Same   'Same or similar interaction as in the corresponding stable phase'
  COST   'COST 507 database'
  88Che0 'P.-Y Chevalier, Calphad, 12, 383-92(1988)
          SGTE unary database V.4.1, 1999; In'
  91Din  'A.T. Dinsdale, Calphad, 15, 317-425(1991).'
  92Ans  'I. Ansara, J.-Ph. Nabot, Calphad, 16, 13-18(1992),
          SGTE unary database V.5.0, 2009; In'
  98Boa  'D. Boa, I. Ansara, Thermochim. Acta, 314, 79-86(1998),
          SGTE unary database V.4.1, 1999; In, Pb'
  99Ans1 'I. Ansara, S.G. Fries, H.L. Lukas, unpublished, 1999,
          SGTE unary database V.5.0, 2009; In, Sn'
  99Gho  'G. Ghosh, Metall. Mater. Trans. A, 30A, 1481-94(1999),
          SGTE unary database V.5.0, 2009; Ni'
  18Dor  'T.T. Dorini, L.T.F. Eleno, Calphad, 62, 42-48(2018); In-Ni'
!
