$
$ Database for Nd-C from Y. Bian et al. 2015.
$
$ Y. Bian, K. Tang, G. Tranell, Calphad, 51, 206-10(2015).
$
$ Dataset created 2018.12.16 by Bengt Hallstedt.
$ 2021.02.02: Modified for use with GES6.
$
$ Liquid interaction is misprinted in the paper.
$
$ The calculated diagram and the table of invariants in the paper are incorrect.
$ These are not reproduced by the provided tdb or the parameters in the paper.
$ The parameter table is consistent with the provided tdb (except misprinted
$ liquid interaction).
$
$ In the calculated phase diagram NdC2 is shown with an alpha-beta transition,
$ but there is only a single NdC2 modelled. NdC2 is not stable where alpha-NdC2
$ is shown in the calculated diagram in the paper.
$
$ ------------------------------------------------------------------------------
 TEMP-LIM 298.15 6000.00 !
$
$ELEMENT NAME  REF. STATE               ATOMIC MASS H298-H0    S298    !
$
 ELEMENT VA   VACUUM                      0.0          0.0      0.0    ! 
 ELEMENT C    GRAPHITE                   12.011     1054.0      5.7423 ! 
 ELEMENT ND   DHCP                      144.24      7133.72    71.0862 ! 
$ ------------------------------------------------------------------------------
$ Phase definitions
$
 PHASE LIQUID:L % 1 1 !
 CONST LIQUID:L : C ND : !
$
$ Fcc (cF4, Fm-3m) and MeX (cF8, Fm-3m)
$
 PHASE FCC_A1 %A 2 1 1 !
 CONST FCC_A1 : ND : C VA% : !
$
$ Bcc (cI2, Im-3m)
$
 PHASE BCC_A2 %B 2 1 3 !
 CONST BCC_A2 : ND : C VA% : !
$
$ Hcp (hP2, P6_3/mmc) and Me2X (NiAs-type, hP4, P6_3/mmc, B8_1)
$
 PHASE HCP_A3 %A 2 1 0.5 !
 CONST HCP_A3 : ND : C VA% : !
$
$ Prototype alpha-La (hP4, P6_3/mmc)
$
 PHASE DHCP % 1 1 !
 CONST DHCP : ND : !
$
$ Prototype C (cF8, Fd-3m)
$
 PHASE DIAMOND_A4 % 1 1 !
 CONST DIAMOND_A4 : C : !
$
$ Prototype C (hP4, P6_3/mmc)
$
 PHASE GRAPHITE_A9 % 1 1 !
 CONST GRAPHITE_A9 : C : !
$
$ Prototype Pu2C3 (cI40, I-43d)
$
 PHASE ND2C3_D5C % 2 2 3 !
 CONST ND2C3_D5C : ND : C% VA : !
$
$ Prototype CaC2 (tI6, I4/mmm)
$
 PHASE NDC2_C11A % 2 1 2 !
 CONST NDC2_C11A : ND : C% VA : !
$ ------------------------------------------------------------------------------
$ Defaults
$
 DEFINE-SYSTEM-DEFAULT ELEMENT 2 !
 DEFAULT-COM DEFINE_SYSTEM_ELEMENT VA !
 TYPE-DEF % SEQ * !
 TYPE-DEF A GES AMEND_PHASE_DESCRIPTION @ MAGNETIC -3 0.28 !
 TYPE-DEF B GES AMEND_PHASE_DESCRIPTION @ MAGNETIC -1 0.4 !
 FUNCTION ZERO      298.15  0;                                         6000 N !
 FUNCTION UN_ASS    298.15  0;                                         6000 N !
 FUNCTION R         298.15  +8.31451;                                  6000 N !
$ ------------------------------------------------------------------------------
$ Element data
$ ------------------------------------------------------------------------------
$ C
$
 PAR  G(GRAPHITE_A9,C),,                +GHSERCC;,,                   N 91Din !
 PAR  G(DIAMOND_A4,C),,                 +GDIACC;,,                    N 91Din !
 PAR  G(LIQUID,C),,                     +GHSERCC+117369-24.63*T;,,    N 91Din !
$
 FUNCTION GHSERCC   298.15  -17368.441+170.73*T-24.3*T*LN(T)
       -4.723E-04*T**2+2562600*T**(-1)-2.643E+08*T**(-2)+1.2E+10*T**(-3);
      6000.00  N !
 FUNCTION GDIACC    298.15  -16359.441+175.61*T-24.31*T*LN(T)
       -4.723E-04*T**2+2698000*T**(-1)-2.61E+08*T**(-2)+1.11E+10*T**(-3);
      6000.00  N !
$ ------------------------------------------------------------------------------
$ Nd
$
$ DHCP and LIQUID modified in unary 3.0 (upper/lower T interval added)
$ FCC_A1 added in unary 3.0
$ HCP_A3 added in unary 4.4
$
 PAR  G(DHCP,ND),,                      +GHSERND;                1800 N 91Din !
 PAR  G(BCC_A2,ND:VA),,                 +GBCCND;                 1800 N 91Din !
 PAR  G(FCC_A1,ND:VA),,                 +GHSERND+500;            1800 N SGCOST !
 PAR  G(HCP_A3,ND:VA),,                 +GHSERND
             +1500-0.415725*T;                                   1800 N 00Nor2 !
 PAR  G(LIQUID,ND),,                    +GLIQND;                 1800 N 91Din !
$
 PAR  G(ND2C3,ND:VA),,                  +2*GHSERND+100000;,,          N 15Bia !
 PAR  G(NDC2_C11A,ND:VA),,              +GHSERND+60000;,,             N 15Bia !
$
 FUNCTION GHSERND   298.15  -8402.93+111.10239*T-27.0858*T*LN(T)
       +5.56125E-04*T**2-2.6923E-06*T**3+34887*T**(-1);
       900.00  Y  -6984.083+83.662617*T-22.7536*T*LN(T)
       -0.00420402*T**2-1.802E-06*T**3;
      1128.00  Y  -225610.846+1673.04075*T-238.182873*T*LN(T)
       +0.078615997*T**2-6.048207E-06*T**3+38810350*T**(-1);
      1799.00  Y  -25742.331+276.257088*T-48.7854*T*LN(T);
      1800.00  N !
 FUNCTION GBCCND    298.15  +1437.295-0.546281*T+GHSERND;
       400.00  Y  +7312.2-153.033976*T+14.9956777*T*LN(T)
       -0.050479*T**2+7.287217E-06*T**3-831810*T**(-1);
      1128.00  Y  -18030.266+239.677322*T-44.5596*T*LN(T);
      1289.00  Y  +334513.017-2363.9199*T+311.409193*T*LN(T)
       -0.156030778*T**2+1.2408421E-05*T**3-64319604*T**(-1);
      1800.00  N !
 FUNCTION GLIQND    298.15  +5051.743-1.585076*T+GHSERND;
       300.00  Y  +5350.01-86.593963*T+5.357301*T*LN(T)
       -0.046955463*T**2+6.860782E-06*T**3-374380*T**(-1);
      1128.00  Y  -16335.232+268.625903*T-48.7854*T*LN(T);
      1799.00  Y  +9407.099-7.631185*T+GHSERND;
      1800.00  N !
$ ------------------------------------------------------------------------------
$ Binary system
$
$ Y. Bian, K. Tang, G. Tranell, Calphad, 51, 206-10(2015).
$
$ Checked against paper and author's tdb. Checked at 6000 K.
$
$ Liquid interaction is misprinted in the paper.
$
$ The calculated diagram and the table of invariants in the paper are incorrect.
$ These are not reproduced by the provided tdb or the parameters in the paper.
$ The parameter table is consistent with the provided tdb (except misprinted
$ liquid interaction).
$
$ In the calculated phase diagram NdC2 is shown with an alpha-beta transition,
$ but there is only a single NdC2 modelled. NdC2 is not stable where alpha-NdC2
$ is shown in the calculated diagram in the paper.
$
 PAR  L(LIQUID,C,ND;0),,                -268285.3+22.227*T;,,         N 15Bia !
$ Original parameter in paper below
$PAR  L(LIQUID,C,ND;1),,                +132872.9;,,                  N 15Bia !
 PAR  L(LIQUID,C,ND;1),,                -139872.9;,,                  N 15Bia !
 PAR  L(LIQUID,C,ND;2),,                -24515.3;,,                   N 15Bia !
$
 PAR  G(BCC_A2,ND:C),,                  +GBCCND+3*GHSERCC+8314;,,     N 15Bia !
 PAR  L(BCC_A2,ND:C,VA;0),,             +5000;,,                      N 15Bia !
$
 PAR  G(ND2C3,ND:C),,                   +2*GHSERND+3*GHSERCC
             -179255+8.75*T;,,                                        N 15Bia !
 PAR  G(NDC2_C11A,ND:C),,               +GHSERND+2*GHSERCC
             -42918-28.2*T;,,                                         N 15Bia !
$ ------------------------------------------------------------------------------
$
$
 LIST-OF-REFERENCE
 NUMBER  SOURCE
  Null   'Unknown source'
  REFLAV 'Laves phase convention: G(LAVES,X:X)=+3*GHSERXX+15000'
  COST   'COST 507 database'
  SGCOST 'COST 507 database, SGTE unary database V.3.0, 1996; Al, B, Nd, Ti, Zn'
  91Din  'A.T. Dinsdale, Calphad, 15, 317-425(1991).'
  00Nor2 'S. Norgren, PhD Thesis, KTH, Stockholm, 2000; Nd, Sc'
  15Bia  'Y. Bian, K. Tang, G. Tranell, Calphad, 51, 206-10(2015); Nd-C'
!
