$
$ Database for Cr-C from Andersson 1987 (Included in LB Vol. 1)
$
$ J.-O. Andersson, Calphad, 11, 271-76(1987).
$
$ Dataset created 2009.10.19 by Bengt Hallstedt.
$ 2017.01.14: M3C2 changed to CR3C2.
$ 2020.12.25: Modified for use with GES6.
$
$ The liquid interaction is probably not good, leading to a much steeper
$ graphite liquidus than experiment and very nearly a stable miscibility
$ gap close to graphite.
$
$ ------------------------------------------------------------------------------
 TEMP-LIM 298.15 6000.00 !
$
$ELEMENT NAME  REF. STATE               ATOMIC MASS H298-H0    S298    !
$
 ELEMENT VA   VACUUM                      0.0          0.0      0.0    ! 
 ELEMENT C    GRAPHITE                   12.011     1054.0      5.7423 ! 
 ELEMENT CR   BCC_A2                     51.996     4050.0     23.5429 ! 
$ ------------------------------------------------------------------------------
$ Phase definitions
$
 PHASE LIQUID:L % 1 1 !
 CONST LIQUID:L : C CR : !
$
$ Bcc (cI2, Im-3m)
$
 PHASE BCC_A2 %B 2 1 3 !
 CONST BCC_A2 : CR : C VA% : !
$
$ Prototype C (cF8, Fd-3m)
$
 PHASE DIAMOND_A4 % 1 1 !
 CONST DIAMOND_A4 : C : !
$
$ Prototype C (hP4, P6_3/mmc)
$
 PHASE GRAPHITE_A9 % 1 1 !
 CONST GRAPHITE_A9 : C : !
$
$ Prototype Cr23C6 (cF116, Fm-3m)
$
 PHASE M23C6_D84 % 3 20 3 6 !
 CONST M23C6_D84 : CR : CR : C : !
$
$ Prototype Cr7C3 (oP40, Pnma)
$
 PHASE M7C3_D101 % 2 7 3 !
 CONST M7C3_D101 : CR : C : !
$
$ Prototype Cr3C2 (oP20, Pnma)
$
 PHASE CR3C2_D510 % 2 3 2 !
 CONST CR3C2_D510 : CR : C : !
$ ------------------------------------------------------------------------------
$ Defaults
$
 DEFINE-SYSTEM-DEFAULT ELEMENT 2 !
 DEFAULT-COM DEFINE_SYSTEM_ELEMENT VA !
 TYPE-DEF % SEQ * !
 TYPE-DEF B GES AMEND_PHASE_DESCRIPTION @ MAGNETIC -1 0.4 !
 FUNCTION ZERO      298.15  0;                                         6000 N !
 FUNCTION UN_ASS    298.15  0;                                         6000 N !
$ ------------------------------------------------------------------------------
$ Element data
$ ------------------------------------------------------------------------------
$ C
$
 PAR  G(GRAPHITE_A9,C),,                +GHSERCC;,,                   N 91Din !
 PAR  G(DIAMOND_A4,C),,                 +GDIACC;,,                    N 91Din !
 PAR  G(LIQUID,C),,                     +GHSERCC+117369-24.63*T;,,    N 91Din !
$
 FUNCTION GHSERCC   298.15  -17368.441+170.73*T-24.3*T*LN(T)
       -4.723E-04*T**2+2562600*T**(-1)-2.643E+08*T**(-2)+1.2E+10*T**(-3);
      6000.00  N !
 FUNCTION GDIACC    298.15  -16359.441+175.61*T-24.31*T*LN(T)
       -4.723E-04*T**2+2698000*T**(-1)-2.61E+08*T**(-2)+1.11E+10*T**(-3);
      6000.00  N !
$ ------------------------------------------------------------------------------
$ Cr
$
 PAR  G(BCC_A2,CR:VA),,                 +GHSERCR;,,                   N 91Din !
 PAR  TC(BCC_A2,CR:VA),,                 -311.50;,,                   N 91Din !
 PAR  BM(BCC_A2,CR:VA),,                   -0.008;,,                  N 91Din !
 PAR  G(LIQUID,CR),,                    +GLIQCR;,,                    N 91Din !
$
 FUNCTION GHSERCR   298.15  -8856.94+157.48*T-26.908*T*LN(T)
       +0.00189435*T**2-1.47721E-06*T**3+139250*T**(-1);
      2180.00  Y  -34869.344+344.18*T-50*T*LN(T)-2.88526E+32*T**(-9);
      6000.00  N !
 FUNCTION GLIQCR    298.15  +24339.955-11.420225*T+GHSERCR+2.37615E-21*T**7;
      2180.00  Y  -16459.984+335.616316*T-50*T*LN(T);
      6000.00  N !
$ ------------------------------------------------------------------------------
$ Binary system
$
$ From Andersson 1987 (Included in LB Vol. 2).
$
$ J.-O. Andersson, Calphad, 11, 271-76(1987).
$
$ Checked against LB and paper. Checked at 6000 K.
$
$ The liquid interaction is probably not good, leading to a much steeper
$ graphite liquidus than experiment and very nearly a stable miscibility
$ gap close to graphite.
$
 PAR  L(LIQUID,C,CR;0),,                -90526-25.9116*T;,,           N 87And2 !
 PAR  L(LIQUID,C,CR;1),,                +80000;,,                     N 87And2 !
 PAR  L(LIQUID,C,CR;2),,                +80000;,,                     N 87And2 !
$
 PAR  G(BCC_A2,CR:C),,                  +GHSERCR+3*GHSERCC+416000;,,  N 87And2 !
 PAR  TC(BCC_A2,CR:C),,                  -311.50;,,                   N 90Kaj !
 PAR  BM(BCC_A2,CR:C),,                    -0.008;,,                  N 90Kaj !
 PAR  L(BCC_A2,CR:C,VA;0),,             -190*T;,,                     N 87And2 !
$
 PAR  G(M23C6_D84,CR:CR:C),,            -521983+3622.24*T
             -620.965*T*LN(T)-0.126431*T**2;,,                        N 87And2 !
 PAR  G(M7C3_D101,CR:C),,               -209752+980.29*T
             -170.5*T*LN(T)-0.0690921*T**2;,,                         N 87And2 !
 PAR  G(CR3C2_D510,CR:C),,              -103719+496.8347*T
             -84.3496*T*LN(T)-0.0327095*T**2;,,                       N 87And2 !
$ ------------------------------------------------------------------------------
$
 ASSESSED_SYSTEM
  C-CR(TDB -* +LIQ +BCC_A2 +M23C6_D84 +M7C3_D101 +CR3C2_D510 +GRAPHITE
  ;P3 TMM:300/5000 STP:.9/2000) !
$
$
 LIST-OF-REFERENCE
 NUMBER  SOURCE
  Null   'Unknown source'
  87And2 'J.-O. Andersson, Calphad, 11, 271-76(1987); Cr-C'
  90Kaj  'M. Kajihara, M. Hillert,
          Metall. Mater. Trans. A, 21A, 2777-87(1990); Cr-C'
  91Din  'A.T. Dinsdale, Calphad, 15, 317-425(1991).'
!
