$
$ Database for Fe-Gd from W. Wang et al. 2012.
$
$ W. Wang, C. Guo, C. Li, Z. Du, J. Rare Earths, 30, 1055-63(2012).
$
$ Dataset created 2021.11.06 by Bengt Hallstedt.
$
$ The complex model for Fe17Gd2 does not seem meaningful. It was used in the
$ Co-Fe-Gd system, but the phase does not show a visible width anywhere in
$ the system.
$
$ The bcc interaction does not seem reliable. The hcp interaction is not
$ acceptable.
$
$ The decomposition temperature of Fe3Gd is too low (no pereitectic) and
$ the peritectic temperature of Fe2Gd is too high. Otherwise the phase diagram
$ seems reasonably reproduced.
$
$ ------------------------------------------------------------------------------
 TEMP-LIM 298.15 6000.00 !
$
$ELEMENT NAME  REF. STATE               ATOMIC MASS H298-H0    S298    !
$
 ELEMENT VA   VACUUM                      0.0          0.0      0.0    ! 
 ELEMENT FE   BCC_A2                     55.847     4489.0     27.2797 ! 
 ELEMENT GD   HCP_A3                    157.25      9087.648   68.0894 ! 
$ ------------------------------------------------------------------------------
$ Species
$
 SPECIE  FE2                                FE2 !
$ ------------------------------------------------------------------------------
$ Phase definitions
$
 PHASE LIQUID:L % 1 1 !
 CONST LIQUID:L : FE GD : !
$
$ Fcc (cF4, Fm-3m) and MeX (cF8, Fm-3m)
$
 PHASE FCC_A1 %A 2 1 1 !
 CONST FCC_A1 : FE% GD : VA : !
$
$ Bcc (cI2, Im-3m)
$
 PHASE BCC_A2 %B 2 1 3 !
 CONST BCC_A2 : FE% GD% : VA : !
$
$ Hcp (hP2, P6_3/mmc) and Me2X (NiAs-type, hP4, P6_3/mmc, B8_1)
$
 PHASE HCP_A3 %A 2 1 0.5 !
 CONST HCP_A3 : FE GD% : VA : !
$
$ Prototype Th2Zn17 (hR19, R-3m); low T, Ni17Th2 (hP38, P6_3/mmc); high T
$
 PHASE FE17GD2 %A 3 1 2 15 !
 CONST FE17GD2 : FE2 GD : GD : FE : !
$
$ Prototype Mn23Th6 (cF116, Fm-3m)
$
 PHASE FE23GD6_D8A %A 2 23 6 !
 CONST FE23GD6_D8A : FE : GD : !
$
$ Prototype Ni3Pu (hR12, R-3m)
$
 PHASE FE3GD %A 2 3 1 !
 CONST FE3GD : FE : GD : !
$
$ Prototype Cu2Mg (cF24, Fd-3m)
$
 PHASE FE2GD_C15 %A 2 2 1 !
 CONST FE2GD_C15 : FE : GD : !
$ ------------------------------------------------------------------------------
$ Defaults
$
 DEFINE-SYSTEM-DEFAULT ELEMENT 2 !
 DEFAULT-COM DEFINE_SYSTEM_ELEMENT VA !
 TYPE-DEF % SEQ * !
 TYPE-DEF A GES AMEND_PHASE_DESCRIPTION @ MAGNETIC -3 0.28 !
 TYPE-DEF B GES AMEND_PHASE_DESCRIPTION @ MAGNETIC -1 0.4 !
 FUNCTION ZERO      298.15  0;                                         6000 N !
 FUNCTION UN_ASS    298.15  0;                                         6000 N !
 FUNCTION R         298.15  +8.31451;                                  6000 N !
$ ------------------------------------------------------------------------------
$ Element data
$ ------------------------------------------------------------------------------
$ Fe
$
$ ORTHORHOMBIC_A20 and TETRAGONAL_U added im unary 4.1
$
 PAR  G(BCC_A2,FE:VA),,                 +GHSERFE;,,                   N 91Din !
 PAR  TC(BCC_A2,FE:VA),,                 1043.00;,,                   N 91Din !
 PAR  BM(BCC_A2,FE:VA),,                    2.22;,,                   N 91Din !
 PAR  G(FCC_A1,FE:VA),,                 +GFCCFE;,,                    N 91Din !
 PAR  TC(FCC_A1,FE:VA),,                 -201.00;,,                   N 91Din !
 PAR  BM(FCC_A1,FE:VA),,                   -2.10;,,                   N 91Din !
 PAR  G(HCP_A3,FE:VA),,                 +GHCPFE;,,                    N 91Din !
$PAR  G(CBCC_A12,FE:VA),,               +GHSERFE+4745;,,              N 91Din !
$PAR  G(CUB_A13,FE:VA),,                +GHSERFE+3745;,,              N 91Din !
$PAR  G(ORTHORHOMBIC_A20,FE),,          +GHSERFE+5000;,,              N 99SGUN !
$PAR  G(TETRAGONAL_U,FE),,              +GHSERFE+5000;,,              N 99SGUN !
 PAR  G(LIQUID,FE),,                    +GLIQFE;,,                    N 91Din !
$
 FUNCTION GHSERFE   298.15  +1225.7+124.134*T-23.5143*T*LN(T)
       -0.00439752*T**2-5.8927E-08*T**3+77359*T**(-1);
      1811.00  Y  -25383.581+299.31255*T-46*T*LN(T)+2.29603E+31*T**(-9);
      6000.00  N !
 FUNCTION GFCCFE    298.15  -1462.4+8.282*T-1.15*T*LN(T)
       +6.4E-04*T**2+GHSERFE;
      1811.00  Y  -1713.815+0.940009*T+GHSERFE+4.9251E+30*T**(-9);
      6000.00  N !
 FUNCTION GHCPFE    298.15  -3705.78+12.591*T-1.15*T*LN(T)
       +6.4E-04*T**2+GHSERFE;
      1811.00  Y  -3957.195+5.249009*T+GHSERFE+4.9251E+30*T**(-9);
      6000.00  N !
 FUNCTION GLIQFE    298.15  +12040.17-6.55843*T+GHSERFE-3.67516E-21*T**7;
      1811.00  Y  -10838.83+291.302*T-46*T*LN(T);
      6000.00  N !
$ ------------------------------------------------------------------------------
$ Gd
$
$ HCP_A3, BCC_A2 and LIQUID revised in unary 3.0
$ Small correction made to top two temperature ranges of bcc_A2 to ensure 
$ continuity in Gibbs energy, AD, Dec 2002
$ FCC_A1 added in unary 4.4
$
$ FCC_A1 from 95Liu not included in unary
$
 PAR  G(HCP_A3,GD:VA)           200.00  +GHSERGD;                3600 N 95She2 !
$PAR  TC(HCP_A3,GD:VA)          200.00    293.4;                 3600 N 95She2 !
$PAR  BMAGN(HCP_A3,GD:VA)       200.00      3.0;                 3600 N 95She2 !
 PAR  TC(HCP_A3,GD:VA)          200.00    291.8;                 3600 N 91Din !
 PAR  BMAGN(HCP_A3,GD:VA)       200.00      3.0;                 3600 N 91Din !
 PAR  G(BCC_A2,GD:VA)           200.00  +GBCCGD;                 3600 N 95She2 !
$PAR  G(FCC_A1,GD:VA)           200.00  +GHSERGD+5000;           3600 N 95Liu !
 PAR  G(FCC_A1,GD:VA)           200.00  +GHSERGD+500;            3600 N 00Zin !
 PAR  G(LIQUID,GD)              200.00  +GLIQGD;                 3600 N 95She2 !
$
 FUNCTION GHSERGD   200.00  -6834.5855+97.13101*T-24.7214131*T*LN(T)
       -0.00285240521*T**2-3.14674076E-07*T**3-8665.73348*T**(-1);
      1000.00  Y  -6483.25362+95.6919924*T-24.6598297*T*LN(T)
       -0.00185225011*T**2-6.61211607E-07*T**3;
      1508.15  Y  -123124.992+699.125537*T-101.800197*T*LN(T)
       +0.0150644246*T**2-6.39165948E-07*T**3+29356890.3*T**(-1);
      3600.00  N !
 FUNCTION GBCCGD    200.00  +3233.80866-2.11184585*T+GHSERGD;
      1000.00  Y  +152792.743-1349.58873*T+180.097094*T*LN(T)
       -0.119550229*T**2+1.17915728E-05*T**3-22038836*T**(-1);
      1508.15  Y  -15783.7618+202.222183*T-38.960425*T*LN(T);
      1586.15  Y  -19850.5562+224.818035*T-41.904333*T*LN(T)
       +8.58222759E-04*T**2-3.77570269E-08*T**3+995428.573*T**(-1);
      3600.00  N !
 FUNCTION GLIQGD    200.00  +13060.0262-8.32179974*T+GHSERGD;
      1000.00  Y  +146262.037-1208.70685*T+159.352082*T*LN(T)
       -0.108247135*T**2+1.06945505E-05*T**3-19678357*T**(-1);
      1508.15  Y  -5397.314+192.336215*T-38.5075*T*LN(T);
      3600.00  N !
$ ------------------------------------------------------------------------------
$ Binary system
$
$ W. Wang, C. Guo, C. Li, Z. Du, J. Rare Earths, 30, 1055-63(2012).
$
$ Checked against paper. Checked at 6000 K.
$
$ The complex model for Fe17Gd2 does not seem meaningful. It was used in the
$ Co-Fe-Gd system, but the phase does not show a visible width anywhere in
$ the system.
$
$ The bcc interaction does not seem reliable. The hcp interaction is not
$ acceptable.
$
$ The decomposition temperature of Fe3Gd is too low (no pereitectic) and
$ the peritectic temperature of Fe2Gd is too high. Otherwise the phase diagram
$ seems reasonably reproduced.
$
 PAR  L(LIQUID,FE,GD;0),,               -27853.2+18.1977*T;,,         N 12Wan !
 PAR  L(LIQUID,FE,GD;1),,               +11400.5-6.5893*T;,,          N 12Wan !
$
 PAR  L(FCC_A1,FE,GD:VA;0),,            +30415.1+2.6597*T;,,          N 12Wan !
$
 PAR  L(BCC_A2,FE,GD:VA;0),,            +56314.6+2.0543*T;,,          N 12Wan !
 PAR  L(BCC_A2,FE,GD:VA;1),,            -92735.7+40.4899*T;,,         N 12Wan !
$
 PAR  L(HCP_A3,FE,GD:VA;0),,            +1000000;,,                   N 12Wan !
$
 PAR  G(FE17GD2,FE2:GD:FE),,            +17*GHSERFE+2*GHSERGD
             -225920+104.3405*T;,,                                    N 12Wan !
 PAR  TC(FE17GD2,FE2:GD:FE),,             472.00;,,                   N 95Liu !
 PAR  BM(FE17GD2,FE2:GD:FE),,              21.20;,,                   N 95Liu !
 PAR  G(FE17GD2,GD:GD:FE),,             +15*GHSERFE+3*GHSERGD
             +90000;,,                                                N 12Wan !
 PAR  TC(FE17GD2,GD:GD:FE),,              470.00;,,                   N 12Wan !
 PAR  BM(FE17GD2,GD:GD:FE),,                4.86;,,                   N 12Wan !
$
 PAR  G(FE23GD6_D8A,FE:GD),,            +23*GHSERFE+6*GHSERGD
             -442869.7+190.763*T;,,                                   N 12Wan !
 PAR  TC(FE23GD6_D8A,FE:GD),,             468.00;,,                   N 95Liu !
 PAR  BM(FE23GD6_D8A,FE:GD),,              14.80;,,                   N 95Liu !
$
 PAR  G(FE3GD,FE:GD),,                  +3*GHSERFE+GHSERGD
             -61962.1+26.5487*T;,,                                    N 12Wan !
 PAR  TC(FE3GD,FE:GD),,                   728.00;,,                   N 95Liu !
 PAR  BM(FE3GD,FE:GD),,                     1.60;,,                   N 95Liu !
$
 PAR  G(FE2GD_C15,FE:GD),,              -33818.9+580.9479*T
             -102.2642*T*LN(T)-0.0003952*T**2-4699.3*LN(T);,,         N 12Wan !
 PAR  TC(FE2GD_C15,FE:GD),,               782.00;,,                   N 95Liu !
 PAR  BM(FE2GD_C15,FE:GD),,                 3.35;,,                   N 95Liu !
$ ------------------------------------------------------------------------------
$
$
 LIST-OF-REFERENCE
 NUMBER  SOURCE
  Null   'Unknown source'
  REFLAV 'Laves phase convention: G(LAVES,X:X)=+3*GHSERXX+15000'
  91Din  'A.T. Dinsdale, Calphad, 15, 317-425(1991).'
  95Liu  'Z.-K. Liu, W. Zhang, B. Sundman,
          J. Alloys Compd. 226, 33-45(1995); Gd, Fe-Gd'
  95She2 'H. Shen, W. Zhang, G. Liu, R. Wang, Z. Du, Report F-95-02,
          University of Science and Technology, Beijing, May 1995,
          SGTE unary database V.3.0, 1996; Gd'
  99SGUN 'SGTE unary database V.4.1, 1999.'
  00Zin  'M. Zinkevich, N. Mattern, H. J Seifert,
          J. Phase Equilib., 21, 385-94(2000),
          SGTE unary database V.4.4, 2001; Gd'
  12Wan  'W. Wang, C. Guo, C. Li, Z. Du,
          J. Rare Earths, 30, 1055-63(2012); Fe-Gd'
!
