$
$ Database for Fe-Zr from W. Gierlotka and C. Lee 2017.
$
$ W. Gierlotka, C. Lee, J. Mater. Res., 32, 1386-96(2017).
$
$ Dataset created 2022.03.20 by Bengt Hallstedt.
$
$ Liquid, fcc and C15 parameters are cited from 01Jia, but actually come from 
$ 95Ser.
$
$ Fe23Zr6 (Mn23Th6 type) is frequently reported, but not stable according to
$ F. Stein et al. (J. Phase Equilib., 23, 480-94(2002)).
$
$ ------------------------------------------------------------------------------
 TEMP-LIM 298.15 6000.00 !
$
$ELEMENT NAME  REF. STATE               ATOMIC MASS H298-H0    S298    !
$
 ELEMENT VA   VACUUM                      0.0          0.0      0.0    ! 
 ELEMENT FE   BCC_A2                     55.847     4489.0     27.2797 ! 
 ELEMENT ZR   HCP_A3                     91.22      5566.27    39.1809 ! 
$ ------------------------------------------------------------------------------
$ Phase definitions
$
 PHASE LIQUID:L % 1 1 !
 CONST LIQUID:L : FE ZR : !
$
$ Fcc (cF4, Fm-3m) and MeX (cF8, Fm-3m)
$
 PHASE FCC_A1 %A 2 1 1 !
 CONST FCC_A1 : FE% ZR : VA : !
$
$ Bcc (cI2, Im-3m)
$
 PHASE BCC_A2 %B 2 1 3 !
 CONST BCC_A2 : FE% ZR% : VA : !
$
$ Hcp (hP2, P6_3/mmc) and Me2X (NiAs-type, hP4, P6_3/mmc, B8_1)
$
 PHASE HCP_A3 %A 2 1 0.5 !
 CONST HCP_A3 : FE ZR% : VA : !
$
$ Prototype Mn23Th6 (cF116, Fm-3m)
$
 PHASE FE23ZR6_D8A % 2 23 6 !
 CONST FE23ZR6_D8A : FE : ZR : !
$
$ Prototype Cu2Mg (cF24, Fd-3m)
$
 PHASE C15_LAVES % 2 2 1 !
 CONST C15_LAVES : FE% ZR : FE ZR% : !
$
$ Prototype Al2Cu (tI12, I4/mcm)
$
 PHASE FEZR2_C16 % 2 1 2 !
 CONST FEZR2_C16 : FE : ZR : !
$
$ Prototype Re3B (oC16, Cmcm)
$
 PHASE FEZR3_E1A % 2 1 3 !
 CONST FEZR3_E1A : FE% ZR : FE ZR% : !
$ ------------------------------------------------------------------------------
$ Defaults
$
 DEFINE-SYSTEM-DEFAULT ELEMENT 2 !
 DEFAULT-COM DEFINE_SYSTEM_ELEMENT VA !
 TYPE-DEF % SEQ * !
 TYPE-DEF A GES AMEND_PHASE_DESCRIPTION @ MAGNETIC -3 0.28 !
 TYPE-DEF B GES AMEND_PHASE_DESCRIPTION @ MAGNETIC -1 0.4 !
 FUNCTION ZERO      298.15  0;                                         6000 N !
 FUNCTION UN_ASS    298.15  0;                                         6000 N !
 FUNCTION R         298.15  +8.31451;                                  6000 N !
$ ------------------------------------------------------------------------------
$ Element data
$ ------------------------------------------------------------------------------
$ Fe
$
$ ORTHORHOMBIC_A20 and TETRAGONAL_U added im unary 4.1
$
 PAR  G(BCC_A2,FE:VA),,                 +GHSERFE;,,                   N 91Din !
 PAR  TC(BCC_A2,FE:VA),,                 1043.00;,,                   N 91Din !
 PAR  BM(BCC_A2,FE:VA),,                    2.22;,,                   N 91Din !
 PAR  G(FCC_A1,FE:VA),,                 +GFCCFE;,,                    N 91Din !
 PAR  TC(FCC_A1,FE:VA),,                 -201.00;,,                   N 91Din !
 PAR  BM(FCC_A1,FE:VA),,                   -2.10;,,                   N 91Din !
 PAR  G(HCP_A3,FE:VA),,                 +GHCPFE;,,                    N 91Din !
$PAR  G(CBCC_A12,FE:VA),,               +GHSERFE+4745;,,              N 91Din !
$PAR  G(CUB_A13,FE:VA),,                +GHSERFE+3745;,,              N 91Din !
$PAR  G(ORTHORHOMBIC_A20,FE),,          +GHSERFE+5000;,,              N 99SGUN !
$PAR  G(TETRAGONAL_U,FE),,              +GHSERFE+5000;,,              N 99SGUN !
 PAR  G(LIQUID,FE),,                    +GLIQFE;,,                    N 91Din !
$
 PAR  G(C15_LAVES,FE:FE),,              +3*GHSERFE+15000;,,           N REFLAV !
 PAR  G(FEZR3_E1A,FE:FE),,              +4*GHSERFE+20000;,,           N 17Gie !
$
 FUNCTION GHSERFE   298.15  +1225.7+124.134*T-23.5143*T*LN(T)
       -0.00439752*T**2-5.8927E-08*T**3+77359*T**(-1);
      1811.00  Y  -25383.581+299.31255*T-46*T*LN(T)+2.29603E+31*T**(-9);
      6000.00  N !
 FUNCTION GFCCFE    298.15  -1462.4+8.282*T-1.15*T*LN(T)
       +6.4E-04*T**2+GHSERFE;
      1811.00  Y  -1713.815+0.940009*T+GHSERFE+4.9251E+30*T**(-9);
      6000.00  N !
 FUNCTION GHCPFE    298.15  -3705.78+12.591*T-1.15*T*LN(T)
       +6.4E-04*T**2+GHSERFE;
      1811.00  Y  -3957.195+5.249009*T+GHSERFE+4.9251E+30*T**(-9);
      6000.00  N !
 FUNCTION GLIQFE    298.15  +12040.17-6.55843*T+GHSERFE-3.67516E-21*T**7;
      1811.00  Y  -10838.83+291.302*T-46*T*LN(T);
      6000.00  N !
$ ------------------------------------------------------------------------------
$ Zr
$
$ CUB_A13, CBCC_A12, ORTHORHOMBIC_A20 and TETRAGONAL_U added in unary 4.1
$
 PAR  G(HCP_A3,ZR:VA)           130.00  +GHSERZR;,,                   N 91Din !
 PAR  G(BCC_A2,ZR:VA)           130.00  +GBCCZR;,,                    N 91Din !
$PAR  G(OMEGA,ZR)               130.00  +GOMEZR;,,                    N 91Din !
 PAR  G(FCC_A1,ZR:VA)           130.00  +GHSERZR+7600-0.9*T;,,        N 91Din !
$PAR  G(CBCC_A12,ZR:VA)         130.00  +GHSERZR+4602.2;,,            N 99SGUN !
$PAR  G(CUB_A13,ZR:VA)          130.00  +GHSERZR+7531.2;,,            N 99SGUN !
$PAR  G(ORTHORHOMBIC_A20,ZR)    130.00  +GBCCZR+5000;,,               N 99SGUN !
$PAR  G(TETRAGONAL_U,ZR)        130.00  +GBCCZR+5000;,,               N 99SGUN !
 PAR  G(LIQUID,ZR)              130.00  +GLIQZR;,,                    N 91Din !
$
 PAR  G(C15_LAVES,ZR:ZR),,              +3*GHSERZR+15000;,,           N REFLAV !
 PAR  G(FEZR3_E1A,ZR:ZR),,              +4*GHSERZR+20000;,,           N 17Gie !
$
 FUNCTION GHSERZR   130.00  -7827.595+125.64905*T-24.1618*T*LN(T)
       -0.00437791*T**2+34971*T**(-1);
      2128.00  Y  -26085.921+262.724183*T-42.144*T*LN(T)-1.342896E+31*T**(-9);
      6000.00  N !
 FUNCTION GBCCZR    130.00  -525.539+124.9457*T-25.607406*T*LN(T)
       -3.40084E-04*T**2-9.729E-09*T**3+25233*T**(-1)-7.6143E-11*T**4;
      2128.00  Y  -4620.034+1.55998*T+GHSERZR+1.4103476E+32*T**(-9);
      6000.00  N !
 FUNCTION GOMEZR    130.00  -8878.082+144.432234*T-26.8556*T*LN(T)
       -0.002799446*T**2+38376*T**(-1);
      2128.00  Y  -3414.603+2.566675*T+GHSERZR+8.517346E+31*T**(-9);
      6000.00  N !
 FUNCTION GLIQZR    130.00  +18147.69-9.080812*T+GHSERZR+1.6275E-22*T**7;
      2128.00  Y  -8281.26+253.812609*T-42.144*T*LN(T);
      6000.00  N !
$ ------------------------------------------------------------------------------
$ Binary system
$
$ W. Gierlotka, C. Lee, J. Mater. Res., 32, 1386-96(2017).
$
$ Checked against paper. Checked at 6000 K.
$
$ Liquid, fcc and C15 parameters are cited from 01Jia, but actually come from 
$ 95Ser.
$
$ Fe23Zr6 (Mn23Th6 type) is frequently reported, but not stable according to
$ F. Stein et al. (J. Phase Equilib., 23, 480-94(2002)).
$
 PAR  L(LIQUID,FE,ZR;0),,               -63018+12.534*T;,,            N 95Ser !
 PAR  L(LIQUID,FE,ZR;1),,               +9638.37;,,                   N 95Ser !
 PAR  L(LIQUID,FE,ZR;2),,               -22215.4;,,                   N 95Ser !
$
 PAR  L(FCC_A1,FE,ZR:VA;0),,            -25100;,,                     N 95Ser !
 PAR  L(BCC_A2,FE,ZR:VA;0),,            -51041.762+30.619*T;,,        N 17Gie !
 PAR  L(HCP_A3,FE,ZR:VA;0),,            +UN_ASS;,,                    N !
$
 PAR  G(FE23ZR6_D8A,FE:ZR),,            -878053.3+3533.65*T
             -635.4422*T*LN(T)-0.14927*T**2;,,                        N 17Gie !
$
 PAR  G(C15_LAVES,FE:ZR),,              +GFE2ZR;,,                    N 95Ser !
 PAR  G(C15_LAVES,ZR:FE),,              -GFE2ZR;,,                    N 17Gie !
 PAR  L(C15_LAVES,FE,ZR:FE;0),,         +80000;,,                     N 95Ser !
 PAR  L(C15_LAVES,FE,ZR:ZR;0),,         +80000;,,                     N 95Ser !
 PAR  L(C15_LAVES,FE:FE,ZR;0),,         +10000;,,                     N 95Ser !
 PAR  L(C15_LAVES,ZR:FE,ZR;0),,         +10000;,,                     N 95Ser !
$
 PAR  G(FEZR2_C16,FE:ZR),,              +GHSERFE+2*GHSERZR
             -59765.486+17.01028*T;,,                                 N 17Gie !
$
 PAR  G(FEZR3_E1A,FE:ZR),,              +GHSERFE+3*GHSERZR
             -105430.925+57.34279*T;,,                                N 17Gie !
 PAR  G(FEZR3_E1A,ZR:FE),,              +GHSERZR+3*GHSERFE
             +101782.26-17.5579*T;,,                                  N 17Gie !
 PAR  L(FEZR3_E1A,FE,ZR:FE;0),,         +12000;,,                     N 17Gie !
 PAR  L(FEZR3_E1A,FE,ZR:ZR;0),,         +12000;,,                     N 17Gie !
 PAR  L(FEZR3_E1A,FE:FE,ZR;0),,         -12000;,,                     N 17Gie !
 PAR  L(FEZR3_E1A,ZR:FE,ZR;0),,         -12000;,,                     N 17Gie !
$
 FUNCTION GFE2ZR    298.15  -94690+353.06*T-65.7354*T*LN(T)
       -0.0154417*T**2;
      6000.00  N !
$ ------------------------------------------------------------------------------
$
 ASSESSED_SYSTEM
  FE-ZR(TDB -* +LIQUID +FCC_A1 +BCC_A2 +HCP_A3 +FEZR2_C16
  +FEZR3_E1A +FE23ZR6_D8A +C15_LAVES ;P3 TMM:300/3000 STP:0.4/2000/-2 ) !
$
$
 LIST-OF-REFERENCE
 NUMBER  SOURCE
  Null   'Unknown source'
  REFLAV 'Laves phase convention: G(LAVES,X:X)=+3*GHSERXX+15000'
  91Din  'A.T. Dinsdale, Calphad, 15, 317-425(1991).'
  95Ser  'C. Servant, C. Gueneau, I. Ansara,
          J. Alloys Compd., 220, 19-26(1995); Fe-Zr'
  99SGUN 'SGTE unary database V.4.1, 1999.'
  17Gie  'W. Gierlotka, C. Lee, J. Mater. Res., 32, 1386-96(2017); Fe-Zr'
!
