$
$ Database for Si-W from C. Vahlas et al. 1989
$
$ C. Vahlas, P.-Y. Chevalier, E. Blanquet, Calphad, 13, 273-92(1989).
$
$ Dataset created 2012.10.28 by Bengt Hallstedt.
$ 2021.02.05: Modified for use with GES6.
$
$ The parameters for Si2W and Si3W5 are confused in the paper.
$
$ The L --> Si3W5 + bcc-W is 8 K lower than in 89Vah, probably because a
$ different lattice stability was used for bcc-Si.
$
$ There is an inverse miscibility gap with a minimum at 4923 K and x(w)=0.41.
$
$ ------------------------------------------------------------------------------
 TEMP-LIM 298.15 6000.00 !
$
$ELEMENT NAME  REF. STATE               ATOMIC MASS H298-H0    S298    !
$
 ELEMENT VA   VACUUM                      0.0          0.0      0.0    ! 
 ELEMENT SI   DIAMOND_A4                 28.0855    3217.      18.81   ! 
 ELEMENT W    BCC_A2                    183.85      4970.0     32.6176 ! 
$ ------------------------------------------------------------------------------
$ Phase definitions
$
 PHASE LIQUID:L % 1 1 !
 CONST LIQUID:L : SI W : !
$
$ Fcc (cF4, Fm-3m) and MeX (cF8, Fm-3m)
$
 PHASE FCC_A1 %A 2 1 1 !
 CONST FCC_A1 : SI W : VA : !
$
$ Bcc (cI2, Im-3m)
$
 PHASE BCC_A2 %B 2 1 3 !
 CONST BCC_A2 : SI W% : VA : !
$
$ Hcp (hP2, P6_3/mmc) and Me2X (NiAs-type, hP4, P6_3/mmc, B8_1)
$
 PHASE HCP_A3 %A 2 1 0.5 !
 CONST HCP_A3 : SI W : VA : !
$
$ Prototype C (cF8, Fd-3m)
$
 PHASE DIAMOND_A4 % 1 1 !
 CONST DIAMOND_A4 : SI : !
$
$ Prototype MoSi2 (tI6, I4/mmm)
$
 PHASE SI2W_C11B % 2 2 1 !
 CONST SI2W_C11B : SI : W : !
$
$ Prototype Si3W5 (tI32, I4/mcm)
$
 PHASE SI3W5_D8M % 2 3 5 !
 CONST SI3W5_D8M : SI : W : !
$ ------------------------------------------------------------------------------
$ Defaults
$
 DEFINE-SYSTEM-DEFAULT ELEMENT 2 !
 DEFAULT-COM DEFINE_SYSTEM_ELEMENT VA !
 TYPE-DEF % SEQ * !
 TYPE-DEF A GES AMEND_PHASE_DESCRIPTION @ MAGNETIC -3 0.28 !
 TYPE-DEF B GES AMEND_PHASE_DESCRIPTION @ MAGNETIC -1 0.4 !
 FUNCTION ZERO      298.15  0;                                         6000 N !
 FUNCTION UN_ASS    298.15  0;                                         6000 N !
 FUNCTION R         298.15  +8.31451;                                  6000 N !
$ ------------------------------------------------------------------------------
$ Element data
$ ------------------------------------------------------------------------------
$ Si
$
 PAR  G(DIAMOND_A4,SI),,                +GHSERSI;                3600 N 91Din !
 PAR  G(FCC_A1,SI:VA),,                 +GHSERSI+51000-21.8*T;   3600 N 91Din !
 PAR  G(BCC_A2,SI:VA),,                 +GHSERSI+47000-22.5*T;   3600 N 91Din !
 PAR  G(HCP_A3,SI:VA),,                 +GHSERSI+49200-20.8*T;   3600 N 91Din !
$PAR  G(CBCC_A12,SI:VA),,               +GHSERSI+50208-20.377*T; 3600 N 91Din !
$PAR  G(CUB_A13,SI:VA),,                +GHSERSI+47279-20.377*T; 3600 N 91Din !
 PAR  G(LIQUID,SI),,                    +GLIQSI;                 3600 N 91Din !
$
 FUNCTION GHSERSI   298.15  -8162.609+137.236859*T-22.8317533*T*LN(T)
       -0.001912904*T**2-3.552E-09*T**3+176667*T**(-1);
      1687.00  Y  -9457.642+167.281367*T-27.196*T*LN(T)-4.20369E+30*T**(-9);
      3600.00  N !
 FUNCTION GLIQSI    298.15  +50696.36-30.099439*T+GHSERSI+2.09307E-21*T**7;
      1687.00  Y  +40370.523+137.722298*T-27.196*T*LN(T);
      3600.00  N !
 FUNCTION GBCCSI    298.15  +GHSERSI+47000-22.5*T;               3600 N 91Din !
$ ------------------------------------------------------------------------------
$ W
$
 PAR  G(BCC_A2,W:VA),,                  +GHSERWW;,,                   N 91Din !
 PAR  G(FCC_A1,W:VA),,                  +GHSERWW+19300+0.63*T;,,      N 91Din !
 PAR  G(HCP_A3,W:VA),,                  +GHSERWW+14750;,,             N 91Din !
 PAR  G(LIQUID,W),,                     +GLIQWW;,,                    N 91Din !
$
 FUNCTION GHSERWW   298.15  -7646.311+130.4*T-24.1*T*LN(T)
       -0.001936*T**2+2.07E-07*T**3+44500*T**(-1)-5.33E-11*T**4;
      3695.00  Y  -82868.801+389.362335*T-54*T*LN(T)+1.528621E+33*T**(-9);
      6000.00  N !
 FUNCTION GLIQWW    298.15  +52160.584-14.10999*T+GHSERWW-2.713468E-24*T**7;
      3695.00  Y  -30436.051+375.175*T-54*T*LN(T);
      6000.00  N !
 FUNCTION GFCCWW    298.15  +GHSERWW+19300+0.63*T;                     6000 N !
$ ------------------------------------------------------------------------------
$ Binary system
$
$ C. Vahlas, P.-Y. Chevalier, E. Blanquet, Calphad, 13, 273-92(1989).
$
$ Checked against paper. Checked at 6000K.
$
$ The parameters for Si2W and Si3W5 are confused in the paper.
$
$ The L --> Si3W5 + bcc-W is 8 K lower than in 89Vah, probably because a
$ different lattice stability was used for bcc-Si.
$
$ There is an inverse miscibility gap with a minimum at 4923 K and x(w)=0.41.
$
 PAR  L(LIQUID,SI,W;0),,                -164490.25+45.90737*T;,,      N 89Vah !
 PAR  L(LIQUID,SI,W;1),,                +20897.8;,,                   N 89Vah !
 PAR  L(LIQUID,SI,W;2),,                -14660.85;,,                  N 89Vah !
$
 PAR  L(BCC_A2,SI,W:VA;0),,             +13667.6;,,                   N 89Vah !
$
 PAR  G(SI2W_C11B,SI:W),,               +2*GHSERSI+GHSERWW
             -93117+2.09205*T;,,                                      N 89Vah !
 PAR  G(SI3W5_D8M,SI:W),,               +3*GHSERSI+5*GHSERWW
             -153630.4-14.22064*T;,,                                  N 89Vah !
$
$ Metastable
$
 PAR  L(FCC_A1,SI,W:VA;0),,             +13667.6;,,                   N Same !
 PAR  L(HCP_A3,SI,W:VA;0),,             +13667.6;,,                   N Same !
$ ------------------------------------------------------------------------------
$
 ASSESSED_SYSTEM
  SI-W(TDB -* +LIQUID +BCC_A2 +DIAMOND +SI2W_C11B +SI3W5_D8M
  ;P3 TMM:300/4000 STP:.5/2500/-2) !
$
$
 LIST-OF-REFERENCE
 NUMBER  SOURCE
  Null   'Unknown source'
  Same   'Same or similar interaction as in the corresponding stable phase'
  REFLAV 'Laves phase convention: G(LAVES,X:X)=+3*GHSERXX+15000'
  COST   'COST 507 database'
  89Vah  'C. Vahlas, P.-Y. Chevalier, E. Blanquet,
          Calphad, 13, 273-92(1989); Si-W'
  91Din  'A.T. Dinsdale, Calphad, 15, 317-425(1991).'
!
