$
$ Database for Cr-Zr from K. Zeng et al. 1995
$
$ K. Zeng, M. Hamalainen, J. Alloys Compd., 220, 53-61(1995).
$
$ Dataset created 2011.03.12 by Bengt Hallstedt.
$ 2020.08.14: Modified for use with GES6.
$
$ C36 slightly modified from 93Zen. Otherwise the same as 93Zen.
$
$ 3-SL models for C14_LAVES and C36_LAVES. The C15_LAVES model is a standard
$ 2-SL model, but the pure element end members are not standard.
$
$ ------------------------------------------------------------------------------
 TEMP-LIM 298.15 6000.00 !
$
$ELEMENT NAME  REF. STATE               ATOMIC MASS H298-H0    S298    !
$
 ELEMENT VA   VACUUM                      0.0          0.0      0.0    ! 
 ELEMENT CR   BCC_A2                     51.996     4050.0     23.5429 ! 
 ELEMENT ZR   HCP_A3                     91.22      5566.27    39.1809 ! 
$ ------------------------------------------------------------------------------
$ Phase definitions
$
 PHASE LIQUID:L % 1 1 !
 CONST LIQUID:L : CR ZR : !
$
$ Fcc (cF4, Fm-3m) and MeX (cF8, Fm-3m)
$
 PHASE FCC_A1 %A 2 1 1 !
 CONST FCC_A1 : CR ZR : VA : !
$
$ Bcc (cI2, Im-3m)
$
 PHASE BCC_A2 %B 2 1 3 !
 CONST BCC_A2 : CR% ZR% : VA : !
$
$ Hcp (hP2, P6_3/mmc) and Me2X (NiAs-type, hP4, P6_3/mmc, B8_1)
$
 PHASE HCP_A3 %A 2 1 0.5 !
 CONST HCP_A3 : CR ZR% : VA : !
$
$ Prototype MgZn2 (hP12, P6_3/mmc), gamma
$
 PHASE C14_LAVES % 3 2 4 6 !
 CONST C14_LAVES : CR : CR ZR : CR ZR : !
$
$ Prototype Cu2Mg (cF24, Fd-3m), alpha
$
 PHASE C15_LAVES % 2 2 1 !
 CONST C15_LAVES : CR ZR : CR ZR : !
$
$ Prototype MgNi2 (hP24, P6_3/mmc), beta
$
 PHASE C36_LAVES % 3 2 4 6 !
 CONST C36_LAVES : CR : CR ZR : CR ZR : !
$ ------------------------------------------------------------------------------
$ Defaults
$
 DEFINE-SYSTEM-DEFAULT ELEMENT 2 !
 DEFAULT-COM DEFINE_SYSTEM_ELEMENT VA !
 TYPE-DEF % SEQ * !
 TYPE-DEF A GES AMEND_PHASE_DESCRIPTION @ MAGNETIC -3 0.28 !
 TYPE-DEF B GES AMEND_PHASE_DESCRIPTION @ MAGNETIC -1 0.4 !
 FUNCTION ZERO      298.15  0;                                         6000 N !
 FUNCTION UN_ASS    298.15  0;                                         6000 N !
 FUNCTION R         298.15  +8.31451;                                  6000 N !
$ ------------------------------------------------------------------------------
$ Element data
$ ------------------------------------------------------------------------------
$ Cr
$
 PAR  G(BCC_A2,CR:VA),,                 +GHSERCR;,,                   N 91Din !
 PAR  TC(BCC_A2,CR:VA),,                 -311.50;,,                   N 91Din !
 PAR  BM(BCC_A2,CR:VA),,                   -0.008;,,                  N 91Din !
 PAR  G(FCC_A1,CR:VA),,                 +GHSERCR+7284+0.163*T;,,      N 91Din !
 PAR  TC(FCC_A1,CR:VA),,                -1109.00;,,                   N 91Din !
 PAR  BM(FCC_A1,CR:VA),,                   -2.46;,,                   N 91Din !
 PAR  G(HCP_A3,CR:VA),,                 +GHSERCR+4438;,,              N 91Din !
 PAR  TC(HCP_A3,CR:VA),,                -1109.00;,,                   N 91Din !
 PAR  BM(HCP_A3,CR:VA),,                   -2.46;,,                   N 91Din !
$PAR  G(CUB_A13,CR:VA),,                +GHSERCR+15899+0.6276*T;,,    N 91Din !
$PAR  G(CBCC_A12,CR:VA),,               +GHSERCR+11087+2.7196*T;,,    N 91Din !
 PAR  G(LIQUID,CR),,                    +GLIQCR;,,                    N 91Din !
$
 PAR  G(C14_LAVES,CR:CR:CR),,           +12*GHSERCR
             +251557.94-62.52455*T;,,                                 N 93Zen !
 PAR  G(C15_LAVES,CR:CR),,              +3*GHSERCR
             +506.06+21.4756*T;,,                                     N 93Zen !
 PAR  G(C36_LAVES,CR:CR:CR),,           +12*GHSERCR
             -3100.06+83.49948*T;,,                                   N 95Zen !
$
 FUNCTION GHSERCR   298.15  -8856.94+157.48*T-26.908*T*LN(T)
       +0.00189435*T**2-1.47721E-06*T**3+139250*T**(-1);
      2180.00  Y  -34869.344+344.18*T-50*T*LN(T)-2.88526E+32*T**(-9);
      6000.00  N !
 FUNCTION GLIQCR    298.15  +24339.955-11.420225*T+GHSERCR+2.37615E-21*T**7;
      2180.00  Y  -16459.984+335.616316*T-50*T*LN(T);
      6000.00  N !
 FUNCTION GFCCCR    298.15  +GHSERCR+7284+0.163*T;                     6000 N !
$ ------------------------------------------------------------------------------
$ Zr
$
$ CUB_A13, CBCC_A12, ORTHORHOMBIC_A20 and TETRAGONAL_U added in unary 4.1
$
 PAR  G(HCP_A3,ZR:VA)           130.00  +GHSERZR;,,                   N 91Din !
 PAR  G(BCC_A2,ZR:VA)           130.00  +GBCCZR;,,                    N 91Din !
$PAR  G(OMEGA,ZR)               130.00  +GOMEZR;,,                    N 91Din !
 PAR  G(FCC_A1,ZR:VA)           130.00  +GHSERZR+7600-0.9*T;,,        N 91Din !
$PAR  G(CBCC_A12,ZR:VA)         130.00  +GHSERZR+4602.2;,,            N 99SGUN !
$PAR  G(CUB_A13,ZR:VA)          130.00  +GHSERZR+7531.2;,,            N 99SGUN !
$PAR  G(ORTHORHOMBIC_A20,ZR)    130.00  +GBCCZR+5000;,,               N 99SGUN !
$PAR  G(TETRAGONAL_U,ZR)        130.00  +GBCCZR+5000;,,               N 99SGUN !
 PAR  G(LIQUID,ZR)              130.00  +GLIQZR;,,                    N 91Din !
$
 PAR  G(C15_LAVES,ZR:ZR),,              +3*GHSERZR
             +47469.75+10.09822*T;,,                                  N 93Zen !
$
 FUNCTION GHSERZR   130.00  -7827.595+125.64905*T-24.1618*T*LN(T)
       -0.00437791*T**2+34971*T**(-1);
      2128.00  Y  -26085.921+262.724183*T-42.144*T*LN(T)-1.342896E+31*T**(-9);
      6000.00  N !
 FUNCTION GBCCZR    130.00  -525.539+124.9457*T-25.607406*T*LN(T)
       -3.40084E-04*T**2-9.729E-09*T**3+25233*T**(-1)-7.6143E-11*T**4;
      2128.00  Y  -4620.034+1.55998*T+GHSERZR+1.4103476E+32*T**(-9);
      6000.00  N !
 FUNCTION GOMEZR    130.00  -8878.082+144.432234*T-26.8556*T*LN(T)
       -0.002799446*T**2+38376*T**(-1);
      2128.00  Y  -3414.603+2.566675*T+GHSERZR+8.517346E+31*T**(-9);
      6000.00  N !
 FUNCTION GLIQZR    130.00  +18147.69-9.080812*T+GHSERZR+1.6275E-22*T**7;
      2128.00  Y  -8281.26+253.812609*T-42.144*T*LN(T);
      6000.00  N !
$ ------------------------------------------------------------------------------
$ Binary system
$
$ K. Zeng, M. Hamalainen, J. Alloys Compd., 220, 53-61(1995).
$
$ C36 slightly modified from 93Zen2. Otherwise the same as 93Zen2.
$
$ Checked at 6000 K.
$
$ There is nothing to check against in the paper, but the phase diagram
$ appears to be correctly reproduced.
$
$ 3-SL models for C14_LAVES and C36_LAVES. The C15_LAVES model is a standard
$ 2-SL model, but the pure element end members are not standard.
$
 PAR  L(LIQUID,CR,ZR;0),,               -12971.34+1.20015*T;,,        N 93Zen !
 PAR  L(LIQUID,CR,ZR;1),,               +8025.96-0.74259*T;,,         N 93Zen !
 PAR  L(LIQUID,CR,ZR;2),,               -9984.87+0.92383*T;,,         N 93Zen !
$
 PAR  L(BCC_A2,CR,ZR:VA;0),,            +16555.47+4.92028*T;,,        N 93Zen !
 PAR  L(BCC_A2,CR,ZR:VA;1),,            +11365.57;,,                  N 93Zen !
$
 PAR  L(HCP_A3,CR,ZR:VA;0),,            +15800;,,                     N 93Zen !
$
 PAR  G(C14_LAVES,CR:CR:ZR),,           +6*GHSERCR+6*GHSERZR
             +472754.75-62.52455*T;,,                                 N 93Zen !
 PAR  G(C14_LAVES,CR:ZR:CR),,           +8*GHSERCR+4*GHSERZR
             +790.68-62.52455*T;,,                                    N 93Zen !
 PAR  G(C14_LAVES,CR:ZR:ZR),,           +2*GHSERCR+10*GHSERZR
             +221987.44-62.52455*T;,,                                 N 93Zen !
$
 PAR  G(C15_LAVES,CR:ZR),,              +2*GHSERCR+GHSERZR
             -81722+27.35939*T;,,                                     N 93Zen !
 PAR  G(C15_LAVES,ZR:CR),,              +2*GHSERZR+GHSERCR
             +129697.81+4.21443*T;,,                                  N 93Zen !
$
 PAR  G(C36_LAVES,CR:CR:ZR),,           +6*GHSERCR+6*GHSERZR
             +255809.25+83.49948*T;,,                                 N 95Zen !
 PAR  G(C36_LAVES,CR:ZR:CR),,           +8*GHSERCR+4*GHSERZR
             -278840.06+83.49948*T;,,                                 N 95Zen !
 PAR  G(C36_LAVES,CR:ZR:ZR),,           +2*GHSERCR+10*GHSERZR
             -19930.75+83.49948*T;,,                                  N 95Zen !
$
$ metastable
$
 PAR  L(FCC_A1,CR,ZR:VA;0),,            +20000;,,                     N 95Zen !
$ ------------------------------------------------------------------------------
$
 ASSESSED_SYSTEM
  CR-ZR(TDB -* +LIQ +BCC_A2 +HCP_A3 +C14_LAV +C15_LAV +C36_LAV
  ;P3 TMM:300/2500 *) !
$
$
 LIST-OF-REFERENCE
 NUMBER  SOURCE
  Null   'Unknown source'
  Same   'Same or similar interaction as in the corresponding stable phase'
  REFLAV 'Laves phase convention: G(LAVES,X:X)=+3*GHSERXX+15000'
  91Din  'A.T. Dinsdale, Calphad, 15, 317-425(1991).'
  93Zen  'K. Zeng, M. Hamalainen, I. Ansara,
          Z. Metallkd., 84, 23-28(1993); Cr-Zr'
  95Zen  'K. Zeng, M. Hamalainen, J. Alloys Compd., 220, 53-61(1995);
          Cr-Zr, Cr-Cu-Zr'
  99SGUN 'SGTE unary database V.4.1, 1999.'
!
