$
$ Database for Tb-B from Q. Wei et al. 2022.
$
$ Q. Wei, M.H. Rong, S. Li, D. Su, Q.R. Yao, J. Wang, Q. Chen, G.H. Rao,
$ H.Y. Zhou, Int. J. Mater. Res., 113, 400-418(2022).
$
$ Dataset created 2021.05.20 by Bengt Hallstedt.
$
$ ------------------------------------------------------------------------------
 TEMP-LIM 298.15 6000.00 !
$
$ELEMENT NAME  REF. STATE               ATOMIC MASS H298-H0    S298    !
$
 ELEMENT VA   VACUUM                      0.0          0.0      0.0    ! 
 ELEMENT B    BETA_RHOMBO_B              10.81      1222.0      5.9    ! 
 ELEMENT TB   HCP_A3                    158.9254    9426.552   73.3037 ! 
$ ------------------------------------------------------------------------------
$ Phase definitions
$
 PHASE LIQUID:L % 1 1 !
 CONST LIQUID:L : B TB : !
$
$ Bcc (cI2, Im-3m)
$
 PHASE BCC_A2 %B 2 1 3 !
 CONST BCC_A2 : TB : VA : !
$
$ Hcp (hP2, P6_3/mmc) and Me2X (NiAs-type, hP4, P6_3/mmc, B8_1)
$
 PHASE HCP_A3 % 2 1 0.5 !
 CONST HCP_A3 : TB : VA : !
$
$ Prototype alpha-B (hR12, R-3m)
$
 PHASE ALPHA_RHOMBO_B % 1 1 !
 CONST ALPHA_RHOMBO_B : B : !
$
$ Prototype beta-B (hR105, R-3m)
$
 PHASE BETA_RHOMBO_B % 1 1 !
 CONST BETA_RHOMBO_B : B : !
$
$ Prototype AlB2 (hP3, P6/mmm)
$
 PHASE TBB2_C32 % 2 1 2 !
 CONST TBB2_C32 : TB : B : !
$
$ Prototype UB4 (tP20, P4/mbm)
$
 PHASE TBB4_D1E % 2 1 4 !
 CONST TBB4_D1E : TB : B : !
$
$ Prototype CaB6 (cP7, Pm-3m)
$
 PHASE TBB6_D21 % 2 1 6 !
 CONST TBB6_D21 : TB : B : !
$
$ Prototype UB12 (cF52, Fm-3m)
$
 PHASE TBB12_D2F % 2 1 12 !
 CONST TBB12_D2F : TB : B : !
$
$ Prototype YB66 (cF1936, Fm-3c)
$
 PHASE TBB66 % 2 1 66 !
 CONST TBB66 : TB : B : !
$ ------------------------------------------------------------------------------
$ Defaults
$
 DEFINE-SYSTEM-DEFAULT ELEMENT 2 !
 DEFAULT-COM DEFINE_SYSTEM_ELEMENT VA !
 TYPE-DEF % SEQ * !
 TYPE-DEF A GES AMEND_PHASE_DESCRIPTION @ MAGNETIC -3 0.28 !
 TYPE-DEF B GES AMEND_PHASE_DESCRIPTION @ MAGNETIC -1 0.4 !
 FUNCTION ZERO      298.15  0;                                         6000 N !
 FUNCTION UN_ASS    298.15  0;                                         6000 N !
 FUNCTION R         298.15  +8.31451;                                  6000 N !
$ ------------------------------------------------------------------------------
$ Element data
$ ------------------------------------------------------------------------------
$ B
$
$ FCC_A1, HCP_A3, DIAMOND_A4 and GRAPHITE added in unary 3.0
$ BCC_A2 added in unary 4.1
$ GRAPHITE revised in unary 4.4 (using the value from COST 507)
$ FCC_A1, BCC_A2 and HCP_A3 removed in unary 5.0
$ ALPHA_RHOMBO_B added in unary 5.0
$
$ FCC_A1, BCC_A2 and HCP_A3 still in SGSOL 5.0
$ The value for FCC_A1 in COST (and SGTE) is possibly incorrect.
$
 PAR  G(BETA_RHOMBO_B,B),,              +GHSERBB;,,                   N 91Din !
 PAR  G(ALPHA_RHOMBO_B,B),,             +GALPBB;,,                    N 09SGUN !
$PAR  G(FCC_A1,B:VA),,                  +GHSERBB+43514-12.217*T;,,    N SGCOST !
$PAR  G(FCC_A1,B:VA),,                  +GHSERBB+50208-13.472*T;,,    N 94Hal !
$PAR  G(BCC_A2,B:VA),,                  +GHSERBB+43514-12.217*T;,,    N 94Hal !
$PAR  G(HCP_A3,B:VA),,                  +GHSERBB+50208-9.706*T;,,     N SGCOST !
$PAR  G(GRAPHITE,B),,                   +GHSERBB+10000-2*T;,,         N SGCOST !
$PAR  G(GRAPHITE,B),,                   +GHSERBB+5000;,,              N 96SGUN !
$PAR  G(DIAMOND_A4,B),,                 +GHSERBB+10;,,                N 99SGUN !
$PAR  G(DIAMOND_A4,B),,                 +GHSERBB+20;,,                N COST !
$PAR  G(DIAMOND_A4,B),,                 +GHSERBB;,,                   N 96SGUN !
 PAR  G(LIQUID,B),,                     +GLIQBB;,,                    N 91Din !
$
 FUNCTION GHSERBB   298.15  -7735.284+107.111864*T-15.6641*T*LN(T)
       -0.006864515*T**2+6.18878E-07*T**3+370843*T**(-1);
      1100.00  Y  -16649.474+184.801744*T-26.6047*T*LN(T)
       -7.9809E-04*T**2-2.556E-08*T**3+1748270*T**(-1);
      2348.00  Y  -36667.582+231.336244*T-31.5957527*T*LN(T)
       -0.00159488*T**2+1.34719E-07*T**3+11205883*T**(-1);
      3000.00  Y  -21530.653+222.396264*T-31.4*T*LN(T);
      6000.00  N !
 FUNCTION GALPBB    298.15  -6076.24+86.648762*T-12.942464*T*LN(T)
       -7.089468E-3*T**2+0.659896E-6*T**3-45*T**(-1);
      1400.00  Y  +28477.506-106.789208*T+12.1072478*T*LN(T)
       -13.316875E-3*T**2+0.706895E-6*T**3-8002403*T**(-1);
      3000.00  Y  -25699.64+225.127135*T-31.4*T*LN(T);
      6000.00  N !
 FUNCTION GLIQBB    298.15  +48458.559-20.268025*T+GHSERBB;
       500.00  Y  +41119.703+82.101722*T-14.9827763*T*LN(T)
       -0.007095669*T**2+5.07347E-07*T**3+335484*T**(-1);
      2348.00  Y  +28842.012+200.94731*T-31.4*T*LN(T);
      3000.00  Y  +50372.665-21.448954*T+GHSERBB;
      6000.00  N !
 FUNCTION GFCCBB    298.15  +GHSERBB+43514-12.217*T;                   6000 N !
$ ------------------------------------------------------------------------------
$ Tb
$
 PAR  G(HCP_A3,TB:VA),,                 +GHSERTB;                3000 N 91Din !
 PAR  G(BCC_A2,TB:VA),,                 +GBCCTB;                 3000 N 91Din !
 PAR  G(LIQUID,TB),,                    +GLIQTB;                 3000 N 91Din !
$
 FUNCTION GHSERTB   298.15  -20842.158+409.309555*T-77.5006*T*LN(T)
       +0.0832265*T**2-2.5672833E-05*T**3+562430*T**(-1);
       600.00  Y  -8772.606+102.61162*T-25.8659*T*LN(T)
       -0.002757005*T**2-8.05838E-07*T**3+172355*T**(-1);
      1200.00  Y  -7944.942+101.7776*T-25.9584*T*LN(T)
       -0.001676335*T**2-1.067632E-06*T**3;
      1562.00  Y  -265240.309+1456.04268*T-200.215695*T*LN(T)
       +0.041615159*T**2-2.044697E-06*T**3+65043790*T**(-1);
      3000.00  N !
 FUNCTION GBCCTB    298.15  +4167.835-2.652707*T+GHSERTB;
      1200.00  Y  +633060.245-5157.77779*T+706.580596*T*LN(T)
       -0.373763517*T**2+3.4100235E-05*T**3-1.03233571E+08*T**(-1);
      1562.00  Y  -23398.029+257.388486*T-46.4842*T*LN(T);
      3000.00  N !
 FUNCTION GLIQTB    298.15  +3945.831+29.867521*T-14.252646*T*LN(T)
       -0.020466105*T**2+2.17475E-06*T**3-160724*T**(-1);
      1562.00  Y  -13247.649+251.16889*T-46.4842*T*LN(T);
      3000.00  N !
$ ------------------------------------------------------------------------------
$ Binary system
$
$ Q. Wei, M.H. Rong, S. Li, D. Su, Q.R. Yao, J. Wang, Q. Chen, G.H. Rao,
$ H.Y. Zhou, Int. J. Mater. Res., 113, 400-418(2022).
$
$ Checked against paper. Checked at 6000 K.
$
 PAR  L(LIQUID,B,TB;0),,                -75000-8.027*T;,,             N 22Wei !
 PAR  L(LIQUID,B,TB;1),,                -30581.112-4.0176*T;,,        N 22Wei !
 PAR  L(LIQUID,B,TB;2),,                -10202.104;,,                 N 22Wei !
$
 PAR  G(TBB2_C32,TB:B),,                +GHSERTB+2*GHSERBB
             -152637.036+10.836*T;,,                                  N 22Wei !
 PAR  G(TBB4_D1E,TB:B),,                +GHSERTB+4*GHSERBB
             -225000+2.95*T;,,                                        N 22Wei !
 PAR  G(TBB6_D21,TB:B),,                +GHSERTB+6*GHSERBB
             -230320.86-1.162*T;,,                                    N 22Wei !
 PAR  G(TBB12_D2F,TB:B),,               +GHSERTB+12*GHSERBB
             -247258.921-2.6286*T;,,                                  N 22Wei !
 PAR  G(TBB66,TB:B),,                   +GHSERTB+66*GHSERBB
             -268000-10.05*T;,,                                       N 22Wei !
$ ------------------------------------------------------------------------------
$
$
 LIST-OF-REFERENCE
 NUMBER  SOURCE
  Null   'Unknown source'
  REFLAV 'Laves phase convention: G(LAVES,X:X)=+3*GHSERXX+15000'
  COST   'COST 507 database'
  SGCOST 'COST 507 database, SGTE unary database V.3.0, 1996; Al, B, Nd, Ti, Zn'
  91Din  'A.T. Dinsdale, Calphad, 15, 317-425(1991).'
  94Hal  'B. Hallemans, P. Wollants, J.R. Roos,
          Z. Metallkd., 85, 676-82(1994), SGTE unary database V.4.1, 1999; B'
  96SGUN 'SGTE unary database V.3.0, 1996.'
  99SGUN 'SGTE unary database V.4.1, 1999.'
  09SGUN 'SGTE unary database V.5.0, 2009.'
  22Wei  'Q. Wei, M.H. Rong, S. Li, D. Su, Q.R. Yao, J. Wang, Q. Chen, G.H. Rao,
          H.Y. Zhou, Int. J. Mater. Res., 113, 400-418(2022); Tb-B'
!
