$
$ Database for Mo-Zr from M. Zinkevich and N. Mattern 2002.
$
$ M. Zinkevich, N. Mattern, J. Phase Equilib., 23, 156-62(2002).
$
$ Dataset created 2023.10.22 by Bengt Hallstedt.
$
$ The invariant equilibria in Table 1 are exactly reproduced, but the Mo-rich
$ part in the phase diagram in Fig. 1 looks slightly different.
$
$ There is an inverse miscinility gap with a minimum at 4664 K and x(ZR)=0.58.
$
$ ------------------------------------------------------------------------------
 TEMP-LIM 298.15 6000.00 !
$
$ELEMENT NAME  REF. STATE               ATOMIC MASS H298-H0    S298    !
$
 ELEMENT VA   VACUUM                      0.0          0.0      0.0    ! 
 ELEMENT MO   BCC_A2                     95.94      4589.0     28.56   ! 
 ELEMENT ZR   HCP_A3                     91.22      5566.27    39.1809 ! 
$ ------------------------------------------------------------------------------
$ Phase definitions
$
 PHASE LIQUID:L % 1 1 !
 CONST LIQUID:L : MO ZR : !
$
$ Fcc (cF4, Fm-3m) and MeX (cF8, Fm-3m)
$
 PHASE FCC_A1 %A 2 1 1 !
 CONST FCC_A1 : MO ZR : VA : !
$
$ Bcc (cI2, Im-3m)
$
 PHASE BCC_A2 %B 2 1 3 !
 CONST BCC_A2 : MO ZR : VA : !
$
$ Hcp (hP2, P6_3/mmc) and Me2X (NiAs-type, hP4, P6_3/mmc, B8_1)
$
 PHASE HCP_A3 %A 2 1 0.5 !
 CONST HCP_A3 : MO ZR% : VA : !
$
$ Prototype Cu2Mg (cF24, Fd-3m)
$
 PHASE C15_LAVES % 2 2 1 !
 CONST C15_LAVES : MO% ZR : MO ZR% : !
$ ------------------------------------------------------------------------------
$ Defaults
$
 DEFINE-SYSTEM-DEFAULT ELEMENT 2 !
 DEFAULT-COM DEFINE_SYSTEM_ELEMENT VA !
 TYPE-DEF % SEQ * !
 TYPE-DEF A GES AMEND_PHASE_DESCRIPTION @ MAGNETIC -3 0.28 !
 TYPE-DEF B GES AMEND_PHASE_DESCRIPTION @ MAGNETIC -1 0.4 !
 FUNCTION ZERO      298.15  0;                                         6000 N !
 FUNCTION UN_ASS    298.15  0;                                         6000 N !
 FUNCTION R         298.15  +8.31451;                                  6000 N !
$ ------------------------------------------------------------------------------
$ Element data
$ ------------------------------------------------------------------------------
$ Mo
$
 PAR  G(BCC_A2,MO:VA),,                 +GHSERMO;                5000 N 91Din !
 PAR  G(FCC_A1,MO:VA),,                 +GHSERMO+15200+0.63*T;   5000 N 91Din !
 PAR  G(HCP_A3,MO:VA),,                 +GHSERMO+11550;          5000 N 91Din !
 PAR  G(LIQUID,MO),,                    +GLIQMO;                 5000 N 91Din !
$
 PAR  G(C15_LAVES,MO:MO),,              +3*GHSERMO+15000;,,           N REFLAV !
$
 FUNCTION GHSERMO   298.15  -7746.302+131.9197*T-23.56414*T*LN(T)
       -0.003443396*T**2+5.66283E-07*T**3+65812*T**(-1)-1.30927E-10*T**4;
      2896.00  Y  -30556.41+283.559746*T-42.63829*T*LN(T)-4.849315E+33*T**(-9);
      5000.00  N !
 FUNCTION GLIQMO    298.15  +41831.347-14.694912*T+GHSERMO+4.24519E-22*T**7;
      2896.00  Y  +3538.963+271.6697*T-42.63829*T*LN(T);
      5000.00  N !
 FUNCTION GFCCMO    298.15  +GHSERMO+15200+0.63*T;                     6000 N !
$ ------------------------------------------------------------------------------
$ Zr
$
$ CUB_A13, CBCC_A12, ORTHORHOMBIC_A20 and TETRAGONAL_U added in unary 4.1
$
 PAR  G(HCP_A3,ZR:VA)           130.00  +GHSERZR;,,                   N 91Din !
 PAR  G(BCC_A2,ZR:VA)           130.00  +GBCCZR;,,                    N 91Din !
$PAR  G(OMEGA,ZR)               130.00  +GOMEZR;,,                    N 91Din !
 PAR  G(FCC_A1,ZR:VA)           130.00  +GHSERZR+7600-0.9*T;,,        N 91Din !
$PAR  G(CBCC_A12,ZR:VA)         130.00  +GHSERZR+4602.2;,,            N 99SGUN !
$PAR  G(CUB_A13,ZR:VA)          130.00  +GHSERZR+7531.2;,,            N 99SGUN !
$PAR  G(ORTHORHOMBIC_A20,ZR)    130.00  +GBCCZR+5000;,,               N 99SGUN !
$PAR  G(TETRAGONAL_U,ZR)        130.00  +GBCCZR+5000;,,               N 99SGUN !
 PAR  G(LIQUID,ZR)              130.00  +GLIQZR;,,                    N 91Din !
$
 PAR  G(C15_LAVES,ZR:ZR),,              +3*GHSERZR+15000;,,           N REFLAV !
$
 FUNCTION GHSERZR   130.00  -7827.595+125.64905*T-24.1618*T*LN(T)
       -0.00437791*T**2+34971*T**(-1);
      2128.00  Y  -26085.921+262.724183*T-42.144*T*LN(T)-1.342896E+31*T**(-9);
      6000.00  N !
 FUNCTION GBCCZR    130.00  -525.539+124.9457*T-25.607406*T*LN(T)
       -3.40084E-04*T**2-9.729E-09*T**3+25233*T**(-1)-7.6143E-11*T**4;
      2128.00  Y  -4620.034+1.55998*T+GHSERZR+1.4103476E+32*T**(-9);
      6000.00  N !
 FUNCTION GOMEZR    130.00  -8878.082+144.432234*T-26.8556*T*LN(T)
       -0.002799446*T**2+38376*T**(-1);
      2128.00  Y  -3414.603+2.566675*T+GHSERZR+8.517346E+31*T**(-9);
      6000.00  N !
 FUNCTION GLIQZR    130.00  +18147.69-9.080812*T+GHSERZR+1.6275E-22*T**7;
      2128.00  Y  -8281.26+253.812609*T-42.144*T*LN(T);
      6000.00  N !
 FUNCTION GFCCZR    130.00  +GHSERZR+7600-0.9*T;                       6000 N !
$ ------------------------------------------------------------------------------
$ Binary system
$
$ M. Zinkevich, N. Mattern, J. Phase Equilib., 23, 156-62(2002).
$
$ Checked against paper. Checked at 6000 K.
$
$ The invariant equilibria in Table 1 are exactly reproduced, but the Mo-rich
$ part in the phase diagram in Fig. 1 looks slightly different.
$
$ There is an inverse miscinility gap with a minimum at 4664 K and x(ZR)=0.58.
$
 PAR  L(LIQUID,MO,ZR;0),,               -52296+27.387*T;,,            N 02Zin !
 PAR  L(LIQUID,MO,ZR;1),,               +1453-2.1715*T;,,             N 02Zin !
$
 PAR  L(HCP_A3,MO,ZR:VA;0),,            +30000+0.32*T;,,              N 02Zin !
$
 PAR  L(BCC_A2,MO,ZR:VA;0),,            +9833+12.877*T;,,             N 02Zin !
 PAR  L(BCC_A2,MO,ZR:VA;1),,            +4685+1.412*T;,,              N 02Zin !
$
 PAR  G(C15_LAVES,MO:ZR),,              +2*GHSERMO+GHSERZR
             -13546.8+0.9*T;,,                                        N 02Zin !
 PAR  G(C15_LAVES,ZR:MO),,              +2*GHSERZR+GHSERMO+15000;,,   N 02Zin !
 PAR  L(C15_LAVES,MO,ZR:MO;0),,         +66087;,,                     N 02Zin !
 PAR  L(C15_LAVES,MO,ZR:ZR;0),,         +66087;,,                     N 02Zin !
 PAR  L(C15_LAVES,MO:MO,ZR;0),,         +38331;,,                     N 02Zin !
 PAR  L(C15_LAVES,ZR:MO,ZR;0),,         +38331;,,                     N 02Zin !
$
$ Metastable
$
 PAR  L(FCC_A1,MO,ZR:VA;0),,            +30000+0.32*T;,,              N Same !
$ ------------------------------------------------------------------------------
$
 ASSESSED_SYSTEM
  MO-ZR(TDB -* +LIQUID +BCC-A2 +HCP_A3 +C15_LAVES
    ;G5 C_S:BCC_A2/ZR:VA MAJ:BCC_A2/MO:VA ;P3 *) !
$
$
 LIST-OF-REFERENCE
 NUMBER  SOURCE
  Null   'Unknown source'
  Lin    'Linear combination of lattice stabilities'
  Same   'Same or similar interaction as in the corresponding stable phase'
  REFLAV 'Laves phase convention: G(LAVES,X:X)=+3*GHSERXX+15000'
  91Din  'A.T. Dinsdale, Calphad, 15, 317-425(1991).'
  99SGUN 'SGTE unary database V.4.1, 1999.'
  02Zin  'M. Zinkevich, N. Mattern, J. Phase Equilib., 23, 156-62(2002); Mo-Zr'
!
