$
$ Database for Ni-H from K. Zeng et al. 1999.
$
$ K. Zeng, T. Klassen, W. Oelerich, R. Bormann,
$ J. Alloys Compd., 283, 151-61(1999).
$
$ Dataset created 2018.10.21 by Bengt Hallstedt.
$ 2021.02.02: Modified for use with GES6.
$
$ ------------------------------------------------------------------------------
 TEMP-LIM 298.15 6000.00 !
$
$ELEMENT NAME  REF. STATE               ATOMIC MASS H298-H0    S298    !
$
 ELEMENT VA   VACUUM                      0.0          0.0      0.0    ! 
 ELEMENT H    1/2_MOLE_H2(G)              1.0079    4234.      65.285  ! 
 ELEMENT NI   FCC_A1                     58.69      4787.0     29.7955 ! 
$ ------------------------------------------------------------------------------
$ Species
$
 SPECIE  H2                                 H2 !
 SPECIE  NI2                                NI2 !
$ ------------------------------------------------------------------------------
$ Phase definitions
$
 PHASE LIQUID:L % 1 1 !
 CONST LIQUID:L : H NI : !
$
$ Fcc (cF4, Fm-3m) and MeX (cF8, Fm-3m)
$
 PHASE FCC_A1 %A 2 1 1 !
 CONST FCC_A1 : NI : H VA% : !
$
$ Bcc (cI2, Im-3m)
$
 PHASE BCC_A2 %B 2 1 3 !
 CONST BCC_A2 : NI : H VA% : !
$
$ Hcp (hP2, P6_3/mmc) and Me2X (NiAs-type, hP4, P6_3/mmc, B8_1)
$
 PHASE HCP_A3 %A 2 1 0.5 !
 CONST HCP_A3 : NI : H VA% : !
$
 PHASE GAS:G % 1 1 !
 CONST GAS:G : NI NI2 H H2 : !
$ ------------------------------------------------------------------------------
$ Defaults
$
 DEFINE-SYSTEM-DEFAULT ELEMENT 2 !
 DEFAULT-COM DEFINE_SYSTEM_ELEMENT VA !
 TYPE-DEF % SEQ * !
 TYPE-DEF A GES AMEND_PHASE_DESCRIPTION @ MAGNETIC -3 0.28 !
 TYPE-DEF B GES AMEND_PHASE_DESCRIPTION @ MAGNETIC -1 0.4 !
 FUNCTION ZERO      298.15  0;                                         6000 N !
 FUNCTION UN_ASS    298.15  0;                                         6000 N !
 FUNCTION R         298.15  +8.31451;                                  6000 N !
 FUNCTION RTLNP     298.15  +8.31451*T*LN(1E-05*P);                    6000 N !
$ ------------------------------------------------------------------------------
$ Element data
$ ------------------------------------------------------------------------------
$ H
$
$ H is not included in unary
$
 PAR  G(LIQUID,H),,                     +0.5*GHSERH2
             +20946.25+35.31*T;,,                                     N 99Zen !
$PAR  G(LIQUID,H),,                     +0.5*GHSERH2
$            +8035+25*T+2*T*LN(T);,,                                  N 04Qiu !
$
 PAR  G(GAS,H),,                        +F10383T+RTLNP;,,             N 97SUB !
 PAR  G(GAS,H2),,                       +GHSERH2+RTLNP;,,             N 97SUB !
$
$ H(g)
 FUNCTION F10383T   298.15  +211801.621+24.4989821*T-20.78611*T*LN(T);
      6000.00  N !
$ H2(g)
 FUNCTION GHSERH2   298.15  -9522.9741+78.5273879*T-31.35707*T*LN(T)
       +0.0027589925*T**2-7.46390667E-07*T**3+56582.3*T**(-1);
      1000.00  Y  +180.108664-15.6128256*T-17.84857*T*LN(T)
       -0.00584168*T**2+3.14618667E-07*T**3-1280036*T**(-1);
      2100.00  Y  -18840.1663+92.3120255*T-32.05082*T*LN(T)
       -0.0010728235*T**2+1.14281783E-08*T**3+3561002.5*T**(-1);
      6000.00  N !
$ ------------------------------------------------------------------------------
$ Ni
$
$ FCC_A1 and LIQUID modified in unary 5.0 (slight change in upper T interval)
$ BCT_A5 added in unary 5.0
$
 PAR  G(FCC_A1,NI:VA),,                 +GHSERNI;                3000 N 91Din !
 PAR  TC(FCC_A1,NI:VA),,                  633.00;                3000 N 91Din !
 PAR  BM(FCC_A1,NI:VA),,                    0.52;                3000 N 91Din !
 PAR  G(BCC_A2,NI:VA),,                 +GHSERNI
             +8715.084-3.556*T;                                  3000 N 91Din !
 PAR  TC(BCC_A2,NI:VA),,                  575.00;                3000 N 91Din !
 PAR  BM(BCC_A2,NI:VA),,                    0.85;                3000 N 91Din !
 PAR  G(HCP_A3,NI:VA),,                 +GHSERNI+1046+1.255*T;   3000 N 91Din !
 PAR  TC(HCP_A3,NI:VA),,                  633.00;                3000 N 91Din !
 PAR  BM(HCP_A3,NI:VA),,                    0.52;                3000 N 91Din !
$PAR  G(BCT_A5,NI),,                    +GHSERNI+10023-4.556*T;  3000 N 99Gho !
$PAR  G(CBCC_A12,NI:VA),,               +GHSERNI+3556;           3000 N 91Din !
$PAR  G(CUB_A13,NI:VA),,                +GHSERNI+2092;           3000 N 91Din !
 PAR  G(LIQUID,NI),,                    +GLIQNI;                 3000 N 91Din !
$
 PAR  G(GAS,NI),,                       +F13191T+RTLNP;,,             N 97SUB !
 PAR  G(GAS,NI2),,                      +F13265T+RTLNP;,,             N 97SUB !
$
 FUNCTION GHSERNI   298.15  -5179.159+117.854*T-22.096*T*LN(T)-0.0048407*T**2;
      1728.00  Y  -27840.62+279.134977*T-43.1*T*LN(T)+1.12754E+31*T**(-9);
      3000.00  N !
 FUNCTION GLIQNI    298.15  +16414.686-9.397*T+GHSERNI-3.82318E-21*T**7;
      1728.00  Y  -9549.817+268.597977*T-43.1*T*LN(T);
      3000.00  N !
 FUNCTION GBCCNI    298.15  +GHSERNI+8715.084-3.556*T;                 6000 N !
$ Ni(g)
 FUNCTION F13191T   298.15  +417658.868-44.7777921*T-20.056*T*LN(T)
       -0.0060415*T**2+1.24774E-06*T**3-16320*T**(-1);
       800.00  Y  +413885.448+9.41787679*T-28.332*T*LN(T)
       +0.00173115*T**2-8.399E-08*T**3+289050*T**(-1);
      3900.00  Y  +440866.732-62.5810038*T-19.819*T*LN(T)
       +5.067E-04*T**2-4.93233333E-08*T**3-15879735*T**(-1);
      7600.00  Y  +848806.287-813.398164*T+64.69*T*LN(T)
       -0.00731865*T**2+8.71833333E-08*T**3-3.875846E+08*T**(-1);
     10000.00  N !
$ Ni2(g)
 FUNCTION F13265T   298.15  +638073.279-68.1901928*T-24.897*T*LN(T)
       -0.0313584*T**2+5.93355333E-06*T**3-14215*T**(-1);
       800.00  Y  +611401.772+268.084821*T-75.25401*T*LN(T)
       +0.01088525*T**2-7.08741667E-07*T**3+2633835*T**(-1);
      2100.00  Y  +637459.339+72.0712678*T-48.587*T*LN(T)
       -9.09E-05*T**2+9.12933333E-08*T**3-1191755*T**(-1);
      4500.00  Y  +564540.781+329.599011*T-80.11301*T*LN(T)
       +0.00578085*T**2-1.08841667E-07*T**3+29137900*T**(-1);
      6000.00  N !
$ ------------------------------------------------------------------------------
$ Binary system
$
$ K. Zeng, T. Klassen, W. Oelerich, R. Bormann,
$ J. Alloys Compd., 283, 151-61(1999).
$
$ Checked against paper.
$
 PAR  L(LIQUID,H,NI;0),,                +5965.3419-0.8*T;,,           N 99Zen !
$
 PAR  G(FCC_A1,NI:H),,                  +GHSERNI+0.5*GHSERH2
             -3120.7324+180.5062*T-16.255*T*LN(T)
             +6.052879E-04*T**2;,,                                    N 99Zen !
 PAR  L(FCC_A1,LA:H,VA;0),,             +ZERO;,,                      N 99Zen !
$
$ Metastable
$
 PAR  G(BCC_A2,NI:H),,                  +UN_ASS;,,                    N !
 PAR  L(BCC_A2,NI:H,VA;0),,             +UN_ASS;,,                    N !
$
 PAR  G(HCP_A3,NI:H),,                  +UN_ASS;,,                    N !
 PAR  L(HCP_A3,NI:H,VA;0),,             +UN_ASS;,,                    N !
$ ------------------------------------------------------------------------------
$
$
 LIST-OF-REFERENCE
 NUMBER  SOURCE
  Null   'Unknown source'
  Same   'Same or similar interaction as in the corresponding stable phase'
  COST   'COST 507 database'
  91Din  'A.T. Dinsdale, Calphad, 15, 317-425(1991).'
  97SUB  'SGTE substance database, version 1997'
  99Gho  'G. Ghosh, Metall. Mater. Trans. A, 30A, 1481-94(1999),
          SGTE unary database V.5.0, 2009; Ni'
  99Zen  'K. Zeng, T. Klassen, W. Oelerich, R. Bormann,
          J. Alloys Compd., 283, 151-61(1999); H, Ni-H'
  04Qiu  'C. Qiu, G.B. Olson, S.M. Opalka, D.L. Anton,
          J. Phase Equilib. Diffus., 25, 520-27(2004); H'
!
