$
$ Database for Co-Nd from X. Liu et al. 2007.
$
$ X. Liu, Z. Du, C. Guo, C. Li, J. Alloys Compd., 439, 97-102(2007).
$
$ Dataset created 2018.06.10 by Bengt Hallstedt.
$ 2020.12.25: Modified for use with GES6.
$
$ According to text BMAG are given per mole of formula unit. This should be
$ checked.
$
$ There is an inverse miscibility gap with a minimum at 4389 K and x(Nd)=0.41.
$
$ ------------------------------------------------------------------------------
 TEMP-LIM 298.15 6000.00 !
$
$ELEMENT NAME  REF. STATE               ATOMIC MASS H298-H0    S298    !
$
 ELEMENT VA   VACUUM                      0.0          0.0      0.0    ! 
 ELEMENT CO   HCP_A3                     58.9332    4765.567   30.0400 ! 
 ELEMENT ND   DHCP                      144.24      7133.72    71.0862 ! 
$ ------------------------------------------------------------------------------
$ Phase definitions
$
 PHASE LIQUID:L % 1 1 !
 CONST LIQUID:L : CO ND : !
$
$ Fcc (cF4, Fm-3m) and MeX (cF8, Fm-3m)
$
 PHASE FCC_A1 %A 2 1 1 !
 CONST FCC_A1 : CO% ND : VA : !
$
$ Bcc (cI2, Im-3m)
$
 PHASE BCC_A2 %B 2 1 3 !
 CONST BCC_A2 : CO ND% : VA : !
$
$ Hcp (hP2, P6_3/mmc) and Me2X (NiAs-type, hP4, P6_3/mmc, B8_1)
$
 PHASE HCP_A3 %A 2 1 0.5 !
 CONST HCP_A3 : CO% ND : VA : !
$
$ Prototype alpha-La (hP4, P6_3/mmc)
$
 PHASE DHCP % 1 1 !
 CONST DHCP : CO ND% : !
$
$ Prototype Th2Zn17 (hR19, R-3m)
$
 PHASE CO17ND2 %A 2 17 2 !
 CONST CO17ND2 : CO : ND : !
$
$ Prototype CaCu5 (hP6, P6/mmm)
$
 PHASE CO5ND_D2D %A 2 5 1 !
 CONST CO5ND_D2D : CO : ND : !
$
$ Prototype Ce5Co19 (hR24, R-3m)
$
 PHASE CO19ND5 %A 2 19 5 !
 CONST CO19ND5 : CO : ND : !
$
$ Prototype Ce2Ni7 (hP36, P6_3/mmc), LT
$ Prototype Co7Gd2 (hR18, R-3m), HT
$
 PHASE CO7ND2 %A 2 7 2 !
 CONST CO7ND2 : CO : ND : !
$
$ Prototype Ni3Pu (hR12, R-3m)
$
 PHASE CO3ND %A 2 3 1 !
 CONST CO3ND : CO : ND : !
$
$ Prototype Cu2Mg (cF24, Fd-3m)
$
 PHASE CO2ND_C15 %A 2 2 1 !
 CONST CO2ND_C15 : CO : ND : !
$
$ Prototype La2Ni3 (oC20, Cmce)
$
 PHASE CO3ND2_LT % 2 3 2 !
 CONST CO3ND2_LT : CO : ND : !
$
$ unknown structure
$
 PHASE CO3ND2_HT % 2 3 2 !
 CONST CO3ND2_HT : CO : ND : !
$
$ Pearson hP*
$
 PHASE CO3ND4 % 2 3 4 !
 CONST CO3ND4 : CO : ND : !
$
$ Prototype Mn5C2 (mC28, C2/c)
$
 PHASE CO2ND5 % 2 2 5 !
 CONST CO2ND5 : CO : ND : !
$
$ Prototype Fe3C (oP16, Pnma)
$
 PHASE COND3_D011 %A 2 1 3 !
 CONST COND3_D011 : CO : ND : !
$ ------------------------------------------------------------------------------
$ Defaults
$
 DEFINE-SYSTEM-DEFAULT ELEMENT 2 !
 DEFAULT-COM DEFINE_SYSTEM_ELEMENT VA !
 TYPE-DEF % SEQ * !
 TYPE-DEF A GES AMEND_PHASE_DESCRIPTION @ MAGNETIC -3 0.28 !
 TYPE-DEF B GES AMEND_PHASE_DESCRIPTION @ MAGNETIC -1 0.4 !
 FUNCTION ZERO      298.15  0;                                         6000 N !
 FUNCTION UN_ASS    298.15  0;                                         6000 N !
 FUNCTION R         298.15  +8.31451;                                  6000 N !
$ ------------------------------------------------------------------------------
$ Element data
$ ------------------------------------------------------------------------------
$ Co
$
$ DHCP from 07Liu not included in unary
$
 PAR  G(HCP_A3,CO:VA),,                 +GHSERCO;,,                   N 91Din !
 PAR  TC(HCP_A3,CO:VA),,                 1396.00;,,                   N 91Din !
 PAR  BM(HCP_A3,CO:VA),,                    1.35;,,                   N 91Din !
 PAR  G(FCC_A1,CO:VA),,                 +GHSERCO
             +427.591-0.615248*T;,,                                   N 91Din !
 PAR  TC(FCC_A1,CO:VA),,                 1396.00;,,                   N 91Din !
 PAR  BM(FCC_A1,CO:VA),,                    1.35;,,                   N 91Din !
 PAR  G(BCC_A2,CO:VA),,                 +GHSERCO+2938-0.7138*T;,,     N 91Din !
 PAR  TC(BCC_A2,CO:VA),,                 1450.00;,,                   N 91Din !
 PAR  BM(BCC_A2,CO:VA),,                    1.35;,,                   N 91Din !
 PAR  G(DHCP,CO),,                      +GHSERCO+5000;,,              N 07Liu !
$PAR  G(CBCC_A12,CO:VA),,               +GHSERCO+4155;,,              N 91Din !
$PAR  G(CUB_A13,CO:VA),,                +GHSERCO+3155;,,              N 91Din !
 PAR  G(LIQUID,CO),,                    +GLIQCO;,,                    N 91Din !
$
 FUNCTION GHSERCO   298.15  +310.241+133.36601*T-25.0861*T*LN(T)
       -0.002654739*T**2-1.7348E-07*T**3+72527*T**(-1);
      1768.00  Y  -17197.666+253.28374*T-40.5*T*LN(T)+9.3488E+30*T**(-9);
      6000.00  N !
 FUNCTION GLIQCO    298.15  +15085.037-8.931932*T+GHSERCO-2.19801E-21*T**7;
      1768.00  Y  -846.61+243.599944*T-40.5*T*LN(T);
      6000.00  N !
$ ------------------------------------------------------------------------------
$ Nd
$
$ DHCP and LIQUID modified in unary 3.0 (upper/lower T interval added)
$ FCC_A1 added in unary 3.0
$ HCP_A3 added in unary 4.4
$
$ HCP_A3 from 07Liu not included in unary
$
 PAR  G(DHCP,ND),,                      +GHSERND;                1800 N 91Din !
 PAR  G(BCC_A2,ND:VA),,                 +GBCCND;                 1800 N 91Din !
 PAR  G(FCC_A1,ND:VA),,                 +GHSERND+500;            1800 N SGCOST !
 PAR  G(HCP_A3,ND:VA),,                 +GHSERND
             +1500-0.415725*T;                                   1800 N 00Nor2 !
$PAR  G(HCP_A3,ND:VA),,                 +GHSERND+5000;           1800 N 07Liu !
 PAR  G(LIQUID,ND),,                    +GLIQND;                 1800 N 91Din !
$
 FUNCTION GHSERND   298.15  -8402.93+111.10239*T-27.0858*T*LN(T)
       +5.56125E-04*T**2-2.6923E-06*T**3+34887*T**(-1);
       900.00  Y  -6984.083+83.662617*T-22.7536*T*LN(T)
       -0.00420402*T**2-1.802E-06*T**3;
      1128.00  Y  -225610.846+1673.04075*T-238.182873*T*LN(T)
       +0.078615997*T**2-6.048207E-06*T**3+38810350*T**(-1);
      1799.00  Y  -25742.331+276.257088*T-48.7854*T*LN(T);
      1800.00  N !
 FUNCTION GBCCND    298.15  +1437.295-0.546281*T+GHSERND;
       400.00  Y  +7312.2-153.033976*T+14.9956777*T*LN(T)
       -0.050479*T**2+7.287217E-06*T**3-831810*T**(-1);
      1128.00  Y  -18030.266+239.677322*T-44.5596*T*LN(T);
      1289.00  Y  +334513.017-2363.9199*T+311.409193*T*LN(T)
       -0.156030778*T**2+1.2408421E-05*T**3-64319604*T**(-1);
      1800.00  N !
 FUNCTION GLIQND    298.15  +5051.743-1.585076*T+GHSERND;
       300.00  Y  +5350.01-86.593963*T+5.357301*T*LN(T)
       -0.046955463*T**2+6.860782E-06*T**3-374380*T**(-1);
      1128.00  Y  -16335.232+268.625903*T-48.7854*T*LN(T);
      1799.00  Y  +9407.099-7.631185*T+GHSERND;
      1800.00  N !
$ ------------------------------------------------------------------------------
$ Binary system
$
$ X. Liu, Z. Du, C. Guo, C. Li, J. Alloys Compd., 439, 97-102(2007).
$
$ Checked against paper. Checked at 6000 K.
$
$ According to text BMAG are given per mole of formula unit. This should be
$ checked.
$
$ There is an inverse miscibility gap with a minimum at 4389 K and x(Nd)=0.41.
$
 PAR  L(LIQUID,CO,ND;0),,               -92297+9.652*T;,,             N 07Liu !
 PAR  L(LIQUID,CO,ND;1),,               -6060+20.427*T;,,             N 07Liu !
 PAR  L(LIQUID,CO,ND;2),,               +71682-39.014*T;,,            N 07Liu !
$
 PAR  L(FCC_A1,CO,ND:VA;0),,            +2000;,,                      N 07Liu !
 PAR  L(BCC_A2,CO,ND:VA;0),,            +2000;,,                      N 07Liu !
 PAR  L(HCP_A3,CO,ND:VA;0),,            +UN_ASS;,,                    N !
 PAR  L(DHCP,CO,ND;0),,                 +2000;,,                      N 07Liu !
$
 PAR  G(CO17ND2,CO:ND),,                +17*GHSERCO+2*GHSERND
             -313664+94.459*T;,,                                      N 07Liu !
 PAR  TC(CO17ND2,CO:ND),,                1157.00;,,                   N 07Liu !
 PAR  BM(CO17ND2,CO:ND),,                  33.50;,,                   N 07Liu !
$
 PAR  G(CO5ND_D2D,CO:ND),,              +5*GHSERCO+GHSERND
             -125252+31.012*T;,,                                      N 07Liu !
 PAR  TC(CO5ND_D2D,CO:ND),,               910.00;,,                   N 07Liu !
 PAR  BM(CO5ND_D2D,CO:ND),,                10.60;,,                   N 07Liu !
$
 PAR  G(CO19ND5,CO:ND),,                +19*GHSERCO+5*GHSERND
             -607724+219.708*T-7.707899*T*LN(T);,,                    N 07Liu !
 PAR  TC(CO19ND5,CO:ND),,                 714.00;,,                   N 07Liu !
 PAR  BM(CO19ND5,CO:ND),,                  31.00;,,                   N 07Liu !
$
 PAR  G(CO7ND2,CO:ND),,                 +7*GHSERCO+2*GHSERND
            -230419+58.917*T;,,                                       N 07Liu !
 PAR  TC(CO7ND2,CO:ND),,                  609.00;,,                   N 07Liu !
 PAR  BM(CO7ND2,CO:ND),,                   13.10;,,                   N 07Liu !
$
 PAR  G(CO3ND,CO:ND),,                  +3*GHSERCO+GHSERND
             -106751+25.87*T;,,                                       N 07Liu !
 PAR  TC(CO3ND,CO:ND),,                   392.60;,,                   N 07Liu !
 PAR  BM(CO3ND,CO:ND),,                     5.52;,,                   N 07Liu !
$
 PAR  G(CO2ND_C15,CO:ND),,              +2*GHSERCO+GHSERND
             -86543+17.408*T;,,                                       N 07Liu !
 PAR  TC(CO2ND_C15,CO:ND),,               105.30;,,                   N 07Liu !
 PAR  BM(CO2ND_C15,CO:ND),,                 3.45;,,                   N 07Liu !
$
 PAR  G(CO3ND2_LT,CO:ND),,              +3*GHSERCO+2*GHSERND
             -147698+35.561*T;,,                                      N 07Liu !
 PAR  G(CO3ND2_HT,CO:ND),,              +3*GHSERCO+2*GHSERND
             -147228+35.012*T;,,                                      N 07Liu !
 PAR  G(CO3ND4,CO:ND),,                 +3*GHSERCO+4*GHSERND
             -187038+45.082*T;,,                                      N 07Liu !
 PAR  G(CO2ND5,CO:ND),,                 +2*GHSERCO+5*GHSERND
             -133113+13.951*T;,,                                      N 07Liu !
$
 PAR  G(COND3_D011,CO:ND),,             +GHSERCO+3*GHSERND
             -67758+4.223*T;,,                                        N 07Liu !
 PAR  TC(COND3_D011,CO:ND),,              -42.00;,,                   N 07Liu !
 PAR  BM(COND3_D011,CO:ND),,              -13.50;,,                   N 07Liu !
$ ------------------------------------------------------------------------------
$
$
 LIST-OF-REFERENCE
 NUMBER  SOURCE
  Null   'Unknown source'
  Same   'Same or similar interaction as in the corresponding stable phase'
  REFLAV 'Laves phase convention: G(LAVES,X:X)=+3*GHSERXX+15000'
  SGCOST 'COST 507 database, SGTE unary database V.3.0, 1996; Al, B, Nd, Ti, Zn'
  91Din  'A.T. Dinsdale, Calphad, 15, 317-425(1991).'
  00Nor2 'S. Norgren, PhD Thesis, KTH, Stockholm, 2000; Nd, Sc'
  07Liu  'X. Liu, Z. Du, C. Guo, C. Li,
          J. Alloys Compd., 439, 97-102(2007); Co, Nd, Co-Nd'
!
