$
$ Database for Ag-Tb from S.L. Wang et al. 2009.
$
$ S.L. Wang, C.P. Wang, X.J. Liu, A.T. Tang, F.S. Pan, K. Ishida,
$ J. Alloys Compd., 484, 102-7(2009).
$
$ Dataset created 2018.03.18 by Bengt Hallstedt.
$ 2020.12.20: Modified for use with GES6.
$
$ The hcp and bcc interactions are improbable. The fcc interaction is absurd.
$ There are too many parameters for the liquid interaction.
$
$ There is an inverse miscibility gap with a minimum at 4006 K and x(Tb)=0.74.
$
$ ------------------------------------------------------------------------------
 TEMP-LIM 298.15 6000.00 !
$
$ELEMENT NAME  REF. STATE               ATOMIC MASS H298-H0    S298    !
$
 ELEMENT VA   VACUUM                      0.0          0.0      0.0    ! 
 ELEMENT AG   FCC_A1                    107.8682    5745.      42.55   ! 
 ELEMENT TB   HCP_A3                    158.9254    9426.552   73.3037 ! 
$ ------------------------------------------------------------------------------
$ Phase definitions
$
 PHASE LIQUID:L % 1 1 !
 CONST LIQUID:L : AG TB : !
$
$ Fcc (cF4, Fm-3m) and MeX (cF8, Fm-3m)
$
 PHASE FCC_A1 %A 2 1 1 !
 CONST FCC_A1 : AG% TB : VA : !
$
$ Bcc (cI2, Im-3m)
$
 PHASE BCC_A2 %B 2 1 3 !
 CONST BCC_A2 : AG TB% : VA : !
$
$ Hcp (hP2, P6_3/mmc) and Me2X (NiAs-type, hP4, P6_3/mmc, B8_1)
$
 PHASE HCP_A3 %A 2 1 0.5 !
 CONST HCP_A3 : AG TB% : VA : !
$
$ Prototype Ag51Gd14 (hP68, P6/m)
$
 PHASE AG51TB14 % 2 51 14 !
 CONST AG51TB14 : AG% TB : TB : !
$
$ Prototype MoSi2 (tI6, I4/mmm)
$
 PHASE AG2TB_C11B % 2 2 1 !
 CONST AG2TB_C11B : AG : TB : !
$
$ Prototype CsCl (cP2, Pm-3m)
$
 PHASE AGTB_B2 %A 2 1 1 !
 CONST AGTB_B2 : AG : TB : !
$ ------------------------------------------------------------------------------
$ Defaults
$
 DEFINE-SYSTEM-DEFAULT ELEMENT 2 !
 DEFAULT-COM DEFINE_SYSTEM_ELEMENT VA !
 TYPE-DEF % SEQ * !
 TYPE-DEF A GES AMEND_PHASE_DESCRIPTION @ MAGNETIC -3 0.28 !
 TYPE-DEF B GES AMEND_PHASE_DESCRIPTION @ MAGNETIC -1 0.4 !
 FUNCTION ZERO      298.15  0;                                         6000 N !
 FUNCTION UN_ASS    298.15  0;                                         6000 N !
 FUNCTION R         298.15  +8.31451;                                  6000 N !
$ ------------------------------------------------------------------------------
$ Element data
$ ------------------------------------------------------------------------------
$ Ag
$
$ CUB_A13 added in unary 3.0
$ CUB_A13 revised in unary 4.1
$ BCT_A5 added in unary 4.1
$
$ DHCP from 09Wan not included in unary
$
 PAR  G(FCC_A1,AG:VA),,                 +GHSERAG;                3000 N 91Din !
 PAR  G(HCP_A3,AG:VA),,                 +GHSERAG+300+0.3*T;      3000 N 91Din !
 PAR  G(BCC_A2,AG:VA),,                 +GHSERAG+3400-1.05*T;    3000 N 91Din !
$PAR  G(CUB_A13,AG:VA),,                +GHSERAG+3400-1.05*T;    3000 N 95Lim !
$PAR  G(CUB_A13,AG:VA),,                +GHSERAG
$            +3765.6-1.8826*T;                                   3000 N 96SGUN !
$PAR  G(BCT_A5,AG),,                    +GHSERAG+4184.1;         3000 N 96Oh !
$PAR  G(DHCP,AG),,                      +GHSERAG+1000;           3000 N 09Wan2 !
 PAR  G(LIQUID,AG),,                    +GLIQAG;                 3000 N 91Din !
$
 FUNCTION GHSERAG   298.15  -7209.512+118.202013*T-23.8463314*T*LN(T)
       -0.001790585*T**2-3.98587E-07*T**3-12011*T**(-1);
      1234.93  Y  -15095.252+190.266404*T-33.472*T*LN(T)+1.411773E+29*T**(-9);
      3000.00  N !
 FUNCTION GLIQAG    298.15  +11025.076-8.89102*T+GHSERAG-1.033905E-20*T**7;
      1234.93  Y  -3587.111+180.964656*T-33.472*T*LN(T);
      3000.00  N !
 FUNCTION GBCCAG    298.15  +GHSERAG+3400-1.05*T;                      6000 N !
$ ------------------------------------------------------------------------------
$ Tb
$
$ RHOMBOHEDRAL_A7 from 11Wan not included in unary
$ FCC_A1 from 09Wan6 not included in unary
$
 PAR  G(HCP_A3,TB:VA),,                 +GHSERTB;                3000 N 91Din !
 PAR  G(BCC_A2,TB:VA),,                 +GBCCTB;                 3000 N 91Din !
 PAR  G(FCC_A1,TB:VA),,                 +GHSERTB+5000;           3000 N 09Wan6 !
$PAR  G(RHOMBOHEDRAL_A7,TB),,           +GHSERTB+5000;           3000 N 11Wan !
 PAR  G(LIQUID,TB),,                    +GLIQTB;                 3000 N 91Din !
$
 PAR  G(AG51TB14,TB:TB),,               +65*GHSERTB+325000;,,         N 09Wan6 !
$
 FUNCTION GHSERTB   298.15  -20842.158+409.309555*T-77.5006*T*LN(T)
       +0.0832265*T**2-2.5672833E-05*T**3+562430*T**(-1);
       600.00  Y  -8772.606+102.61162*T-25.8659*T*LN(T)
       -0.002757005*T**2-8.05838E-07*T**3+172355*T**(-1);
      1200.00  Y  -7944.942+101.7776*T-25.9584*T*LN(T)
       -0.001676335*T**2-1.067632E-06*T**3;
      1562.00  Y  -265240.309+1456.04268*T-200.215695*T*LN(T)
       +0.041615159*T**2-2.044697E-06*T**3+65043790*T**(-1);
      3000.00  N !
 FUNCTION GBCCTB    298.15  +4167.835-2.652707*T+GHSERTB;
      1200.00  Y  +633060.245-5157.77779*T+706.580596*T*LN(T)
       -0.373763517*T**2+3.4100235E-05*T**3-1.03233571E+08*T**(-1);
      1562.00  Y  -23398.029+257.388486*T-46.4842*T*LN(T);
      3000.00  N !
 FUNCTION GLIQTB    298.15  +3945.831+29.867521*T-14.252646*T*LN(T)
       -0.020466105*T**2+2.17475E-06*T**3-160724*T**(-1);
      1562.00  Y  -13247.649+251.16889*T-46.4842*T*LN(T);
      3000.00  N !
$ ------------------------------------------------------------------------------
$ Binary system
$
$ S.L. Wang, C.P. Wang, X.J. Liu, A.T. Tang, F.S. Pan, K. Ishida,
$ J. Alloys Compd., 484, 102-7(2009).
$
$ Checked against paper. Checked at 6000 K.
$
$ The hcp and bcc interactions are improbable. The fcc interaction is absurd.
$ There are too many parameters for the liquid interaction.
$
$ There is an inverse miscibility gap with a minimum at 4006 K and x(Tb)=0.74.
$
 PAR  L(LIQUID,AG,TB;0),,               -97830+30.509*T;,,            N 09Wan6 !
 PAR  L(LIQUID,AG,TB;1),,               -32453-2.468*T;,,             N 09Wan6 !
 PAR  L(LIQUID,AG,TB;2),,               -1223+0.125*T;,,              N 09Wan6 !
 PAR  L(LIQUID,AG,TB;3),,               +29963-6.38*T;,,              N 09Wan6 !
$
 PAR  L(FCC_A1,AG,TB:VA;0),,            +367756-31.663*T;,,           N 09Wan6 !
 PAR  L(FCC_A1,AG,TB:VA;1),,            -393972-31.327*T;,,           N 09Wan6 !
 PAR  L(FCC_A1,AG,TB:VA;2),,            +15.294*T;,,                  N 09Wan6 !
$
 PAR  L(BCC_A2,AG,TB:VA;0),,            +50000;,,                     N 09Wan6 !
 PAR  L(HCP_A3,AG,TB:VA;0),,            +50000;,,                     N 09Wan6 !
$
 PAR  G(AG51TB14,AG:TB),,               +51*GHSERAG+14*GHSERTB
             -1222000+54.99*T;,,                                      N 09Wan6 !
 PAR  L(AG51TB14,AG,TB:TB;0),,          -2497170+1068.21*T
             +64.61*T*LN(T);,,                                        N 09Wan6 !
$
 PAR  G(AG2TB_C11B,AG:TB),,             +2*GHSERAG+GHSERTB
             -63000+0.24*T;,,                                         N 09Wan6 !
 PAR  G(AGTB_B2,AG:TB),,                +GHSERAG+GHSERTB
             -47800+2.97*T;,,                                         N 09Wan6 !
$ ------------------------------------------------------------------------------
$
$
 LIST-OF-REFERENCE
 NUMBER  SOURCE
  Null   'Unknown source'
  Same   'Same or similar interaction as in the corresponding stable phase'
  COST   'COST 507 database'
  91Din  'A.T. Dinsdale, Calphad, 15, 317-425(1991).'
  95Lim  'S.S. Lim, P.L. Rossiter, J.W. Tibballs, Calphad, 19, 131-41(1995),
          SGTE unary database V.4.1, 1999; Ag'
  96Oh   'C.-S. Oh, J.-H. Shim, B.-J. Lee, D.N. Lee,
          J. Alloys Compounds, 238, 155-66(1996),
          SGTE unary database V.4.1, 1999; Ag'
  96SGUN 'SGTE unary database V.3.0, 1996.'
  09Wan2 'S.L. Wang, C.P. Wang, X.J. Liu, K. Ishida,
          J. Alloys Compd., 476, 245-52(2009); Ag'
  09Wan6 'S.L. Wang, C.P. Wang, X.J. Liu, A.T. Tang, F.S. Pan, K. Ishida,
          J. Alloys Compd., 484, 102-7(2009); Ho, Tb, Ag-Tb'
  11Wan  'S.L. Wang, Z.B. Hu, F. Gao, C.P. Wang, X.J. Liu,
          J. Phase Equilib. Diffus., 32, 441-46(2011); Tb'
!
