$
$ Database for Cu-Rh from S. Priya and K.T. Jacob 2000
$
$ S. Priya, K.T. Jacob, J. Phase Equilib., 21, 342-49(2000).
$
$ Dataset created 2017.12.09 by Bengt Hallstedt.
$ 2020.12.26: Modified for use with GES6.
$
$ ------------------------------------------------------------------------------
 TEMP-LIM 298.15 6000.00 !
$
$ELEMENT NAME  REF. STATE               ATOMIC MASS H298-H0    S298    !
$
 ELEMENT VA   VACUUM                      0.0          0.0      0.0    ! 
 ELEMENT CU   FCC_A1                     63.546     5004.      33.15   !
 ELEMENT RH   FCC_A1                    102.9055    4920.384   31.5557 ! 
$ ------------------------------------------------------------------------------
$ Phase definitions
$
 PHASE LIQUID:L % 1 1 !
 CONST LIQUID:L : CU RH : !
$
$ Fcc (cF4, Fm-3m) and MeX (cF8, Fm-3m)
$
 PHASE FCC_A1 %A 2 1 1 !
 CONST FCC_A1 : CU RH : VA : !
$
$ Bcc (cI2, Im-3m)
$
 PHASE BCC_A2 %B 2 1 3 !
 CONST BCC_A2 : CU RH : VA : !
$
$ Hcp (hP2, P6_3/mmc) and Me2X (NiAs-type, hP4, P6_3/mmc, B8_1)
$
 PHASE HCP_A3 %A 2 1 0.5 !
 CONST HCP_A3 : CU RH : VA : !
$ ------------------------------------------------------------------------------
$ Defaults
$
 DEFINE-SYSTEM-DEFAULT ELEMENT 2 !
 DEFAULT-COM DEFINE_SYSTEM_ELEMENT VA !
 TYPE-DEF % SEQ * !
 TYPE-DEF A GES AMEND_PHASE_DESCRIPTION @ MAGNETIC -3 0.28 !
 TYPE-DEF B GES AMEND_PHASE_DESCRIPTION @ MAGNETIC -1 0.4 !
 FUNCTION ZERO      298.15  0;                                         6000 N !
 FUNCTION UN_ASS    298.15  0;                                         6000 N !
 FUNCTION R         298.15  +8.31451;                                  6000 N !
$ ------------------------------------------------------------------------------
$ Element data
$ ------------------------------------------------------------------------------
$ Cu
$
 PAR  G(FCC_A1,CU:VA),,                 +GHSERCU;                3200 N 91Din !
 PAR  G(BCC_A2,CU:VA),,                 +GHSERCU+4017-1.255*T;   3200 N 91Din !
 PAR  G(HCP_A3,CU:VA),,                 +GHSERCU+600+0.2*T;      3200 N 91Din !
 PAR  G(LIQUID,CU),,                    +GLIQCU;                 3200 N 91Din !
$
 FUNCTION GHSERCU   298.15  -7770.458+130.485235*T-24.112392*T*LN(T)
       -0.00265684*T**2+1.29223E-07*T**3+52478*T**(-1);
      1357.77  Y  -13542.026+183.803828*T-31.38*T*LN(T)+3.64167E+29*T**(-9);
      3200.00  N !
 FUNCTION GLIQCU    298.15  +12964.735-9.511904*T+GHSERCU-5.8489E-21*T**7;
      1357.77  Y  -46.545+173.881484*T-31.38*T*LN(T);
      3200.00  N !
$ ------------------------------------------------------------------------------
$ Rh
$
 PAR  G(FCC_A1,RH:VA),,                 +GHSERRH;                2500 N 91Din !
 PAR  G(BCC_A2,RH:VA),,                 +GHSERRH+19000-4.7*T;    2500 N 91Din !
 PAR  G(HCP_A3,RH:VA),,                 +GHSERRH+3000-0.5*T;     2500 N 91Din !
 PAR  G(LIQUID,RH),,                    +GLIQRH;                 2500 N 91Din !
$
 FUNCTION GHSERRH   298.15  -7848.828+132.020923*T-24.0178336*T*LN(T)
       -0.003424186*T**2-1.68032E-07*T**3+55846*T**(-1);
      1200.00  Y  -28367.852+305.771019*T-48.3766632*T*LN(T)
       +0.00966345*T**2-1.512774E-06*T**3+3348162*T**(-1);
      2237.00  Y  -6237470.48+30151.6342*T-3874.21058*T*LN(T)
       +1.04921361*T**2-5.3978814E-05*T**3+1.88036218E+09*T**(-1);
      2450.00  Y  -44863.489+344.889895*T-50.58456*T*LN(T);
      2500.00  N !
 FUNCTION GLIQRH    298.15  +19092.91-6.92133*T+GHSERRH;
       700.00  Y  +35898.508-147.926418*T+15.6492377*T*LN(T)
       -0.028665357*T**2+2.100572E-06*T**3-2638940*T**(-1);
      2237.00  Y  -18208.54+332.974832*T-50.58456*T*LN(T);
      2500.00  N !
$ ------------------------------------------------------------------------------
$ Binary system
$
$ S. Priya, K.T. Jacob, J. Phase Equilib., 21, 342-49(2000).
$
$ Checked against paper. Checked at 6000 K.
$
 PAR  L(LIQUID,CU,RH;0),,               +32420-12.12*T;,,             N 00Pri !
$
 PAR  L(FCC_A1,CU,RH:VA;0),,            +47675-17.82*T;,,             N 00Pri !
 PAR  L(FCC_A1,CU,RH:VA;1),,            -6336+2.36*T;,,               N 00Pri !
$
$ Metastable
$
 PAR  L(BCC_A2,CU,RH:VA;0),,            +47675-17.82*T;,,             N Same !
 PAR  L(BCC_A2,CU,RH:VA;1),,            -6336+2.36*T;,,               N Same !
$
 PAR  L(HCP_A3,CU,RH:VA;0),,            +47675-17.82*T;,,             N Same !
 PAR  L(HCP_A3,CU,RH:VA;1),,            -6336+2.36*T;,,               N Same !
$ ------------------------------------------------------------------------------
$
$
 LIST-OF-REFERENCE
 NUMBER  SOURCE
  Null   'Unknown source'
  Same   'Same or similar interaction as in the corresponding stable phase'
  COST   'COST 507 database'
  91Din  'A.T. Dinsdale, Calphad, 15, 317-425(1991).'
  00Pri  'S. Priya, K.T. Jacob, J. Phase Equilib., 21, 342-49(2000); Cu-Rh'
!
