$
$ Database for Gd-W from N. Krishnamurthy et al. 2000.
$
$ N. Krishnamurthy, T. Kundu, A. Awasthi, S.P. Garg,
$ Z. Metallkd., 91, 234-40(2000).
$
$ Dataset created 2025.02.11 by Bengt Hallstedt.
$
$ The liquid interaction was refitted to approximately match measured
$ liquid solubilities. The discrepancy probably originates from differences
$ in elemental W.
$
$ The solid interactions were set to 1.5 times the liquid interaction. This
$ should be revised when there are data.
$
$ ------------------------------------------------------------------------------
 TEMP-LIM 298.15 6000.00 !
$
$ELEMENT NAME  REF. STATE               ATOMIC MASS H298-H0    S298    !
$
 ELEMENT VA   VACUUM                      0.0          0.0      0.0    ! 
 ELEMENT GD   HCP_A3                    157.25      9087.648   68.0894 ! 
 ELEMENT W    BCC_A2                    183.85      4970.0     32.6176 ! 
$ ------------------------------------------------------------------------------
$ Phase definitions
$
 PHASE LIQUID:L % 1 1 !
 CONST LIQUID:L : GD W : !
$
$ Fcc (cF4, Fm-3m) and MeX (cF8, Fm-3m)
$
 PHASE FCC_A1 %A 2 1 1 !
 CONST FCC_A1 : GD W : VA : !
$
$ Bcc (cI2, Im-3m)
$
 PHASE BCC_A2 %B 2 1 3 !
 CONST BCC_A2 : GD W : VA : !
$
$ Hcp (hP2, P6_3/mmc) and Me2X (NiAs-type, hP4, P6_3/mmc, B8_1)
$
 PHASE HCP_A3 % 2 1 0.5 !
 CONST HCP_A3 : GD% W : VA : !
$ ------------------------------------------------------------------------------
$ Defaults
$
 DEFINE-SYSTEM-DEFAULT ELEMENT 2 !
 DEFAULT-COM DEFINE_SYSTEM_ELEMENT VA !
 TYPE-DEF % SEQ * !
 TYPE-DEF A GES AMEND_PHASE_DESCRIPTION @ MAGNETIC -3 0.28 !
 TYPE-DEF B GES AMEND_PHASE_DESCRIPTION @ MAGNETIC -1 0.4 !
 FUNCTION ZERO      298.15  0;                                         6000 N !
 FUNCTION UN_ASS    298.15  0;                                         6000 N !
 FUNCTION R         298.15  +8.31451;                                  6000 N !
$ ------------------------------------------------------------------------------
$ Element data
$ ------------------------------------------------------------------------------
$ Gd
$
$ HCP_A3, BCC_A2 and LIQUID revised in unary 3.0
$ Small correction made to top two temperature ranges of bcc_A2 to ensure 
$ continuity in Gibbs energy, AD, Dec 2002
$ FCC_A1 added in unary 4.4
$
$ FCC_A1 from 03Cac not included in unary
$
 PAR  G(HCP_A3,GD:VA)           200.00  +GHSERGD;                3600 N 95She2 !
 PAR  TC(HCP_A3,GD:VA)          200.00    293.4;                 3600 N 95She2 !
 PAR  BM(HCP_A3,GD:VA)          200.00      3.0;                 3600 N 95She2 !
$PAR  TC(HCP_A3,GD:VA)          200.00    291.8;                 3600 N 91Din !
$PAR  BMAGN(HCP_A3,GD:VA)       200.00      3.0;                 3600 N 91Din !
 PAR  G(FCC_A1,GD:VA)           200.00  +GHSERGD+500;            3600 N 00Zin !
$PAR  G(FCC_A1,GD:VA)           200.00  +GHSERGD
$            +1800-0.831451*T;                                   3600 N 03Cac !
 PAR  G(BCC_A2,GD:VA)           200.00  +GBCCGD;                 3600 N 95She2 !
 PAR  G(LIQUID,GD)              200.00  +GLIQGD;                 3600 N 95She2 !
$
 FUNCTION GHSERGD   200.00  -6834.5855+97.13101*T-24.7214131*T*LN(T)
       -0.00285240521*T**2-3.14674076E-07*T**3-8665.73348*T**(-1);
      1000.00  Y  -6483.25362+95.6919924*T-24.6598297*T*LN(T)
       -0.00185225011*T**2-6.61211607E-07*T**3;
      1508.15  Y  -123124.992+699.125537*T-101.800197*T*LN(T)
       +0.0150644246*T**2-6.39165948E-07*T**3+29356890.3*T**(-1);
      3600.00  N !
 FUNCTION GBCCGD    200.00  +3233.80866-2.11184585*T+GHSERGD;
      1000.00  Y  +152792.743-1349.58873*T+180.097094*T*LN(T)
       -0.119550229*T**2+1.17915728E-05*T**3-22038836*T**(-1);
      1508.15  Y  -15783.7618+202.222183*T-38.960425*T*LN(T);
      1586.15  Y  -19850.5562+224.818035*T-41.904333*T*LN(T)
       +8.58222759E-04*T**2-3.77570269E-08*T**3+995428.573*T**(-1);
      3600.00  N !
 FUNCTION GLIQGD    200.00  +13060.0262-8.32179974*T+GHSERGD;
      1000.00  Y  +146262.037-1208.70685*T+159.352082*T*LN(T)
       -0.108247135*T**2+1.06945505E-05*T**3-19678357*T**(-1);
      1508.15  Y  -5397.314+192.336215*T-38.5075*T*LN(T);
      3600.00  N !
$ ------------------------------------------------------------------------------
$ W
$
 PAR  G(BCC_A2,W:VA),,                  +GHSERWW;,,                   N 91Din !
 PAR  G(FCC_A1,W:VA),,                  +GHSERWW+19300+0.63*T;,,      N 91Din !
 PAR  G(HCP_A3,W:VA),,                  +GHSERWW+14750;,,             N 91Din !
 PAR  G(LIQUID,W),,                     +GLIQWW;,,                    N 91Din !
$
 FUNCTION GHSERWW   298.15  -7646.311+130.4*T-24.1*T*LN(T)
       -0.001936*T**2+2.07E-07*T**3+44500*T**(-1)-5.33E-11*T**4;
      3695.00  Y  -82868.801+389.362335*T-54*T*LN(T)+1.528621E+33*T**(-9);
      6000.00  N !
 FUNCTION GLIQWW    298.15  +52160.584-14.10999*T+GHSERWW-2.713468E-24*T**7;
      3695.00  Y  -30436.051+375.175*T-54*T*LN(T);
      6000.00  N !
 FUNCTION GFCCWW    298.15  +GHSERWW+19300+0.63*T;                     6000 N !
$ ------------------------------------------------------------------------------
$ Binary system
$
$ N. Krishnamurthy, T. Kundu, A. Awasthi, S.P. Garg,
$ Z. Metallkd., 91, 234-40(2000).
$
$ Checked against paper. Checked at 6000 K.
$
$ The liquid interaction was refitted to approximately match measured
$ liquid solubilities. The discrepancy probably originates from differences
$ in elemental W.
$
$ The solid interactions were set to 1.5 times the liquid interaction. This
$ should be revised when there are data.
$
$PAR  L(LIQUID,GD,W;0),,                +102600;,,                    N 00Kri !
 PAR  L(LIQUID,GD,W;0),,                +94000;,,                     N 00Kri !
$
 PAR  L(BCC_A2,GD,W:VA;0),,             +141000;,,                    N 25Hal !
 PAR  L(HCP_A3,GD,W:VA;0),,             +141000;,,                    N 25Hal !
$
$ Metastable
$
 PAR  L(FCC_A1,GD,W:VA;0),,             +141000;,,                    N 25Hal !
$ ------------------------------------------------------------------------------
$
$
 LIST-OF-REFERENCE
 NUMBER  SOURCE
  Null   'Unknown source'
  Same   'Same or similar interaction as in the corresponding stable phase'
  REFLAV 'Laves phase convention: G(LAVES,X:X)=+3*GHSERXX+15000'
  91Din  'A.T. Dinsdale, Calphad, 15, 317-425(1991).'
  95She2 'H. Shen, W. Zhang, G. Liu, R. Wang, Z. Du, Report F-95-02,
          University of Science and Technology, Beijing, May 1995,
          SGTE unary database V.3.0, 1996; Gd'
  00Kri  'N. Krishnamurthy, T. Kundu, A. Awasthi, S.P. Garg,
          Z. Metallkd., 91, 234-40(2000); Gd-W'
  00Zin  'M. Zinkevich, N. Mattern, H. J Seifert,
          J. Phase Equilib., 21, 385-94(2000),
          SGTE unary database V.4.4, 2001; Gd'
  03Cac  'G. Cacciamani, S. De Negri, A. Saccone, R. Ferro,
          Intermetallics, 11, 1135-51(2003); Gd'
  25Hal  'B. Hallstedt, dummy solid interaction, 2025; Gd-W'
!
