$
$ Database for Gd-Mg from Q. Long et al. 2023.
$
$ Q. Long, N. Meng, F. Chen, L. Zhang, X. Tao, L. Liu, G. Xu, Y. Cui,
$ Calphad, 82, 102583(2023).
$
$ Dataset created 2023.03.07 by Bengt Hallstedt.
$
$ Modified from 20Wu/07Guo. B2_BCC modified.
$
$ Metastable GdMg3 (D0_19) and GdMg7 included as ordered hcp phases, using
$ add-on models. Parameters rewritten in the present paper (23Lon) without
$ using U, V, S and T functions. These parameters are incorrect.
$
$ The disordered part of D019 and GDMg7 is incorrect in the supplemental tdb,
$ GHSERMG is missing (i.e. G(A3_HCP,MG)=0).
$
$ ------------------------------------------------------------------------------
 TEMP-LIM 298.15 6000.00 !
$
$ELEMENT NAME  REF. STATE               ATOMIC MASS H298-H0    S298    !
$
 ELEMENT VA   VACUUM                      0.0          0.0      0.0    ! 
 ELEMENT GD   HCP_A3                    157.25      9087.648   68.0894 ! 
 ELEMENT MG   HCP_A3                     24.305     4998.      32.671  !
$ ------------------------------------------------------------------------------
$ Phase definitions
$
 PHASE LIQUID:L % 1 1 !
 CONST LIQUID:L : GD MG : !
$
$ Fcc (cF4, Fm-3m) and MeX (cF8, Fm-3m)
$
 PHASE FCC_A1 %A 2 1 1 !
 CONST FCC_A1 : GD MG : VA : !
$
$ Bcc (cI2, Im-3m)
$
 PHASE BCC_A2 %B 2 1 3 !
 CONST BCC_A2 : GD MG : VA : !
$
$ Disordered part of B2_BCC, identical to BCC_A2
$
 PHASE A2_BCC %B 2 1 3 !
 CONST A2_BCC : GD MG : VA : !
$
$ Prototype CsCl (cP2, Pm3m)
$
 PHASE B2_BCC %O 3 0.5 0.5 3 !
 CONST B2_BCC : GD% MG : GD MG% : VA : !
$
$ Hcp (hP2, P6_3/mmc) and Me2X (NiAs-type, hP4, P6_3/mmc, B8_1)
$
 PHASE HCP_A3 %A 2 1 0.5 !
 CONST HCP_A3 : GD MG : VA : !
$
$ Disordered part of D019 and GDMG7
$
 PHASE A3_HCP %A 2 1 0.5 !
 CONST A3_HCP : GD MG : VA : !
$
 PHASE D019 %AP 3 0.75 0.25 0.5 !
 CONST D019 : GD MG% : GD% MG : VA : !
$
 PHASE GDMG7 %AQ 3 0.875 0.125 0.5 !
 CONST GDMG7 : GD MG% : GD% MG : VA : !
$
$ Prototype Cu2Mg (cF24, Fd-3m)
$
 PHASE C15_LAVES % 2 2 1 !
 CONST C15_LAVES : GD MG% : GD% MG : !
$
$ Prototype BiF3 (cF16, Fm-3m)
$
 PHASE GDMG3_D03 % 2 1 3 !
 CONST GDMG3_D03 : GD% MG : GD MG% : !
$
$ Prototype Cd45Sm11 (cF448, F-43m)
$
 PHASE GDMG5 % 2 1 5 !
 CONST GDMG5 : GD% MG : MG : !
$ ------------------------------------------------------------------------------
$ Defaults
$
 DEFINE-SYSTEM-DEFAULT ELEMENT 2 !
 DEFAULT-COM DEFINE_SYSTEM_ELEMENT VA !
 TYPE-DEF % SEQ * !
 TYPE-DEF A GES AMEND_PHASE_DESCRIPTION @ MAGNETIC -3 0.28 !
 TYPE-DEF B GES AMEND_PHASE_DESCRIPTION @ MAGNETIC -1 0.4 !
 TYPE-DEF O GES AMEND_PHASE_DESCRIPTION B2_BCC DIS_PART A2_BCC !
 TYPE-DEF P GES AMEND_PHASE_DESCRIPTION D019 DIS_PART A3_HCP !
 TYPE-DEF Q GES AMEND_PHASE_DESCRIPTION GDMG7 DIS_PART A3_HCP !
 FUNCTION ZERO      298.15  0;                                         6000 N !
 FUNCTION UN_ASS    298.15  0;                                         6000 N !
 FUNCTION R         298.15  +8.31451;                                  6000 N !
$ ------------------------------------------------------------------------------
$ Element data
$ ------------------------------------------------------------------------------
$ Gd
$
$ HCP_A3, BCC_A2 and LIQUID revised in unary 3.0
$ Small correction made to top two temperature ranges of bcc_A2 to ensure 
$ continuity in Gibbs energy, AD, Dec 2002
$ FCC_A1 added in unary 4.4
$
$ RHOMB_C19 from 10Guo not included in unary
$
 PAR  G(HCP_A3,GD:VA)           200.00  +GHSERGD;                3600 N 95She2 !
 PAR  TC(HCP_A3,GD:VA)          200.00    293.4;                 3600 N 95She2 !
 PAR  BMAGN(HCP_A3,GD:VA)       200.00      3.0;                 3600 N 95She2 !
 PAR  G(A3_HCP,GD:VA)           200.00  +GHSERGD;                3600 N 95She2 !
 PAR  TC(A3_HCP,GD:VA)          200.00    293.4;                 3600 N 95She2 !
 PAR  BMAGN(A3_HCP,GD:VA)       200.00      3.0;                 3600 N 95She2 !
$PAR  TC(HCP_A3,GD:VA)          200.00    291.8;                 3600 N 91Din !
$PAR  BMAGN(HCP_A3,GD:VA)       200.00      3.0;                 3600 N 91Din !
 PAR  G(FCC_A1,GD:VA)           200.00  +GHSERGD+500;            3600 N 00Zin !
 PAR  G(BCC_A2,GD:VA)           200.00  +GBCCGD;                 3600 N 95She2 !
 PAR  G(A2_BCC,GD:VA)           200.00  +GBCCGD;                 3600 N 95She2 !
$PAR  G(RHOMB_C19,GD)           200.00  +GHSERGD+5000;           3600 N 10Guo !
 PAR  G(LIQUID,GD)              200.00  +GLIQGD;                 3600 N 95She2 !
$
 PAR  G(C15_LAVES,GD:GD),,              +3*GHSERGD+53550;,,           N 20Wu !
 PAR  G(GDMG3_D03,GD:GD),,              +4*GHSERGD+91300;,,           N 20Wu !
$
 FUNCTION GHSERGD   200.00  -6834.5855+97.13101*T-24.7214131*T*LN(T)
       -0.00285240521*T**2-3.14674076E-07*T**3-8665.73348*T**(-1);
      1000.00  Y  -6483.25362+95.6919924*T-24.6598297*T*LN(T)
       -0.00185225011*T**2-6.61211607E-07*T**3;
      1508.15  Y  -123124.992+699.125537*T-101.800197*T*LN(T)
       +0.0150644246*T**2-6.39165948E-07*T**3+29356890.3*T**(-1);
      3600.00  N !
 FUNCTION GBCCGD    200.00  +3233.80866-2.11184585*T+GHSERGD;
      1000.00  Y  +152792.743-1349.58873*T+180.097094*T*LN(T)
       -0.119550229*T**2+1.17915728E-05*T**3-22038836*T**(-1);
      1508.15  Y  -15783.7618+202.222183*T-38.960425*T*LN(T);
      1586.15  Y  -19850.5562+224.818035*T-41.904333*T*LN(T)
       +8.58222759E-04*T**2-3.77570269E-08*T**3+995428.573*T**(-1);
      3600.00  N !
 FUNCTION GLIQGD    200.00  +13060.0262-8.32179974*T+GHSERGD;
      1000.00  Y  +146262.037-1208.70685*T+159.352082*T*LN(T)
       -0.108247135*T**2+1.06945505E-05*T**3-19678357*T**(-1);
      1508.15  Y  -5397.314+192.336215*T-38.5075*T*LN(T);
      3600.00  N !
$ ------------------------------------------------------------------------------
$ Mg
$
 PAR  G(FCC_A1,MG:VA),,                 +GHSERMG+2600-0.9*T;     3000 N 91Din !
 PAR  G(BCC_A2,MG:VA),,                 +GHSERMG+3100-2.1*T;     3000 N 91Din !
 PAR  G(A2_BCC,MG:VA),,                 +GHSERMG+3100-2.1*T;     3000 N 91Din !
 PAR  G(HCP_A3,MG:VA),,                 +GHSERMG;                3000 N 91Din !
 PAR  G(A3_HCP,MG:VA),,                 +GHSERMG;                3000 N 91Din !
 PAR  G(LIQUID,MG),,                    +GLIQMG;                 3000 N 91Din !
$
 PAR  G(C15_LAVES,MG:MG),,              +3*GHSERMG+35340;,,           N 20Wu !
 PAR  G(GDMG3_D03,MG:MG),,              +4*GHSERMG+65000-18*T;,,      N 20Wu !
 PAR  G(GDMG5,MG:MG),,                  +6*GHSERMG+6900+16.806*T;,,   N 20Wu !
$
 FUNCTION GHSERMG   298.15  -8367.34+143.675547*T-26.1849782*T*LN(T)
       +4.858E-04*T**2-1.393669E-06*T**3+78950*T**(-1);
       923.00  Y  -14130.185+204.716215*T-34.3088*T*LN(T)+1.038192E+28*T**(-9);
      3000.00  N !
 FUNCTION GLIQMG    298.15  +8202.243-8.83693*T+GHSERMG-8.0176E-20*T**7;
       923.00  Y  -5439.869+195.324057*T-34.3088*T*LN(T);
      3000.00  N !
$ ------------------------------------------------------------------------------
$ Binary system
$
$ Q. Long, N. Meng, F. Chen, L. Zhang, X. Tao, L. Liu, G. Xu, Y. Cui,
$ Calphad, 82, 102583(2023).
$
$ Checked against paper and author's tdb. Checked at 6000 K.
$
$ Modified from 20Wu/07Guo. B2_BCC modified.
$
$ Metastable GdMg3 (D0_19) and GdMg7 included as ordered hcp phases, using
$ add-on models. Parameters rewritten in the present paper (23Lon) without
$ using U, V, S and T functions. These parameters are incorrect.
$
$ The disordered part of D019 and GDMg7 is incorrect in the supplemental tdb,
$ GHSERMG is missing (i.e. G(A3_HCP,MG)=0).
$
 PAR  L(LIQUID,GD,MG;0),,               -36631.3+16.5584*T;,,         N 20Wu !
 PAR  L(LIQUID,GD,MG;1),,               +35733.8-10.3783*T;,,         N 20Wu !
 PAR  L(LIQUID,GD,MG;2),,               -10402.9;,,                   N 20Wu !
$
 PAR  L(BCC_A2,GD,MG:VA;0),,            -48685.7975+28.1132*T;,,      N 20Wu !
 PAR  L(BCC_A2,GD,MG:VA;1),,            +9863.5874+3.4963*T;,,        N 20Wu !
 PAR  L(BCC_A2,GD,MG:VA;2),,            +19281.9214-18.0437*T;,,      N 20Wu !
 PAR  L(BCC_A2,GD,MG:VA;3),,            -5065.2025+4.8738*T;,,        N 20Wu !
$
 PAR  L(A2_BCC,GD,MG:VA;0),,            -48685.7975+28.1132*T;,,      N 20Wu !
 PAR  L(A2_BCC,GD,MG:VA;1),,            +9863.5874+3.4963*T;,,        N 20Wu !
 PAR  L(A2_BCC,GD,MG:VA;2),,            +19281.9214-18.0437*T;,,      N 20Wu !
 PAR  L(A2_BCC,GD,MG:VA;3),,            -5065.2025+4.8738*T;,,        N 20Wu !
$
 PAR  G(B2_BCC,GD:MG:VA),,              -34851.8+10.489*T;,,          N 23Lon !
 PAR  G(B2_BCC,MG:GD:VA),,              -34851.8+10.489*T;,,          N 23Lon !
 PAR  L(B2_BCC,GD,MG:GD:VA;0),,         -22899.5051+0.8579*T;,,       N 23Lon !
 PAR  L(B2_BCC,GD:GD,MG:VA;0),,         -22899.5051+0.8579*T;,,       N 23Lon !
 PAR  L(B2_BCC,GD,MG:GD:VA;1),,         -32346.7657+5.9105*T;,,       N 20Wu !
 PAR  L(B2_BCC,GD:GD,MG:VA;1),,         -32346.7657+5.9105*T;,,       N 20Wu !
 PAR  L(B2_BCC,GD,MG:MG:VA;0),,         -3120.5372+5.3192*T;,,        N 20Wu !
 PAR  L(B2_BCC,MG:GD,MG:VA;0),,         -3120.5372+5.3192*T;,,        N 20Wu !
 PAR  L(B2_BCC,GD,MG:MG:VA;1),,         -1452.2334+2.1033*T;,,        N 20Wu !
 PAR  L(B2_BCC,MG:GD,MG:VA;1),,         -1452.2334+2.1033*T;,,        N 20Wu !
$
 PAR  L(HCP_A3,GD,MG:VA;0),,            -35756.7+20.7451*T;,,         N 20Wu !
 PAR  L(HCP_A3,GD,MG:VA;1),,            +16704-0.5*T;,,               N 20Wu !
$
 PAR  L(A3_HCP,GD,MG:VA;0),,            -35756.7+20.7451*T;,,         N 20Wu !
 PAR  L(A3_HCP,GD,MG:VA;1),,            +16704-0.5*T;,,               N 20Wu !
$
 PAR  G(D019,GD:MG:VA),,                +UUU1;,,                      N 20Wu !
 PAR  G(D019,MG:GD:VA),,                +UUU2;,,                      N 20Wu !
 PAR  L(D019,GD,MG:GD:VA;0),,           +0.5*UUU2+3*UUU1+3*UUU3;,,    N 20Wu !
 PAR  L(D019,GD,MG:MG:VA;0),,           +3*UUU2+0.5*UUU1+3*UUU3;,,    N 20Wu !
 PAR  L(D019,GD:GD,MG:VA;0),,           +0.5*UUU2+UUU3;,,             N 20Wu !
 PAR  L(D019,MG:GD,MG:VA;0),,           +0.5*UUU1+UUU3;,,             N 20Wu !
 PAR  L(D019,GD,MG:GD:VA;1),,           +3*UUU4;,,                    N 20Wu !
 PAR  L(D019,GD,MG:MG:VA;1),,           +3*UUU5;,,                    N 20Wu !
 PAR  L(D019,GD:GD,MG:VA;1),,           +UUU4;,,                      N 20Wu !
 PAR  L(D019,MG:GD,MG:VA;1),,           +UUU5;,,                      N 20Wu !
 PAR  L(D019,GD,MG:GD,MG:VA;0),,        +4*UUU4-4*UUU5;,,             N 20Wu !
$
 PAR  G(GDMG7,GD:MG:VA),,               +VVV1;,,                      N 20Wu !
 PAR  G(GDMG7,MG:GD:VA),,               +VVV2;,,                      N 20Wu !
 PAR  L(GDMG7,GD,MG:GD:VA;0),,          +4.8333*VVV2+7*VVV1+7*VVV3;,, N 20Wu !
 PAR  L(GDMG7,GD,MG:MG:VA;0),,          +7*VVV2+4.8333*VVV1+7*VVV3;,, N 20Wu !
 PAR  L(GDMG7,GD:GD,MG:VA;0),,          +0.8333*VVV2+VVV3;,,          N 20Wu !
 PAR  L(GDMG7,MG:GD,MG:VA;0),,          +0.8333*VVV1+VVV3;,,          N 20Wu !
 PAR  L(GDMG7,GD,MG:GD:VA;1),,          +7*VVV4;,,                    N 20Wu !
 PAR  L(GDMG7,GD,MG:MG:VA;1),,          +7*VVV5;,,                    N 20Wu !
 PAR  L(GDMG7,GD:GD,MG:VA;1),,          +VVV4;,,                      N 20Wu !
 PAR  L(GDMG7,MG:GD,MG:VA;1),,          +VVV5;,,                      N 20Wu !
 PAR  L(GDMG7,GD,MG:GD,MG:VA;0),,       +8*VVV4-8*VVV5;,,             N 20Wu !
$
 PAR  G(C15_LAVES,GD:MG),,              +2*GHSERGD+GHSERMG+40290;,,   N 20Wu !
 PAR  G(C15_LAVES,MG:GD),,              +2*GHSERMG+GHSERGD
             -60300+27.6858*T;,,                                      N 20Wu !
 PAR  L(C15_LAVES,GD,MG:GD;0),,         -81600+40.1109*T;,,           N 20Wu !
 PAR  L(C15_LAVES,GD,MG:MG;0),,         -81600+40.1109*T;,,           N 20Wu !
 PAR  L(C15_LAVES,GD:GD,MG;0),,         -84402+37.398*T;,,            N 20Wu !
 PAR  L(C15_LAVES,MG:GD,MG;0),,         -84402+37.398*T;,,            N 20Wu !
$
 PAR  G(GDMG3_D03,GD:MG),,              +GHSERGD+3*GHSERMG
             -80345.912+38.6472*T;,,                                  N 20Wu !
 PAR  G(GDMG3_D03,MG:GD),,              +GHSERMG+3*GHSERGD+34000;,,   N 20Wu !
 PAR  L(GDMG3_D03,GD,MG:GD;0),,         -50320+6.9344*T;,,            N 20Wu !
 PAR  L(GDMG3_D03,GD,MG:MG;0),,         -50320+6.9344*T;,,            N 20Wu !
 PAR  L(GDMG3_D03,GD:GD,MG;0),,         -170036+112.8596*T;,,         N 20Wu !
 PAR  L(GDMG3_D03,MG:GD,MG;0),,         -170036+112.8596*T;,,         N 20Wu !
$
 PAR  G(GDMG5,GD:MG),,                  +GHSERGD+5*GHSERMG
             -92381.202+190.8672*T-21.4764*T*LN(T);,,                 N 20Wu !
$
$ Metastable
$
 PAR  L(FCC_A1,GD,MG:VA;0),,            -35756.7+20.7451*T;,,         N Same !
 PAR  L(FCC_A1,GD,MG:VA;1),,            +16704-0.5*T;,,               N Same !
$
 FUNCTION TTT1      298.15  -3.2;                                      6000 N !
 FUNCTION TTT2      298.15  +0.3;                                      6000 N !
 FUNCTION UUU1      298.15  +0.07*UUU2;                                6000 N !
 FUNCTION UUU2      298.15  -24450+6.7*T;                              6000 N !
 FUNCTION UUU3      298.15  -TTT1*UUU1-TTT2*UUU2-0.5*UUU1;             6000 N !
 FUNCTION UUU4      298.15  -0.6*UUU5;                                 6000 N !
 FUNCTION UUU5      298.15  -3535.5+5.4*T;                             6000 N !
$
 FUNCTION SSS1      298.15  -1.5;                                      6000 N !
 FUNCTION SSS2      298.15  +0.3;                                      6000 N !
 FUNCTION VVV1      298.15  +0.15*VVV2;                                6000 N !
 FUNCTION VVV2      298.15  -16926-6.6*T;                              6000 N !
 FUNCTION VVV3      298.15  -SSS1*VVV1-SSS2*VVV2-0.8333*VVV1;          6000 N !
 FUNCTION VVV4      298.15  +0.95*VVV5;                                6000 N !
 FUNCTION VVV5      298.15  -2167.67+5.35*T;                           6000 N !
$ ------------------------------------------------------------------------------
$
 ASSESSED_SYSTEM
  GD-MG(TDB -* +LIQUID +HCP_A3 +A2_BCC +B2_BCC +GDMG2_C15 +GDMG5 +GDMG3 
  ;G5 C_S:BCC_B2/GD:MG:VA MAJ:BCC_B2/GD:GD:VA ;P3 STP:.2/800/1) !
$
$
 LIST-OF-REFERENCE
 NUMBER  SOURCE
  Null   'Unknown source'
  Same   'Same or similar interaction as in the corresponding stable phase'
  COST   'COST 507 database'
  REFLAV 'Laves phase convention: G(LAVES,X:X)=+3*GHSERXX+15000'
  91Din  'A.T. Dinsdale, Calphad, 15, 317-425(1991).'
  95She2 'H. Shen, W. Zhang, G. Liu, R. Wang, Z. Du, Report F-95-02,
          University of Science and Technology, Beijing, May 1995,
          SGTE unary database V.3.0, 1996; Gd'
  00Zin  'M. Zinkevich, N. Mattern, H. J Seifert,
          J. Phase Equilib., 21, 385-94(2000),
          SGTE unary database V.4.4, 2001; Gd'
  10Guo  'C. Guo, Z. Du, C. Li, Calphad, 34, 90-97(2010); Gd'
  20Wu   'X. Wu, C. Li, J. Zheng, Y. Ruan, C. Guo, Z. Du, B. Chen, Y. Wu,
          Calphad, 68, 101712(2020); Gd-Mg'
  23Lon  'Q. Long, N. Meng, F. Chen, L. Zhang, X. Tao, L. Liu, G. Xu, Y. Cui,
          Calphad, 82, 102583(2023); Gd-Mg'
!
