$
$ Database for Bi-O from D. Risold et al., 1995 (included in LB Vol. 2)
$
$ D. Risold, B. Hallstedt, L.J. Gauckler, H.L. Lukas, S.G. Fries,
$ J. Phase Equilib., 16, 223-34(1995).
$
$ Dataset created 2009.10.16 by Bengt Hallstedt.
$ 2020.12.25: Modified for use with GES6.
$ 2023.02.24: Unary Bi changed from V4.4 to V5.0.
$
$ ------------------------------------------------------------------------------
 TEMP-LIM 298.15 6000.00 !
$
$ELEMENT NAME  REF. STATE               ATOMIC MASS H298-H0    S298    !
$
 ELEMENT /-   ELECTRON_GAS                0.0          0.0      0.0    ! 
 ELEMENT VA   VACUUM                      0.0          0.0      0.0    ! 
 ELEMENT BI   RHOMBOHEDRAL_A7           208.98      6426.6     56.735  !
 ELEMENT O    1/2_MOLE_O2(G)             15.999     4341.0    102.52   ! 
$ ------------------------------------------------------------------------------
$ Species
$
 SPECIE  BI+3                               BI/+3 !
 SPECIE  BI+5                               BI/+5 !
 SPECIE  BI2                                BI2 !
 SPECIE  BI3                                BI3 !
 SPECIE  BI4                                BI4 !
 SPECIE  BIO                                BIO !
 SPECIE  BIO15                              BI1O1.5 !
 SPECIE  BI2O_C2V                           BI2O !
 SPECIE  BI2O_DH                            BI2O !
 SPECIE  BI2O2                              BI2O2 !
 SPECIE  BI2O3                              BI2O3 !
 SPECIE  BI3O4                              BI3O4 !
 SPECIE  BI4O6                              BI4O6 !
 SPECIE  O-2                                O/-2 !
 SPECIE  O2                                 O2 !
 SPECIE  O3                                 O3 !
$ ------------------------------------------------------------------------------
$ Phase definitions
$
 PHASE ION:Y % 2 1 1 !
 CONST ION:Y : BI+3 : O-2 VA O : !
$
$ Prototype alpha-As (hR2, R-3m)
$
 PHASE RHOMBOHEDRAL_A7 % 1 1 !
 CONST RHOMBOHEDRAL_A7 : BI : !
$
$ Prototype alpha-Bi2O3 (mP20, P2_1/c)
$
 PHASE BI2O3_ALPHA % 1 1 !
 CONST BI2O3_ALPHA : BI2O3 : !
$
$ Prototype CaF2 (cF12, Fm-3m, C1)
$
 PHASE BI2O3_C1 % 1 1 !
 CONST BI2O3_C1 : BI2O3 : !
$
 PHASE GAS:G % 1 1 !
 CONST GAS:G : BI BI2 BI3 BI4 O O2 O3 
               BIO BI2O_C2V BI2O_DH BI2O2 BI2O3 BI3O4 BI4O6 : !
$
 PHASE O2GAS % 1 1 !
 CONST O2GAS : O2 : !
$ ------------------------------------------------------------------------------
$ Defaults
$
 DEFINE-SYSTEM-DEFAULT ELEMENT 2 !
 DEFAULT-COM DEFINE_SYSTEM_ELEMENT VA /- !
 TYPE-DEF % SEQ * !
 FUNCTION ZERO      298.15  0;                                         6000 N !
 FUNCTION UN_ASS    298.15  0;                                         6000 N !
 FUNCTION R         298.15  +8.31451;                                  6000 N !
 FUNCTION RTLNP     298.15  +8.31451*T*LN(1E-05*P);                    6000 N !
$ ------------------------------------------------------------------------------
$ Element data
$ ------------------------------------------------------------------------------
$ Bi
$
$ RHOMBOHEDRAL_A7 and LIQUID modified in unary 5.0
$ DIAMOND_A4 added in unary 5.0
$
 PAR  G(RHOMBOHEDRAL_A7,BI),,           +GHSERBI;                3000 N 09SGUN !
$PAR  G(FCC_A1,BI:VA),,                 +GHSERBI+9900-12.5*T;    3000 N 91Din !
$PAR  G(BCC_A2,BI:VA),,                 +GHSERBI+11297-13.9*T;   3000 N 91Din !
$PAR  G(HCP_A3,BI:VA),,                 +GHSERBI+9900-11.8*T;    3000 N 91Din !
$PAR  G(DIAMOND_A4,BI),,                +GHSERBI
$            +11296.8+9.253655*T;                                3000 N 88Che2 !
$PAR  G(BCT_A5,BI),,                    +GHSERBI+4184.07;        3000 N 91Din !
$PAR  G(TETRAGONAL_A6,BI),,             +GHSERBI+4184.07;        3000 N 91Din !
$PAR  G(TET_ALPHA1_A6,BI),,             +GHSERBI+4234;           3000 N 91Din !
$PAR  G(LIQUID,BI),,                    +GLIQBI;                 3000 N 09SGUN ! 
$
 PAR  G(ION,BI+3:VA),,                  +GLIQBI;                 3000 N 09SGUN !
$
 PAR  G(GAS,BI),,                       +FBI+RTLNP;,,                 N 94SUB !
 PAR  G(GAS,BI2),,                      +FBI2+RTLNP;,,                N 94SUB !
 PAR  G(GAS,BI3),,                      +FBI3+RTLNP;,,                N 94SUB !
 PAR  G(GAS,BI4),,                      +FBI4+RTLNP;,,                N 94SUB !
$
 FUNCTION GHSERBI   298.15  -7817.776+128.418925*T-28.4096529*T*LN(T)
       +0.012338888*T**2-8.381598E-6*T**3;
       544.55  Y  +29293.369-379.605174*T+49.678*T*LN(T)
       -0.0730245*T**2+1.3052833E-5*T**3-3544705*T**(-1)+1.66309E+25*T**(-9);
       800.00  Y  -11085.609+182.955328*T-36.041*T*LN(T)
       +7.4641E-3*T**2-1.05047E-6*T**3+5175*T**(-1)+1.66309E+25*T**(-9);
      1200.00  Y  -7580.864+124.770814*T-27.196*T*LN(T)+1.66309E+25*T**(-9);
      3000.00  N !
 FUNCTION GLIQBI    298.15  +11246.017-20.636399*T+GHSERBI-5.9608E-19*T**7;
       544.55  Y  +40629.667-400.415652*T+49.678*T*LN(T)
       -0.0730245*T**2+1.3052833E-5*T**3-3544705*T**(-1);
       800.00  Y  +250.689+162.14485*T-36.041*T*LN(T)
       +0.0074641*T**2-1.05047E-6*T**3+5175*T**(-1);
      1200.00  Y  +3755.434+103.960336*T-27.196*T*LN(T);
      3000.00 N !
 FUNCTION FBI       298.15  +202381.512-45.1884812*T-21.18792*T*LN(T)
       +3.652257E-04*T**2-5.32526E-08*T**3+10130.16*T**(-1);
      2300.00  Y  +231964.856-165.432591*T-6.199268*T*LN(T)
       -0.0027793295*T**2+5.49905833E-08*T**3-10466545*T**(-1);
      5200.00  Y  +115074.326+89.708386*T-35.50452*T*LN(T)
       +4.1702055E-04*T**2-8.48098E-09*T**3+75550050*T**(-1);
      6000.00  N !
 FUNCTION FBI2      298.15  +207623.525-4.31566729*T-40.26392*T*LN(T)
       +0.003904568*T**2-1.11360767E-06*T**3+63483.4*T**(-1);
      1200.00  Y  +229591.228-207.107486*T-11.48617*T*LN(T)
       -0.01273371*T**2+6.788145E-07*T**3-3055864*T**(-1);
      3200.00  Y  +35480.3561+548.584888*T-105.5637*T*LN(T)
       +0.007721875*T**2-1.61990383E-07*T**3+72824100*T**(-1);
      6000.00  N !
 FUNCTION FBI3      298.15  +270937.105+22.0522254*T-58.48787*T*LN(T)
       +1.9872915E-04*T**2-2.03095667E-08*T**3+27925.565*T**(-1);
      6000.00  N !
 FUNCTION FBI4      298.15  +211553.648+170.356565*T-84.41212*T*LN(T)
       +0.0012158155*T**2-1.87920333E-07*T**3+88102.7*T**(-1);
      2000.00  Y  +322535.739-314.205646*T-23.55246*T*LN(T)
       -0.01187992*T**2+1.97795333E-07*T**3-35386160*T**(-1);
      3700.00  Y  -10361.0634+439.726043*T-109.3443*T*LN(T)
       -0.0052421*T**2+2.70246E-07*T**3+1.7491895E+08*T**(-1);
      6000.00  N !
$ ------------------------------------------------------------------------------
$ O
$
$ GHSEROO modified in unary 3.0
$
 PAR  G(ION,O),,                        +GHSEROO-2648.9+31.44*T;,,    N 91Din !
$
 PAR  G(O2GAS,O2),,                     +2*GHSEROO+RTLNP;,,           N 91Din !
$
 PAR  G(GAS,O),,                        +F7397T+RTLNP;,,              N 92SUB !
 PAR  G(GAS,O2),,                       +2*GHSEROO+RTLNP;,,           N 91Din !
 PAR  G(GAS,O3),,                       +F7683T+RTLNP;,,              N 92SUB !
$
$ 1/2 O2(g)
 FUNCTION GHSEROO   298.15  -3480.87-25.503038*T-11.1355*T*LN(T)
       -0.005098875*T**2+6.61845833E-07*T**3-38365*T**(-1);
      1000.00  Y  -6568.763+12.659879*T-16.8138*T*LN(T)
       -5.957975E-04*T**2+6.781E-09*T**3+262905*T**(-1);
      3300.00  Y  -13986.728+31.259624*T-18.9536*T*LN(T)
       -4.25243E-04*T**2+1.0721E-08*T**3+4383200*T**(-1);
      6000.00  N !
$ O(g)
 FUNCTION F7397T    298.15  +243206.529-42897.0876*T**(-1)-20.7513421*T
       -21.0155542*T*LN(T)+1.26870532E-04*T**2-1.23131285E-08*T**3;
      2950.00  Y  +252301.473-3973170.33*T**(-1)-51.974853*T
       -17.2118798*T*LN(T)-5.41356254E-04*T**2+7.64520703E-09*T**3;
      6000.00  N !
$ O3(g)
 FUNCTION F7683T    298.15  +133772.042-11328.9959*T**(-1)-84.8602165*T
       -19.8314069*T*LN(T)-0.0392015696*T**2+7.90727187E-06*T**3;  
       600.00  Y  +120765.524+997137.156*T**(-1)+120.113376*T
       -51.8410152*T*LN(T)-0.00353983136*T**2+3.20640143E-07*T**3;
      1500.00  Y  +115412.196+1878139.02*T**(-1)+164.679664*T
       -58.069736*T*LN(T)-2.84399032E-04*T**2+5.95650279E-10*T**3;
      6000.00  N !
$ ------------------------------------------------------------------------------
$ Binary system
$
$ From D. Risold et al. 1995 (included in LB Vol. 2)
$
$ D. Risold, B. Hallstedt, L.J. Gauckler, H.L. Lukas, S.G. Fries,
$ J. Phase Equilib., 16, 223-34(1995).
$
$ Checked against paper and LB.
$
 PAR  G(ION,BI+3:O-2),,                 +GBI2O3LQ;,,                  N 95Ris !
 PAR  L(ION,BI+3:O-2,VA;0),,            +202379-75.8*T;,,             N 95Ris !
 PAR  L(ION,BI+3:O-2,VA;1),,            -17866;,,                     N 95Ris !
 PAR  L(ION,BI+3:O-2,O;0),,             +100000;,,                    N 95Ris !
$
 PAR  G(BI2O3_ALPHA,BI2O3),,            +GBI2O3_A;,,                  N 95Ris !
 PAR  G(BI2O3_C1,BI2O3),,               +GBI2O3_D;,,                  N 95Ris !
$
 PAR  G(GAS,BIO),,                      +FBIO+RTLNP;             2100 N 95Ris !
 PAR  G(GAS,BI2O_C2V),,                 +FBIO2_C+RTLNP;          2100 N 95Ris !
 PAR  G(GAS,BI2O_DH),,                  +FBIO2_D+RTLNP;          2100 N 95Ris !
 PAR  G(GAS,BI2O2),,                    +FBI2O2+RTLNP;           2100 N 95Ris !
 PAR  G(GAS,BI2O3),,                    +FBI2O3+RTLNP;           2100 N 95Ris !
 PAR  G(GAS,BI3O4),,                    +FBI3O4+RTLNP;           2100 N 95Ris !
 PAR  G(GAS,BI4O6),,                    +FBI4O6+RTLNP;           2100 N 95Ris !
$
 FUNCTION GBI2O3_A  298.15  -609970+656.5*T-118.5*T*LN(T)
       -0.0091*T**2+524285*T**(-1);
      6000.00  N !
 FUNCTION GBI2O3_D  298.15  -601060+854.6*T-149.7*T*LN(T);             6000 N !
 FUNCTION GBI2O3LQ  298.15  -574501+762.5*T-140*T*LN(T);               6000 N !
 FUNCTION FBIO      298.15  +110358-0.0463*T-36.34*T*LN(T)
       -0.327E-3*T**2+175580*T**(-1);                              
      2100.00  N !
 FUNCTION FBIO2_C   298.15  +93365+71.59*T-57.21*T*LN(T)
       -0.302E-3*T**2+301750*T**(-1);                              
      2100.00  N !
 FUNCTION FBIO2_D   298.15  +70643+121.4*T-61.37*T*LN(T)
       -0.303E-3*T**2+323270*T**(-1);                              
      2100.00  N !
 FUNCTION FBI2O2    298.15  -58943+211.1*T-82.49*T*LN(T)
       -0.239E-3*T**2+320250*T**(-1);                              
      2100.00  N !
 FUNCTION FBI4O6    298.15  -901174+1079*T-234.0*T*LN(T)
       +0.154E-3*T**2+1413970*T**(-1);                             
      2100.00  N !
 FUNCTION FBI3O4    298.15  -472767+625.1*T-155.8*T*LN(T)
       -0.767E-3*T**2+883670*T**(-1);                              
      2100.00  N !
 FUNCTION FBI2O3    298.15  -265698+385.2*T-107.1*T*LN(T)
       -0.331E-3*T**2+664700*T**(-1);                              
      2100.00  N !
$ ------------------------------------------------------------------------------
$
 ASSESSED_SYSTEM
   BI-O(TDB -* +GAS +ION +BI2O3_A +BI2O3_C1 +RHOM_A7
   ;G5 C_S:ION_LIQ/BI+3:O-2 MAJ:ION_LIQ/BI+3:VA
   ;P3 TMM:300/3000 STP:.1/1200/1 STP:.1/2500/-2 ) !
$
$
 LIST-OF-REFERENCE
 NUMBER  SOURCE
  Null   'Unknown source'
  88Che2 'P.-Y. Chevalier, Thermochim. Acta, 132, 111-16(1988),
          SGTE unary database V.5.0, 2009; Bi' 
  91Din  'A.T. Dinsdale, Calphad, 15, 317-425(1991).'
  92SUB  'SGTE Substance Database, version 1992'
  94SUB  'SGTE Substance Database, version 1994'
  95Ris  'D. Risold, B. Hallstedt, L.J. Gauckler, H.L. Lukas, S.G. Fries,
          J. Phase Equilib., 16, 223-34(1995); Bi-O'
  09SGUN 'SGTE unary database V.5.0, 2009.'
!
