$
$ Database for Bi-Ca from F. Gao et al. 2022.
$
$ F. Gao, Y. Liu, P. Zhou, D. Huang, T. Fu, S. Zhang, Y. Du,
$ Int. J. Mater. Res., 113, 419-27(2022).
$
$ Dataset created 2022.07.31 by Bengt Hallstedt.
$ 2023.02.24: Unary Bi changed from V4.4 to V5.0.
$
$ ------------------------------------------------------------------------------
 TEMP-LIM 298.15 6000.00 !
$
$ELEMENT NAME  REF. STATE               ATOMIC MASS H298-H0    S298    !
$
 ELEMENT VA   VACUUM                      0.0          0.0      0.0    ! 
 ELEMENT BI   RHOMBOHEDRAL_A7           208.98      6426.6     56.735  !
 ELEMENT CA   FCC_A1                     40.08      5736.0     41.588  ! 
$ ------------------------------------------------------------------------------
$ Phase definitions
$
 PHASE LIQUID:L % 1 1 !
 CONST LIQUID:L : BI CA : !
$
$ Fcc (cF4, Fm-3m) and MeX (cF8, Fm-3m)
$
 PHASE FCC_A1 %A 2 1 1 !
 CONST FCC_A1 : BI CA% : VA : !
$
$ Bcc (cI2, Im-3m)
$
 PHASE BCC_A2 %B 2 1 3 !
 CONST BCC_A2 : BI CA% : VA : !
$
$ Hcp (hP2, P6_3/mmc) and Me2X (NiAs-type, hP4, P6_3/mmc, B8_1)
$
 PHASE HCP_A3 %A 2 1 0.5 !
 CONST HCP_A3 : BI CA : VA: !
$
$ Prototype alpha-As (hR2, R-3m)
$
 PHASE RHOMBOHEDRAL_A7 % 1 1 !
 CONST RHOMBOHEDRAL_A7 : BI : !
$
$ Prototype Ge10Ho11 (tI84, I4/mmm)
$
 PHASE BI10CA11_LT % 2 10 11 !
 CONST BI10CA11_LT : BI : CA : !
$
$ unknown structure
$
 PHASE BI10CA11_HT % 2 10 11 !
 CONST BI10CA11_HT : BI : CA : !
$
$ Prototype Sb3Yb5 (oP32, Pnma)
$
 PHASE BI3CA5 % 2 3 5 !
 CONST BI3CA5 : BI : CA : !
$ ------------------------------------------------------------------------------
$ Defaults
$
 DEFINE-SYSTEM-DEFAULT ELEMENT 2 !
 DEFAULT-COM DEFINE_SYSTEM_ELEMENT VA !
 TYPE-DEF % SEQ * !
 TYPE-DEF A GES AMEND_PHASE_DESCRIPTION @ MAGNETIC -3 0.28 !
 TYPE-DEF B GES AMEND_PHASE_DESCRIPTION @ MAGNETIC -1 0.4 !
 FUNCTION ZERO      298.15  0;                                         6000 N !
 FUNCTION UN_ASS    298.15  0;                                         6000 N !
 FUNCTION R         298.15  +8.31451;                                  6000 N !
$ ------------------------------------------------------------------------------
$ Element data
$ ------------------------------------------------------------------------------
$ Bi
$
$ RHOMBOHEDRAL_A7 and LIQUID modified in unary 5.0
$ DIAMOND_A4 added in unary 5.0
$
 PAR  G(RHOMBOHEDRAL_A7,BI),,           +GHSERBI;                3000 N 09SGUN !
 PAR  G(FCC_A1,BI:VA),,                 +GHSERBI+9900-12.5*T;    3000 N 91Din !
 PAR  G(BCC_A2,BI:VA),,                 +GHSERBI+11297-13.9*T;   3000 N 91Din !
 PAR  G(HCP_A3,BI:VA),,                 +GHSERBI+9900-11.8*T;    3000 N 91Din !
$PAR  G(DIAMOND_A4,BI),,                +GHSERBI
$            +11296.8+9.253655*T;                                3000 N 88Che2 !
$PAR  G(BCT_A5,BI),,                    +GHSERBI+4184.07;        3000 N 91Din !
$PAR  G(TETRAGONAL_A6,BI),,             +GHSERBI+4184.07;        3000 N 91Din !
$PAR  G(TET_ALPHA1_A6,BI),,             +GHSERBI+4234;           3000 N 91Din !
 PAR  G(LIQUID,BI),,                    +GLIQBI;                 3000 N 09SGUN ! 
$
 FUNCTION GHSERBI   298.15  -7817.776+128.418925*T-28.4096529*T*LN(T)
       +0.012338888*T**2-8.381598E-6*T**3;
       544.55  Y  +29293.369-379.605174*T+49.678*T*LN(T)
       -0.0730245*T**2+1.3052833E-5*T**3-3544705*T**(-1)+1.66309E+25*T**(-9);
       800.00  Y  -11085.609+182.955328*T-36.041*T*LN(T)
       +7.4641E-3*T**2-1.05047E-6*T**3+5175*T**(-1)+1.66309E+25*T**(-9);
      1200.00  Y  -7580.864+124.770814*T-27.196*T*LN(T)+1.66309E+25*T**(-9);
      3000.00  N !
 FUNCTION GLIQBI    298.15  +11246.017-20.636399*T+GHSERBI-5.9608E-19*T**7;
       544.55  Y  +40629.667-400.415652*T+49.678*T*LN(T)
       -0.0730245*T**2+1.3052833E-5*T**3-3544705*T**(-1);
       800.00  Y  +250.689+162.14485*T-36.041*T*LN(T)
       +0.0074641*T**2-1.05047E-6*T**3+5175*T**(-1);
      1200.00  Y  +3755.434+103.960336*T-27.196*T*LN(T);
      3000.00 N !
$ ------------------------------------------------------------------------------
$ Ca
$
$ FCC_A1, BCC_A2, HCP_A3 and LIQUID modified in unary 5.0
$ (upper T interval added + trailing decimals added)
$
 PAR  G(FCC_A1,CA:VA),,                 +GHSERCA;                3001 N 91Din !
 PAR  G(BCC_A2,CA:VA),,                 +GBCCCA;                 3001 N 91Din !
 PAR  G(HCP_A3,CA:VA),,                 +GHSERCA+500+0.7*T;      3001 N 91Din !
 PAR  G(LIQUID,CA),,                    +GLIQCA;                 3001 N 91Din !
$
 FUNCTION GHSERCA   298.15  -4955.062+72.794266*T-16.3138*T*LN(T)
       -0.01110455*T**2-133574*T**(-1);
      1115.00  Y  -107304.428+799.982066*T-114.2922467*T*LN(T)
       +0.023733814*T**2-1.2438E-06*T**3+18245540*T**(-1);
      3000.00  Y  -3703.12+192.63995*T-35.0*T*LN(T);
      3001.00  N !
 FUNCTION GBCCCA    298.15  -7020.852+142.970155*T-28.2541*T*LN(T)
       +0.0072326*T**2-4.500217E-06*T**3+60578*T**(-1);
       716.00  Y  +1640.475+1.999694*T-6.276*T*LN(T)
       -0.0161921*T**2-523000*T**(-1);
      1115.00  Y  -142331.096+1023.549046*T-143.8726979*T*LN(T)
       +0.032543127*T**2-1.704079E-06*T**3+25353771*T**(-1);
      3000.00  Y  +321.63+189.433057*T-35*T*LN(T);
      3001.00  N !
 FUNCTION GLIQCA    298.15  +10799.908-10.310466*T+GHSERCA;
       500.00  Y  +7838.856+18.2979*T-8.9874787*T*LN(T)
       -0.02266537*T**2+3.338303E-06*T**3-230193*T**(-1);
      1115.00  Y  -2654.938+188.9223*T-35*T*LN(T);
      3001.00  N !
$ ------------------------------------------------------------------------------
$ Binary system
$
$ F. Gao, Y. Liu, P. Zhou, D. Huang, T. Fu, S. Zhang, Y. Du,
$ Int. J. Mater. Res., 113, 419-27(2022).
$
$ Checked against paper. Checked at 6000 K.
$
 PAR  L(LIQUID,BI,CA;0),,               -159479-38.597*T;,,           N 22Gao !
 PAR  L(LIQUID,BI,CA;1),,               +24301.2-24.036*T;,,          N 22Gao !
 PAR  L(LIQUID,BI,CA;2),,               +43086.8;,,                   N 22Gao !
$
 PAR  L(FCC_A1,BI,CA:VA;0),,            +UN_ASS;,,                    N !
 PAR  L(BCC_A2,BI,CA:VA;0),,            +UN_ASS;,,                    N !
$
 PAR  G(BI10CA11_LT,BI:CA),,            +10*GHSERBI+11*GHSERCA
             -1680495.6+203.616*T;,,                                  N 22Gao !
 PAR  G(BI10CA11_HT,BI:CA),,            +10*GHSERBI+11*GHSERCA
             -1551318.3+35.196*T;,,                                   N 22Gao !
 PAR  G(BI3CA5,BI:CA),,                 +3*GHSERBI+5*GHSERCA
             -646613.6+50.376*T;,,                                    N 22Gao !
$ ------------------------------------------------------------------------------
$
$
 LIST-OF-REFERENCE
 NUMBER  SOURCE
  Null   'Unknown source'
  Same   'Same or similar interaction as in the corresponding stable phase'
  COST   'COST 507 database'
  88Che2 'P.-Y. Chevalier, Thermochim. Acta, 132, 111-16(1988),
          SGTE unary database V.5.0, 2009; Bi' 
  91Din  'A.T. Dinsdale, Calphad, 15, 317-425(1991).'
  09SGUN 'SGTE unary database V.5.0, 2009.'
  22Gao  'F. Gao, Y. Liu, P. Zhou, D. Huang, T. Fu, S. Zhang, Y. Du,
          Int. J. Mater. Res., 113, 419-27(2022); Bi-Ca'
!
