$
$ Database for Eu-O from M. Zinkevich 2007.
$
$ M. Zinkevich, Prog. Mater. Sci., 52, 597-647(2007).
$
$ Dataset created 2024.10.15 by Bengt Hallstedt.
$
$ This dataset contains the Eu2O3 data from 07Zin. The O solubility in solid
$ Eu can be expected to be low. The liquid interaction was set similar to
$ Pr-O from 23Nak.
$
$ Gas phase (except O2) is not included.
$
$ ------------------------------------------------------------------------------
 TEMP-LIM 298.15 6000.00 !
$
$ELEMENT NAME  REF. STATE               ATOMIC MASS H298-H0    S298    !
$
 ELEMENT /-   ELECTRON_GAS                0.0          0.0      0.0    ! 
 ELEMENT VA   VACUUM                      0.0          0.0      0.0    ! 
 ELEMENT EU   BCC_A2                    151.96      8004.0     80.79304! 
 ELEMENT O    1/2_MOLE_O2(G)             15.999     4341.0    102.52   ! 
$ ------------------------------------------------------------------------------
$ Species
$
 SPECIE  EU+3                               EU/+3 !
 SPECIE  O-2                                O/-2 !
 SPECIE  O2                                 O2 !
$ ------------------------------------------------------------------------------
$ Phase definitions
$
 PHASE ION:Y % 2 1 1 !
 CONST ION:Y : EU+3 : O-2 VA : !
$
$ Bcc (cI2, Im-3m)
$
 PHASE BCC_A2 %B 2 1 3 !
 CONST BCC_A2 : EU : VA : !
$
$ Prototype A-La2O3 (hP5, P-3m1)
$
 PHASE A_R2O3_D52:I % 2 2 3 !
 CONST A_R2O3_D52:I : EU+3 : O-2 : !
$
$ Prototype B-Sm2O3 (mC30, C2/m)
$
 PHASE B_R2O3:I % 2 2 3 !
 CONST B_R2O3:I : EU+3 : O-2 : !
$
$ Prototype Mn2O3 (cI80, Ia-3)
$
 PHASE C_R2O3_D53:I % 2 2 3 !
 CONST C_R2O3_D53:I : EU+3 : O-2 : !
$
$ Prototype H-La2O3 (hP10, P6_3/mmc)
$
 PHASE H_R2O3:I % 2 2 3 !
 CONST H_R2O3:I : EU+3 : O-2 : !
$
$ Prototype Nd2O3 (cI26, Im-3m)
$
 PHASE X_R2O3:I % 2 2 3 !
 CONST X_R2O3:I : EU+3 : O-2 : !
$
 PHASE O2GAS % 1 1 !
 CONST O2GAS : O2 : !
$ ------------------------------------------------------------------------------
$ Defaults
$
 DEFINE-SYSTEM-DEFAULT ELEMENT 2 !
 DEFAULT-COM DEFINE_SYSTEM_ELEMENT VA /- !
 TYPE-DEF % SEQ * !
 TYPE-DEF A GES AMEND_PHASE_DESCRIPTION @ MAGNETIC -3 0.28 !
 TYPE-DEF B GES AMEND_PHASE_DESCRIPTION @ MAGNETIC -1 0.4 !
 FUNCTION ZERO      298.15  0;                                         6000 N !
 FUNCTION UN_ASS    298.15  0;                                         6000 N !
 FUNCTION R         298.15  +8.31451;                                  6000 N !
 FUNCTION RTLNP     298.15  +8.31451*T*LN(1E-05*P);                    6000 N !
$ ------------------------------------------------------------------------------
$ Element data
$ ------------------------------------------------------------------------------
$ Eu
$
$ BCC_A2 modified in unary 5.0
$ (upper T interval added + trailing decimals added)
$
 PAR  G(BCC_A2,EU:VA),,                 +GHSEREU;                1900 N 91Din !
$PAR  G(LIQUID,EU),,                    +GLIQEU;                 1900 N 91Din !
$
 PAR  G(ION,EU+3:VA),,                  +GLIQEU;                 1900 N 91Din !
$
 FUNCTION GHSEREU   298.15  -9864.965+135.836737*T-32.8418896*T*LN(T)
       +0.00931735*T**2-4.006564E-06*T**3+102717*T**(-1);
      1095.00  Y  -287423.476+2174.733036*T-309.3571009*T*LN(T)
       +0.114530917*T**2-8.809866E-06*T**3+48455305*T**(-1);
      1900.00  Y  -13663.125+182.113799*T-38.11624*T*LN(T);
      1901.00  N !
 FUNCTION GLIQEU    298.15  +8382.505-7.175215*T+GHSEREU;
       400.00  Y  +10972.726-103.688201*T+4.3501554*T*LN(T)
       -0.036811218*T**2+5.452934E-06*T**3-646908*T**(-1);
      1095.00  Y  -6890.641+175.517247*T-38.11624*T*LN(T);
      1900.00  N !
$ ------------------------------------------------------------------------------
$ O
$
$ GHSEROO modified in unary 3.0
$
 PAR  G(O2GAS,O2),,                     +2*GHSEROO+RTLNP;,,           N 91Din !
$
$ 1/2 O2(g)
 FUNCTION GHSEROO   298.15  -3480.87-25.503038*T-11.1355*T*LN(T)
       -0.005098875*T**2+6.61845833E-07*T**3-38365*T**(-1);
      1000.00  Y  -6568.763+12.659879*T-16.8138*T*LN(T)
       -5.957975E-04*T**2+6.781E-09*T**3+262905*T**(-1);
      3300.00  Y  -13986.728+31.259624*T-18.9536*T*LN(T)
       -4.25243E-04*T**2+1.0721E-08*T**3+4383200*T**(-1);
      6000.00  N !
$ ------------------------------------------------------------------------------
$ Binary system
$
$ M. Zinkevich, Prog. Mater. Sci., 52, 597-647(2007).
$
$ Checked against paper. Checked at 6000 K.
$
$ This dataset contains the Eu2O3 data from 07Zin. The O solubility in solid
$ Eu can be expected to be low. The liquid interaction was set similar to
$ Pr-O from 23Nak.
$
$ Gas phase (except O2) is not included.
$
 PAR  G(ION,EU+3:O-2),,                 +GEU2O3L;,,                   N 07Zin !
 PAR  L(ION,EU+3:O-2,VA;0),,            +50000;,,                     N Same !
 PAR  L(ION,EU+3:O-2,VA;1),,            -25000;,,                     N Same !
$
 PAR  G(A_R2O3_D52,EU+3:O-2),,          +GEU2O3A;,,                   N 07Zin !
 PAR  G(B_R2O3,EU+3:O-2),,              +GEU2O3B;,,                   N 07Zin !
 PAR  G(C_R2O3_D53,EU+3:O-2),,          +GEU2O3C;,,                   N 07Zin !
 PAR  G(H_R2O3,EU+3:O-2),,              +GEU2O3H;,,                   N 07Zin !
 PAR  G(X_R2O3,EU+3:O-2),,              +GEU2O3X;,,                   N 07Zin !
$
 FUNCTION GEU2O3B   298.15  -1693456+732.3929*T-128.827*T*LN(T)
       -0.010086*T**2+559000*T**(-1);
      6000.00  N !
 FUNCTION GEU2O3C   298.15  -1701762+774.5807*T-133.819*T*LN(T)
       -0.009091*T**2+667000*T**(-1);
      6000.00  N !
 FUNCTION GEU2O3A   298.15  +GEU2O3B+3494-1.504*T;                     6000 N !
 FUNCTION GEU2O3H   298.15  +GEU2O3B+37242-15.490*T;                   6000 N !
 FUNCTION GEU2O3X   298.15  +GEU2O3B+48861-20.059*T;                   6000 N !
 FUNCTION GEU2O3L   298.15  +GEU2O3B+158143-61.722*T;                  6000 N !
$ ------------------------------------------------------------------------------
$
$
 LIST-OF-REFERENCE
 NUMBER  SOURCE
  Null   'Unknown source'
  Same   'Similar interaction as with other R elements'
  COST   'COST 507 database'
  91Din  'A.T. Dinsdale, Calphad, 15, 317-425(1991).'
  07Zin  'M. Zinkevich, Prog. Mater. Sci., 52, 597-647(2007); Eu-O'
!
