$
$ Database for K-Sb from Y. Liu et al. 2013.
$
$ Y. Liu, J. Xu, Z. Kang, J. Wang, Thermochim. Acta, 569, 119-26(2013).
$
$ Dataset created 2018.10.14 by Bengt Hallstedt.
$ 2021.01.17: Modified for use with GES6.
$
$ Invariant equiiibria differ by up to 6 K. Parameter rounding errors?
$
$ ------------------------------------------------------------------------------
 TEMP-LIM 298.15 6000.00 !
$
$ELEMENT NAME  REF. STATE               ATOMIC MASS H298-H0    S298    !
$
 ELEMENT VA   VACUUM                      0.0          0.0      0.0    ! 
 ELEMENT K    BCC_A2                     39.0983    7088.      64.68   ! 
 ELEMENT SB   RHOMBOHEDRAL_A7           121.75      5870.152   45.5219 ! 
$ ------------------------------------------------------------------------------
$ Species
$
 SPECIE  K3SB                               K3SB1 !
$ ------------------------------------------------------------------------------
$ Phase definitions
$
 PHASE LIQUID:L % 1 1 !
 CONST LIQUID:L : K K3SB SB : !
$
$ Fcc (cF4, Fm-3m) and MeX (cF8, Fm-3m)
$
 PHASE FCC_A1 %A 2 1 1 !
 CONST FCC_A1 : K SB : VA : !
$
$ Bcc (cI2, Im-3m)
$
 PHASE BCC_A2 %B 2 1 3 !
 CONST BCC_A2 : K% SB : VA : !
$
$ Hcp (hP2, P6_3/mmc) and Me2X (NiAs-type, hP4, P6_3/mmc, B8_1)
$
 PHASE HCP_A3 %A 2 1 0.5 !
 CONST HCP_A3 : K SB : VA : !
$
$ Prototype alpha-As (hR2, R-3m)
$
 PHASE RHOMBOHEDRAL_A7 % 1 1 !
 CONST RHOMBOHEDRAL_A7 : SB : !
$
$ Prototype Na3As (hP8, P6_3/mmc)
$
 PHASE K3SB_D018 % 2 3 1 !
 CONST K3SB_D018 : K : SB : !
$
$ Prototype Rb5As4 (mC20, C2/m)
$
 PHASE K5SB4 % 2 5 4 !
 CONST K5SB4 : K : SB : !
$
$ Prototype LiAs (mP16, P2_1/c)
$
 PHASE KSB % 2 1 1 !
 CONST KSB : K : SB : !
$
$ Prototype KSb2 (mC12, C2/m)
$
 PHASE KSB2 % 2 1 2 !
 CONST KSB2 : K : SB : !
$ ------------------------------------------------------------------------------
$ Defaults
$
 DEFINE-SYSTEM-DEFAULT ELEMENT 2 !
 DEFAULT-COM DEFINE_SYSTEM_ELEMENT VA !
 TYPE-DEF % SEQ * !
 TYPE-DEF A GES AMEND_PHASE_DESCRIPTION @ MAGNETIC -3 0.28 !
 TYPE-DEF B GES AMEND_PHASE_DESCRIPTION @ MAGNETIC -1 0.4 !
 FUNCTION ZERO      298.15  0;                                         6000 N !
 FUNCTION UN_ASS    298.15  0;                                         6000 N !
 FUNCTION R         298.15  +8.31451;                                  6000 N !
$ ------------------------------------------------------------------------------
$ Element data
$ ------------------------------------------------------------------------------
$ K
$
 PAR  G(BCC_A2,K:VA)            200.00  +GHSERKK;                2200 N 91Din !
 PAR  G(HCP_A3,K:VA)            200.00  +GHSERKK+50+2*T;         2200 N 91Din !
 PAR  G(FCC_A1,K:VA)            200.00  +GHSERKK+50+1.3*T;       2200 N 91Din !
 PAR  G(LIQUID,K)               200.00  +GLIQKK;                 2200 N 91Din !
$
 FUNCTION GHSERKK   200.00  -16112.929+389.624197*T-77.0571464*T*LN(T)
       +0.146211135*T**2-8.4949147E-05*T**3+243385*T**(-1);
       336.53  Y  -11122.441+192.586544*T-39.2885968*T*LN(T)
       +0.012167386*T**2-2.64387E-06*T**3+43251*T**(-1)+1.19223E+22*T**(-9);
      2200.00  N !
 FUNCTION GLIQKK    200.00  +2318.096-6.886859*T+GHSERKK-9.44E-19*T**7;
       336.53  Y  +2323.019-6.902217*T+GHSERKK-1.19223E+22*T**(-9);
      2200.00  N !
$ ------------------------------------------------------------------------------
$ Sb
$
$ BCT_A5 revised in unary 3.0
$
$ BCT_A5 the value from 91Din is used in LBall-v7+fun.tdb.
$ BCT_A5 the value from 96SGUN is used in SGSOL 5.0.
$ It is only needed in Sb-Sn.
$
 PAR  G(RHOMBOHEDRAL_A7,SB),,           +GHSERSB;                2000 N 91Din !
 PAR  G(FCC_A1,SB:VA),,                 +GHSERSB+19874-13.7*T;   2000 N 91Din !
 PAR  G(BCC_A2,SB:VA),,                 +GHSERSB+19874-15.1*T;   2000 N 91Din !
 PAR  G(HCP_A3,SB:VA),,                 +GHSERSB+19874-13*T;     2000 N 91Din !
$PAR  G(BCT_A5,SB),,                    +GHSERSB+13000-8*T;      2000 N 96SGUN !
$PAR  G(BCT_A5,SB),,                    +GHSERSB+1000;           2000 N 91Din !
 PAR  G(LIQUID,SB),,                    +GLIQSB;                 2000 N 91Din !
$
 FUNCTION GHSERSB   298.15  -9242.858+156.154689*T-30.5130752*T*LN(T)
       +0.007748768*T**2-3.003415E-06*T**3+100625*T**(-1);
       903.78  Y  -11738.83+169.485872*T-31.38*T*LN(T)+1.616849E+27*T**(-9);
      2000.00  N !
 FUNCTION GLIQSB    298.15  +19822.328-21.923164*T+GHSERSB-1.74847E-20*T**7;
       903.78  Y  +8175.359+147.455986*T-31.38*T*LN(T);
      2000.00  N !
$ ------------------------------------------------------------------------------
$ Binary system
$
$ Y. Liu, J. Xu, Z. Kang, J. Wang, Thermochim. Acta, 569, 119-26(2013).
$
$ Checked against paper. Checked at 6000 K.
$
$ Invariant equiiibria differ by up to 6 K. Parameter rounding errors?
$
 PAR  G(LIQUID,K3SB),,                  +3*GLIQKK+GLIQSB
             -230000+69*T;,,                                          N 13Liu !
 PAR  L(LIQUID,K,K3SB;0),,              +16000+2*T;,,                 N 13Liu !
 PAR  L(LIQUID,K,K3SB;2),,              +4500;,,                      N 13Liu !
 PAR  L(LIQUID,K3SB,SB;0),,             -60000-6*T;,,                 N 13Liu !
 PAR  L(LIQUID,K3SB,SB;1),,             +42000;,,                     N 13Liu !
$
 PAR  L(BCC_A2,K,SB:VA;0),,             +UN_ASS;,,                    N !
$
 PAR  G(K3SB_D018,K:SB),,               +3*GHSERKK+GHSERSB
             -228000+48.7*T;,,                                        N 13Liu !
 PAR  G(K5SB4,K:SB),,                   +5*GHSERKK+4*GHSERSB
             -412000+33.2*T;,,                                        N 13Liu !
 PAR  G(KSB,K:SB),,                     +GHSERKK+GHSERSB
             -85000+3.35*T;,,                                         N 13Liu !
 PAR  G(KSB2,K:SB),,                    +GHSERKK+2*GHSERSB
             -96000+18*T;,,                                           N 13Liu !
$ ------------------------------------------------------------------------------
$
$
 LIST-OF-REFERENCE
 NUMBER  SOURCE
  Null   'Unknown source'
  Same   'Same or similar interaction as in the corresponding stable phase'
  COST   'COST 507 database'
  91Din  'A.T. Dinsdale, Calphad, 15, 317-425(1991).'
  96SGUN 'SGTE unary database V.3.0, 1996.'
  13Liu  'Y. Liu, J. Xu, Z. Kang, J. Wang,
          Thermochim. Acta, 569, 119-26(2013); K-Sb'
!
