$
$ Database for Au-Te from Y. Feutelais et al. 1994 (Included in LB Vol. 1)
$
$ Y. Feutelais, D. Mouani, J.R. Didry, B. Legendre,
$ J. Phase Equilib., 15, 380-85(1994).
$
$ Dataset created 2013.05.30 by Bengt Hallstedt.
$ 2020.12.22: Modified for use with GES6.
$
$ Unary Te has changed radically since 94Feu.
$
$ The present Redlich-Kister polynomials are taken from LBall-v7+fun.tdb. The
$ original publication uses Legendre polynomials.
$
$ This dataset gives the same results as LBall-v7+fun.tdb, which are slightly
$ different from LB (up to 1.3 K for the invariants). These results are very
$ close to those in the original 94Feu publication.
$
$ There is a large inverse miscibility gap with a min at 1745 K and X(Te)=0.80.
$
$ AUTE2 is not stable below 315 K.
$
$ ------------------------------------------------------------------------------
 TEMP-LIM 298.15 6000.00 !
$
$ELEMENT NAME  REF. STATE               ATOMIC MASS H298-H0    S298    !
$
 ELEMENT VA   VACUUM                      0.0          0.0      0.0    ! 
 ELEMENT AU   FCC_A1                    196.9665    6016.592   47.4884 ! 
 ELEMENT TE   HEXAGONAL_A8              127.60      6080.      49.221  ! 
$ ------------------------------------------------------------------------------
$ Phase definitions
$
 PHASE LIQUID:L % 1 1 !
 CONST LIQUID:L : AU TE : !
$
$ Fcc (cF4) and MeX (cF8)
$
 PHASE FCC_A1 %A 2 1 1 !
 CONST FCC_A1 : AU : VA : !
$
$ Bcc (cI2, Im-3m)
$
 PHASE BCC_A2 %B 2 1 3 !
 CONST BCC_A2 : AU : VA : !
$
$ Hcp (hP2, P6_3/mmc) and Me2X (NiAs-type, hP4, P6_3/mmc, B8_1)
$
 PHASE HCP_A3 %A 2 1 0.5 !
 CONST HCP_A3 : AU : VA : !
$
$ Prototype gamma-Se (hP3, P3_121)
$ The phase is named HEXAGONAL_A8 in the SGTE unary database and
$ TRIGONAL_A8 in LB.
$
 PHASE HEXAGONAL_A8 % 1 1 !
 CONST HEXAGONAL_A8 : TE : !
$
$ Prototype AuTe2 (mC6, C2/m)
$
 PHASE AUTE2_C34 % 2 1 2 !
 CONST AUTE2_C34 : AU : TE : !
$ ------------------------------------------------------------------------------
$ Defaults
$
 DEFINE-SYSTEM-DEFAULT ELEMENT 2 !
 DEFAULT-COM DEFINE_SYSTEM_ELEMENT VA !
 TYPE-DEF % SEQ * !
 TYPE-DEF A GES AMEND_PHASE_DESCRIPTION @ MAGNETIC -3 0.28 !
 TYPE-DEF B GES AMEND_PHASE_DESCRIPTION @ MAGNETIC -1 0.4 !
 FUNCTION ZERO      298.15  0;                                         6000 N !
 FUNCTION UN_ASS    298.15  0;                                         6000 N !
 FUNCTION R         298.15  +8.31451;                                  6000 N !
$ ------------------------------------------------------------------------------
$ Element data
$ ------------------------------------------------------------------------------
$ Au
$
$ DHCP added in unary 5.0
$
$ DHCP replaced by the value from 92Ans in SGSOL 5.0
$
$ The DHCP phase is labelled D0_24 in 03Liu and alpha-prime in 92Ans. The
$ phase is present between the fcc and hcp phases in the Au-Sn and Au-In
$ systems. The value for DHCP from 92Ans was used to model these systems,
$ thus this value must be included in the unary database and not the 04Du
$ value.
$
 PAR  G(FCC_A1,AU:VA),,                 +GHSERAU;                3200 N 91Din !
 PAR  G(HCP_A3,AU:VA),,                 +GHSERAU+240.75+1.6*T;   3200 N 91Din !
 PAR  G(BCC_A2,AU:VA),,                 +GHSERAU+4250-1.1*T;     3200 N 91Din !
$PAR  G(DHCP,AU),,                      +GHSERAU+125+0.79*T;     3200 N 92Ans !
$PAR  G(DHCP,AU),,                      +GHSERAU+5000;           3200 N 04Du !
 PAR  G(LIQUID,AU),,                    +GHSERAU
             +12552-9.385866*T;                                  3200 N 91Din !
$
 FUNCTION GHSERAU   298.15  -6938.856+106.830098*T-22.75455*T*LN(T)
       -0.00385924*T**2+3.79625E-07*T**3-25097*T**(-1);
       929.40  Y  -93586.481+1021.69543*T-155.706745*T*LN(T)
       +0.08756015*T**2-1.1518713E-05*T**3+10637210*T**(-1);
      1337.33  Y  +314067.829-2016.37825*T+263.252259*T*LN(T)
       -0.118216828*T**2+8.923844E-06*T**3-67999832*T**(-1);
      1735.80  Y  -12133.783+165.272524*T-30.9616*T*LN(T);
      3200.00  N !
$ ------------------------------------------------------------------------------
$ Te
$
 PAR  G(HEXAGONAL_A8,TE),,              +GHSERTE;                1600 N 95Dav !
 PAR  G(LIQUID,TE),,                    +GLIQTE;                 1600 N 95Dav !
$
 FUNCTION GHSERTE   298.15  -10544.679+183.372894*T-35.6687*T*LN(T)
       +0.01583435*T**2-5.240417E-06*T**3+155015*T**(-1);
       722.66  Y  +9160.595-129.265373*T+13.004*T*LN(T)
       -0.0362361*T**2+5.006367E-06*T**3-1286810*T**(-1);
      1150.00  Y  -12781.349+174.901226*T-32.5596*T*LN(T);
      1600.00  N !
 FUNCTION GLIQTE    298.15  -17554.731+685.877639*T-126.318*T*LN(T)
       +0.2219435*T**2-9.42075E-05*T**3+827930*T**(-1);
       626.49  Y  -3165763.48+46756.357*T-7196.41*T*LN(T)
       +7.09775*T**2-0.00130692833*T**3+2.58051E+08*T**(-1);
       722.66  Y  +180326.959-1500.57909*T+202.743*T*LN(T)
       -0.142016*T**2+1.6129733E-05*T**3-24238450*T**(-1);
      1150.00  Y  +19110.036-26.1929273*T+GHSERTE;
      1600.00  N !
$ Old functions used by 94Feu (from 91Din)
$FUNCTION GHSERTE   298.15  -6677.083+85.019049*T-19.1003366*T*LN(T)
$      -0.011050509*T**2;
$      722.62  Y  -14523.09+210.012485*T-37.656*T*LN(T)+1.115711E+27*T**(-9);  
$     2000.00  N !
$FUNCTION GLIQTE    298.15  +10545.373+61.250493*T-19.1003366*T*LN(T)
$      -0.011050509*T**2-4.31543E-19*T**7;
$      722.62  Y  +3173.436+185.555178*T-37.656*T*LN(T);
$     2000.00  N !
$ ------------------------------------------------------------------------------
$ Binary system
$
$ From Y. Feutelais et al. 1994 (Included in LB Vol. 1)
$
$ Y. Feutelais, D. Mouani, J.R. Didry, B. Legendre,
$ J. Phase Equilib., 15, 380-85(1994).
$
$ Checked against LB and paper. Checked at 6000 K.
$
$ Unary Te has changed radically since 94Feu.
$
$ The present Redlich-Kister polynomials are taken from LBall-v7+fun.tdb. The
$ original publication uses Legendre polynomials.
$
$ This dataset gives the same results as LBall-v7+fun.tdb, which are slightly
$ different from LB (up to 1.3 K for the invariants). These results are very
$ close to those in the original 94Feu publication.
$
$ There is a large inverse miscibility gap with a min at 1745 K and X(Te)=0.80.
$
$ AUTE2 is not stable below 315 K.
$
 PAR  L(LIQUID,AU,TE;0),,               -162.46875-46.8050562*T
             +5.964112*T*LN(T);,,                                     N 94Feu !
 PAR  L(LIQUID,AU,TE;1),,               -37275.91+386.27733*T
             -49.993718*T*LN(T);,,                                    N 94Feu !
 PAR  L(LIQUID,AU,TE;2),,               +4789.8525+6.1384425*T;,,     N 94Feu !
 PAR  L(LIQUID,AU,TE;3),,               +17180.6-12.48535*T;,,        N 94Feu !
 PAR  L(LIQUID,AU,TE;4),,               +19021.0563-21.2071563*T;,,   N 94Feu !
$
$ Original parameter from paper below
$PAR  G(AUTE2_C34,AU:TE),,              -1514.97+2.36141*T
$            -1.056484*T*LN(T)+2.389741*T**2;,,                       N 94Feu !
$ Parameter from LBall-v7+fun.tdb below
 PAR  G(AUTE2_C34,AU:TE),,              +9692.14-46.8026351*T
             -22.3*T*LN(T)-0.005375*T**2;,,                           N 94Feu !
$ ------------------------------------------------------------------------------
$
 ASSESSED_SYSTEM
  AU-TE(TDB -* +LIQ +AUTE2_C34 +FCC_A1 +HEXAGONAL_A8
  ;P3 TMM:300/1500 STP:.3/1000) !
$
$
 LIST-OF-REFERENCE
 NUMBER  SOURCE
  Null   'Unknown source'
  Same   'Same or similar interaction as in the corresponding stable phase'
  COST   'COST 507 database'
  91Din  'A.T. Dinsdale, Calphad, 15, 317-425(1991).'
  92Ans  'I. Ansara, J.-Ph. Nabot, Calphad, 16, 13-18(1992); Au'
  94Feu  'Y. Feutelais, D. Mouani, J.R. Didry, B. Legendre,
          J. Phase Equilib., 15, 380-85(1994); Au-Te'
  95Dav  'A.V. Davydov, M.H. Rand, B.B. Argent, Calphad, 19, 375-87 (1995); Te'
  04Du   'Z. Du, C. Guo, D. Lu, J. Alloys Compd., 364, 117-20(2004),
          SGTE unary database V.5.0, 2009; Au'
!
