$
$ Database for Ce-Mn from C. Tang et al. 2007
$
$ C. Tang, Y. Du, L. Zhang, H. Xu, Z. Zhu,
$ J. Alloys Compd., 437, 102-6(2007).
$
$ Dataset created 2010.04.08 by Bengt Hallstedt.
$ 2020.12.25: Modified for use with GES6.
$
$ ------------------------------------------------------------------------------
 TEMP-LIM 298.15 6000.00 !
$
$ELEMENT NAME  REF. STATE               ATOMIC MASS H298-H0    S298    !
$
 ELEMENT VA   VACUUM                      0.0          0.0      0.0    ! 
 ELEMENT CE   FCC_A1                    140.12      7280.16    69.454  ! 
 ELEMENT MN   CBCC_A12                   54.9380    4995.696   32.2206 ! 
$ ------------------------------------------------------------------------------
$ Phase definitions
$
 PHASE LIQUID:L % 1 1 !
 CONST LIQUID:L : CE MN : !
$
$ Fcc (cF4, Fm-3m) and MeX (cF8, Fm-3m)
$
 PHASE FCC_A1 %A 2 1 1 !
 CONST FCC_A1 : CE% MN% : VA : !
$
$ Bcc (cI2, Im-3m)
$
 PHASE BCC_A2 %B 2 1 3 !
 CONST BCC_A2 : CE% MN% : VA : !
$
$ Hcp (hP2, P6_3/mmc) and Me2X (NiAs-type, hP4, P6_3/mmc, B8_1)
$
 PHASE HCP_A3 %A 2 1 0.5 !
 CONST HCP_A3 : CE MN : VA : !
$
$ Prototype alpha-Mn (cI58, I-43m)
$
 PHASE CBCC_A12 %A 2 1 1 !
 CONST CBCC_A12 : MN% : VA : !
$
$ Prototype beta-Mn (cP20, P4_132)
$
 PHASE CUB_A13 % 2 1 1 !
 CONST CUB_A13 : CE MN% : VA : !
$ ------------------------------------------------------------------------------
$ Defaults
$
 DEFINE-SYSTEM-DEFAULT ELEMENT 2 !
 DEFAULT-COM DEFINE_SYSTEM_ELEMENT VA !
 TYPE-DEF % SEQ * !
 TYPE-DEF A GES AMEND_PHASE_DESCRIPTION @ MAGNETIC -3 0.28 !
 TYPE-DEF B GES AMEND_PHASE_DESCRIPTION @ MAGNETIC -1 0.4 !
 FUNCTION ZERO      298.15  0;                                         6000 N !
 FUNCTION UN_ASS    298.15  0;                                         6000 N !
$ ------------------------------------------------------------------------------
$ Element data
$ ------------------------------------------------------------------------------
$ Ce
$
$ HCP_A3 and DHCP added in unary 3.0
$ HCP_A3 and DHCP revised in unary 4.4
$
$ CUB_A13 from 07Tan included in SGSOL 5.0, but not in unary
$
 PAR  G(FCC_A1,CE:VA),,                 +GHSERCE;                4000 N 91Din !
 PAR  G(BCC_A2,CE:VA),,                 +GBCCCE;                 4000 N 91Din !
 PAR  G(HCP_A3,CE:VA),,                 +GHSERCE+300;            4000 N Frank !
$PAR  G(HCP_A3,CE:VA),,                 +GHSERCE+50000;          4000 N 96SGUN !
$PAR  G(DHCP,CE:VA),,                   +GHSERCE
$            -122.539+0.433*T;                                   4000 N 99Gsc !
$PAR  G(DHCP,CE),,                      +GHSERCE-190+0.56886*T;  4000 N 96SGUN !
 PAR  G(CUB_A13,CE:VA),,                +GHSERCE+2500;           4000 N 07Tan !
 PAR  G(LIQUID,CE),,                    +GLIQCE;                 4000 N 91Din !
$
 FUNCTION GHSERCE   298.15  -7160.519+84.23022*T-22.3664*T*LN(T)
       -0.0067103*T**2-3.20773E-07*T**3-18117*T**(-1);
      1000.00  Y  -79678.506+659.4604*T-101.32248*T*LN(T)
       +0.026046487*T**2-1.930297E-06*T**3+11531707*T**(-1);
      2000.00  Y  -14198.639+190.370192*T-37.6978*T*LN(T);
      4000.00  N !
 FUNCTION GBCCCE    298.15  -1354.69-5.21501*T-7.7305867*T*LN(T)
       -0.029098402*T**2+4.784299E-06*T**3-196303*T**(-1);
      1000.00  Y  -12101.106+187.449688*T-37.6142*T*LN(T);
      1072.00  Y  -11950.375+186.333811*T-37.4627992*T*LN(T)
       -5.7145E-05*T**2+2.348E-09*T**3-25897*T**(-1);
      4000.00  N !
 FUNCTION GLIQCE    298.15  +4117.865-11.423898*T-7.5383948*T*LN(T)
       -0.02936407*T**2+4.827734E-06*T**3-198834*T**(-1);
      1000.00  Y  -6730.605+183.023193*T-37.6978*T*LN(T);
      4000.00  N !
$ ------------------------------------------------------------------------------
$ Mn
$
 PAR  G(CBCC_A12,MN:VA),,               +GHSERMN;                2000 N 91Din !
 PAR  TC(CBCC_A12,MN:VA),,               -285.00;                2000 N 91Din !
 PAR  BM(CBCC_A12,MN:VA),,                 -0.66;                2000 N 91Din !
 PAR  G(CUB_A13,MN:VA),,                +GCUBMN;                 2000 N 91Din !
 PAR  G(FCC_A1,MN:VA),,                 +GFCCMN;                 2000 N 91Din !
 PAR  TC(FCC_A1,MN:VA),,                -1620.00;                2000 N 91Din !
 PAR  BM(FCC_A1,MN:VA),,                   -1.86;                2000 N 91Din !
 PAR  G(BCC_A2,MN:VA),,                 +GBCCMN;                 2000 N 91Din !
 PAR  TC(BCC_A2,MN:VA),,                 -580.00;                2000 N 91Din !
 PAR  BM(BCC_A2,MN:VA),,                   -0.27;                2000 N 91Din !
 PAR  G(HCP_A3,MN:VA),,                 +GHCPMN;                 2000 N 91Din !
 PAR  TC(HCP_A3,MN:VA),,                -1620.00;                2000 N 91Din !
 PAR  BM(HCP_A3,MN:VA),,                   -1.86;                2000 N 91Din !
 PAR  G(LIQUID,MN),,                    +GLIQMN;                 2000 N 91Din !
$
 FUNCTION GHSERMN   298.15  -8115.28+130.059*T-23.4582*T*LN(T)
       -0.00734768*T**2+69827*T**(-1);
      1519.00  Y  -28733.41+312.2648*T-48*T*LN(T)+1.656847E+30*T**(-9);
      2000.00  N !
 FUNCTION GCUBMN    298.15  -5800.4+135.995*T-24.8785*T*LN(T)
       -0.00583359*T**2+70269*T**(-1);
      1519.00  Y  +442.65-0.9715*T+GHSERMN+2.310723E+30*T**(-9);
      2000.00  N !
 FUNCTION GFCCMN    298.15  -3439.3+131.884*T-24.5177*T*LN(T)
       -0.006*T**2+69600*T**(-1);
      1519.00  Y  +2663.31-2.5984*T+GHSERMN+2.205113E+30*T**(-9);
      2000.00  N !
 FUNCTION GBCCMN    298.15  -3235.3+127.85*T-23.7*T*LN(T)
       -0.00744271*T**2+60000*T**(-1);
      1519.00  Y  +5544.58-4.5605*T+GHSERMN-3.91695E+29*T**(-9);
      2000.00  N !
 FUNCTION GHCPMN    298.15  -4439.3+133.007*T-24.5177*T*LN(T)
       -0.006*T**2+69600*T**(-1);
      1519.00  Y  +1663.31-1.4754*T+GHSERMN+2.205113E+30*T**(-9);
      2000.00  N !
 FUNCTION GLIQMN    298.15  +17859.91-12.6208*T+GHSERMN-4.41929E-21*T**7;
      1519.00  Y  -9993.9+299.036*T-48*T*LN(T);
      2000.00  N !
$ ------------------------------------------------------------------------------
$ Binary system
$
$ C. Tang, Y. Du, L. Zhang, H. Xu, Z. Zhu,
$ J. Alloys Compd., 437, 102-6(2007).
$
$ Checked against paper. Checked at 6000 K.
$
 PAR  L(LIQUID,CE,MN;0),,               +15584.7-5.30258*T;,,         N 07Tan !
 PAR  L(LIQUID,CE,MN;1),,               -2736.1;,,                    N 07Tan !
 PAR  L(LIQUID,CE,MN;2),,               -1532.3;,,                    N 07Tan !
$
 PAR  L(FCC_A1,CE,MN:VA;0),,            +29193;,,                     N 07Tan !
 PAR  L(FCC_A1,CE,MN:VA;1),,            +2006.6;,,                    N 07Tan !
$
 PAR  L(BCC_A2,CE,MN:VA;0),,            +23607.2;,,                   N 07Tan !
 PAR  L(BCC_A2,CE,MN:VA;1),,            -2250;,,                      N 07Tan !
$
 PAR  L(CUB_A13,CE,MN:VA;0),,           +13261.4+13.54757*T;,,        N 07Tan !
$
$ Metastable
$
 PAR  L(HCP_A3,CE,MN:VA;0),,            +29193;,,                     N Same !
 PAR  L(HCP_A3,CE,MN:VA;1),,            +2006.6;,,                    N Same !
$ ------------------------------------------------------------------------------
$
$
 LIST-OF-REFERENCE
 NUMBER  SOURCE
  Null   'Unknown source'
  Same   'Same or similar interaction as in the corresponding stable phase'
  REFLAV 'Laves phase convention: G(LAVES,X:X)=+3*GHSERXX+15000'
  Frank  'Peter Franke, unpublished, SGTE unary database V.4.4, 2001; Ce'
  91Din  'A.T. Dinsdale, Calphad, 15, 317-425(1991).'
  96SGUN 'SGTE unary database V.3.0, 1996.'
  99Gsc  'K.A. Gschneidner, Jr., V.K. Pecharsky, J. Phase Equilib.,
          20, 612-14(1999), SGTE unary database V.4.4, 2001; Ce'
  07Tan  'C. Tang, Y. Du, L. Zhang, H. Xu, Z. Zhu,
          J. Alloys Compd., 437, 102-6(2007); Ce, Ce-Mn'
!
