$
$ Database for Co-Y from Y. Wang et al. 2021.
$
$ Y. Wang, M. Ostrowska, G. Cacciamani, Calphad, 72, 102214(2021).
$
$ Dataset created 2021.05.09 by Bengt Hallstedt.
$
$ Modified from 06Gol to reduce an inverse miscibility gap.
$
$ There are no parameters in the paper. They are taken from a supplemental tdb.
$
$ Inverse miscibility gap with minimum at 4941 K and x(Y)=0.65.
$
$ ------------------------------------------------------------------------------
 TEMP-LIM 298.15 6000.00 !
$
$ELEMENT NAME  REF. STATE               ATOMIC MASS H298-H0    S298    !
$
 ELEMENT VA   VACUUM                      0.0          0.0      0.0    ! 
 ELEMENT CO   HCP_A3                     58.9332    4765.567   30.0400 ! 
 ELEMENT Y    HCP_A3                     88.9059    5983.457   44.7875 ! 
$ ------------------------------------------------------------------------------
$ Species
$
 SPECIE  CO2                                CO2 !
$ ------------------------------------------------------------------------------
$ Phase definitions
$
 PHASE LIQUID:L % 1 1 !
 CONST LIQUID:L : CO Y : !
$
$ Fcc (cF4, Fm-3m) and MeX (cF8, Fm-3m)
$
 PHASE FCC_A1 %A 2 1 1 !
 CONST FCC_A1 : CO% Y : VA : !
$
$ Bcc (cI2, Im-3m)
$
 PHASE BCC_A2 %B 2 1 3 !
 CONST BCC_A2 : CO Y% : VA : !
$
$ Hcp (hP2, P6_3/mmc) and Me2X (NiAs-type, hP4, P6_3/mmc, B8_1)
$
 PHASE HCP_A3 %A 2 1 0.5 !
 CONST HCP_A3 : CO% Y% : VA : !
$
$ Prototype Th2Zn17 (hR19, R-3m), alpha-Co17Y2
$ Prototype Ni17Th2 (hP38, P6_3/mmc), beta-Co17Y2
$
 PHASE CO17Y2 %A 3 1 2 15 !
 CONST CO17Y2 : CO2 Y : CO2 Y : CO : !
$
$ Prototype CaCu5 (hP6, P6/mmm)
$
 PHASE CO5Y_D2D %A 3 1 4 1 !
 CONST CO5Y_D2D : CO2 Y : CO : CO VA : !
$
$ Prototype Co7Gd2 (hR18, R-3m)
$
 PHASE CO7Y2 % 2 7 2 !
 CONST CO7Y2 : CO : Y : !
$
$ Prototype Ni3Pu (hR12, R-3m) or CeNi3 (hP24, P6_3/mmc)
$
 PHASE CO3Y % 2 3 1 !
 CONST CO3Y : CO : Y : !
$
$ Prototype Cu2Mg (cF24, Fd-3m)
$
 PHASE CO2Y_C15 % 2 2 1 !
 CONST CO2Y_C15 : CO : Y : !
$
$ Pearson cP*
$
 PHASE CO3Y2 % 2 3 2 !
 CONST CO3Y2 : CO : Y : !
$
$ Unknown structure
$
 PHASE CO7Y6 % 2 7 6 !
 CONST CO7Y6 : CO : Y : !
$
$ Prototype CrB (oC8, Cmcm)
$
 PHASE COY_B33 % 2 1 1 !
 CONST COY_B33 : CO : Y : !
$
$ Prototype Co3Ho4 (hP22, P6_3/m)
$
 PHASE CO3Y4 % 2 3 4 !
 CONST CO3Y4 : CO : Y : !
$
$ Prototype Co5Y8 (mP52, P2_1/c)
$
 PHASE CO5Y8 % 2 5 8 !
 CONST CO5Y8 : CO : Y : !
$
$ Prototype Fe3C (oP16, Pnma)
$
 PHASE COY3_D011 % 2 1 3 !
 CONST COY3_D011 : CO : Y : !
$ ------------------------------------------------------------------------------
$ Defaults
$
 DEFINE-SYSTEM-DEFAULT ELEMENT 2 !
 DEFAULT-COM DEFINE_SYSTEM_ELEMENT VA !
 TYPE-DEF % SEQ * !
 TYPE-DEF A GES AMEND_PHASE_DESCRIPTION @ MAGNETIC -3 0.28 !
 TYPE-DEF B GES AMEND_PHASE_DESCRIPTION @ MAGNETIC -1 0.4 !
 FUNCTION ZERO      298.15  0;                                         6000 N !
 FUNCTION UN_ASS    298.15  0;                                         6000 N !
 FUNCTION R         298.15  +8.31451;                                  6000 N !
$ ------------------------------------------------------------------------------
$ Element data
$ ------------------------------------------------------------------------------
$ Co
$
 PAR  G(HCP_A3,CO:VA),,                 +GHSERCO;,,                   N 91Din !
 PAR  TC(HCP_A3,CO:VA),,                 1396.00;,,                   N 91Din !
 PAR  BM(HCP_A3,CO:VA),,                    1.35;,,                   N 91Din !
 PAR  G(FCC_A1,CO:VA),,                 +GHSERCO
             +427.591-0.615248*T;,,                                   N 91Din !
 PAR  TC(FCC_A1,CO:VA),,                 1396.00;,,                   N 91Din !
 PAR  BM(FCC_A1,CO:VA),,                    1.35;,,                   N 91Din !
 PAR  G(BCC_A2,CO:VA),,                 +GHSERCO+2938-0.7138*T;,,     N 91Din !
 PAR  TC(BCC_A2,CO:VA),,                 1450.00;,,                   N 91Din !
 PAR  BM(BCC_A2,CO:VA),,                    1.35;,,                   N 91Din !
$PAR  G(CBCC_A12,CO:VA),,               +GHSERCO+4155;,,              N 91Din !
$PAR  G(CUB_A13,CO:VA),,                +GHSERCO+3155;,,              N 91Din !
 PAR  G(LIQUID,CO),,                    +GLIQCO;,,                    N 91Din !
$
 PAR  G(CO17Y2,CO2:CO2:CO),,            +21*GHSERCO+210000;,,         N 06Gol !
 PAR  G(CO5Y_D2D,CO2:CO:CO),,           +7*GHSERCO+90500;,,           N 06Gol !
 PAR  G(CO5Y_D2D,CO2:CO:VA),,           +6*GHSERCO+191380;,,          N 06Gol !
$
 FUNCTION GHSERCO   298.15  +310.241+133.36601*T-25.0861*T*LN(T)
       -0.002654739*T**2-1.7348E-07*T**3+72527*T**(-1);
      1768.00  Y  -17197.666+253.28374*T-40.5*T*LN(T)+9.3488E+30*T**(-9);
      6000.00  N !
 FUNCTION GLIQCO    298.15  +15085.037-8.931932*T+GHSERCO-2.19801E-21*T**7;
      1768.00  Y  -846.61+243.599944*T-40.5*T*LN(T);
      6000.00  N !
$ ------------------------------------------------------------------------------
$ Y
$
$ HCP_A3, BCC_A2 and LIQUID revised in unary 3.0
$ FCC_A1 added in unary 4.1
$
$ FCC_A1 from 04Du3 not included in unary
$
 PAR  G(HCP_A3,Y:VA)            100.00  +GHSERYY;                3700 N 95She3 !
 PAR  G(BCC_A2,Y:VA)            100.00  +GBCCYY;                 3700 N 95She3 !
 PAR  G(FCC_A1,Y:VA)            100.00  +GHSERYY+6000;           3700 N Frie2 !
$PAR  G(FCC_A1,Y:VA)            100.00  +GHSERYY+5000;           3700 N 04Du !
 PAR  G(LIQUID,Y)               100.00  +GLIQYY;                 3700 N 95She3 !
$
 FUNCTION GHSERYY   100.00  -8011.09379+128.572856*T-25.6656992*T*LN(T)
       -0.00175716414*T**2-4.17561786E-07*T**3+26911.509*T**(-1);
      1000.00  Y  -7179.74574+114.497104*T-23.4941827*T*LN(T)
       -0.0038211802*T**2-8.2534534E-08*T**3;
      1795.15  Y  -67480.7761+382.124727*T-56.9527111*T*LN(T)
       +0.00231774379*T**2-7.22513088E-08*T**3+18077162.6*T**(-1);
      3700.00  N !
 FUNCTION GBCCYY    100.00  -833.658863+123.667346*T-25.5832578*T*LN(T)
       -0.00237175965*T**2+9.10372497E-09*T**3+27340.0687*T**(-1);
      1000.00  Y  -1297.79829+134.528352*T-27.3038477*T*LN(T)
       -5.41757644E-04*T**2-3.05012175E-07*T**3;
      1795.15  Y  +15389.4975+0.981325399*T-8.88296647*T*LN(T)
       -0.00904576576*T**2+4.02944768E-07*T**3-2542575.96*T**(-1);
      3700.00  N !
 FUNCTION GLIQYY    100.00  +2098.50738+119.41873*T-24.6467508*T*LN(T)
       -0.00347023463*T**2-8.12981167E-07*T**3+23713.7332*T**(-1);
      1000.00  Y  +7386.44846+19.4520171*T-9.0681627*T*LN(T)
       -0.0189533369*T**2+1.7595327E-06*T**3;
      1795.15  Y  -12976.5957+257.400783*T-43.0952*T*LN(T);
      3700.00  N !
$ ------------------------------------------------------------------------------
$ Binary system
$
$ Y. Wang, M. Ostrowska, G. Cacciamani, Calphad, 72, 102214(2021).
$
$ Checked against paper and author's tdb. Checked at 6000K.
$
$ Modified from 06Gol to reduce an inverse miscibility gap.
$
$ There are no parameters in the paper. They are taken from a supplemental tdb.
$
$ Inverse miscibility gap with minimum at 4941 K and x(Y)=0.65.
$
 PAR  L(LIQUID,CO,Y;0),,                -92420+15.247*T;,,            N 21Wan !
 PAR  L(LIQUID,CO,Y;1),,                +18310-21.879*T;,,            N 21Wan !
 PAR  L(LIQUID,CO,Y;2),,                +48750-21.547*T;,,            N 21Wan !
$
 PAR  L(FCC_A1,CO,Y:VA;0),,             +UN_ASS;,,                    N !
 PAR  L(BCC_A2,CO,Y:VA;0),,             +UN_ASS;,,                    N !
 PAR  L(HCP_A3,CO,Y:VA;0),,             +UN_ASS;,,                    N !
$
 PAR  G(CO17Y2,CO2:Y:CO),,              +17*GHSERCO+2*GHSERYY
             -352086.1+96.051*T;,,                                    N 06Gol !
 PAR  TC(CO17Y2,CO2:Y:CO),,              1138.5;,,                    N 06Gol !
 PAR  BM(CO17Y2,CO2:Y:CO),,                 1.45185;,,                N 06Gol !
 PAR  G(CO17Y2,Y:CO2:CO),,              +19*GHSERCO+GHSERYY
             +569050;,,                                               N 06Gol !
 PAR  G(CO17Y2,Y:Y:CO),,                +15*GHSERCO+3*GHSERYY
             +210000;,,                                               N 06Gol !
 PAR  L(CO17Y2,CO2,Y:Y:CO;0),,          -286210-205.121*T;,,          N 06Gol !
 PAR  L(CO17Y2,CO2:CO2,Y:CO;0),,        +292670-339.315*T;,,          N 06Gol !
$
 PAR  G(CO5Y_D2D,Y:CO:CO),,             +5*GHSERCO+GHSERYY
             -72350+20.655*T;,,                                       N 06Gol !
 PAR  TC(CO5Y_D2D,Y:CO:CO),,              976;,,                      N 06Gol !
 PAR  BM(CO5Y_D2D,Y:CO:CO),,                1.221667;,,               N 06Gol !
 PAR  G(CO5Y_D2D,Y:CO:VA),,             +4*GHSERCO+GHSERYY+81500;,,   N 06Gol !
 PAR  L(CO5Y_D2D,CO2,Y:CO:CO;0),,       -209090+5.022*T;,,            N 06Gol !
 PAR  L(CO5Y_D2D,Y:CO:CO,VA;0),,        -453210+50.554*T;,,           N 06Gol !
$
 PAR  G(CO7Y2,CO:Y),,                   +7*GHSERCO+2*GHSERYY
             -224500+36.281*T;,,                                      N 21Wan !
 PAR  G(CO3Y,CO:Y),,                    +3*GHSERCO+GHSERYY
             -103300+15.074*T;,,                                      N 21Wan !
 PAR  G(CO2Y_C15,CO:Y),,                +2*GHSERCO+GHSERYY
             -83442+12.8*T;,,                                         N 21Wan !
 PAR  G(CO3Y2,CO:Y),,                   +3*GHSERCO+2*GHSERYY
             -149808+35.051*T;,,                                      N 21Wan !
 PAR  G(CO7Y6,CO:Y),,                   +7*GHSERCO+6*GHSERYY
             -387550+105.08535*T;,,                                   N 21Wan !
 PAR  G(COY_B33,CO:Y),,                 +GHSERCO+GHSERYY
             -58981+17.075*T;,,                                       N 21Wan !
 PAR  G(CO3Y4,CO:Y),,                   +3*GHSERCO+4*GHSERYY
             -202856+71.233*T;,,                                      N 21Wan !
 PAR  G(CO5Y8,CO:Y),,                   +5*GHSERCO+8*GHSERYY
             -339960+112.711*T;,,                                     N 21Wan !
 PAR  G(COY3_D011,CO:Y),,               +GHSERCO+3*GHSERYY
             -66881+13.541*T;,,                                       N 21Wan !
$ ------------------------------------------------------------------------------
$
 ASSESSED_SYSTEM
  CO-Y(TDB -* +LIQUID +FCC +HCP_A3 +BCC_A2 +CO17Y2 +CO5Y_D2D +CO7Y2 +CO3Y
   +CO2Y_C15 +CO3Y2 +CO7Y6 +COY_B33 +CO3Y4 +CO5Y8 +COY3_D011
   ;G5 C_S:CO17Y2/CO2:Y:CO2 MAJ:CO17Y2/Y:CO2:CO2 ;P3 *) !
$
$
 LIST-OF-REFERENCE
 NUMBER  SOURCE
  Null   'Unknown source'
  Same   'Same or similar interaction as in the corresponding stable phase'
  REFLAV 'Laves phase convention: G(LAVES,X:X)=+3*GHSERXX+15000'
  Frie2  'Suzana Fries and Leo Lukas, unpublished,
          SGTE unary database V.4.1, 1999; Y'
  91Din  'A.T. Dinsdale, Calphad, 15, 317-425(1991).'
  95She3 'H. Shen, W. Zhang, G. Liu, R. Wang, Z. Du, Report F-95-03,
          University of Science and Technology, Beijing, May 1995,
          SGTE unary database V.3.0, 1996; Y'
  04Du   'Z. Du, D. Lu, J. Alloys Compd., 373, 171-78(2004); Y, Co-Y'
  05Fra  'P. Franke, 2005, adjustment to SGTE unaries; Co-Y'
  06Gol  'W. Golumbfskie, Z.-K. Liu, J. Alloys Compd., 407, 193-200(2006); Co-Y'
  21Wan  'Y. Wang, M. Ostrowska, G. Cacciamani, Calphad, 72, 102214(2021); Co-Y'
!
