$
$ Database for Si-C from C. Jiang et al. 2020.
$
$ C. Jiang, I.J. van Rooyen, S. Meher, Comput. Mater. Sci., 171, 109238(2020).
$
$ Dataset created 2024.03.22 by Bengt Hallstedt.
$
$ If BCC_A2 is included, it is stable from 3300 to 5200 K at about SiC
$ composition.
$
$ The thermodynamic properties of alpha-SiC (2H) and beta-SiC (3C) have been
$ evaluated by C. Varadachari and R. Bhowmick (Modelling Simul. Mater. Sci.
$ Eng., 17 (2009) 075006). According to this beta-SiC is about 1 kJ/mol-atoms
$ more stable than alpha-SiC at all temperatures. These data should be used
$ for future evaluation.
$
$ ------------------------------------------------------------------------------
 TEMP-LIM 298.15 6000.00 !
$
$ELEMENT NAME  REF. STATE               ATOMIC MASS H298-H0    S298    !
$
 ELEMENT VA   VACUUM                      0.0          0.0      0.0    ! 
 ELEMENT C    GRAPHITE_A9                12.011     1054.0      5.7423 ! 
 ELEMENT SI   DIAMOND_A4                 28.0855    3217.      18.81   ! 
$ ------------------------------------------------------------------------------
$ Phase definitions
$
 PHASE LIQUID:L % 1 1 !
 CONST LIQUID:L : C SI : !
$
$ Fcc (cF4, Fm-3m) and MeX (cF8, Fm-3m)
$
 PHASE FCC_A1 %A 2 1 1 !
 CONST FCC_A1 : SI : C VA% : !
$
$ Bcc (cI2, Im-3m)
$
 PHASE BCC_A2 %B 2 1 3 !
 CONST BCC_A2 : SI : C VA% : !
$
$ Hcp (hP2, P6_3/mmc) and Me2X (NiAs-type, hP4, P6_3/mmc, B8_1)
$
 PHASE HCP_A3 % 2 1 0.5 !
 CONST HCP_A3 : SI : C VA% : !
$
$ Prototype C (cF8, Fd-3m)
$
 PHASE DIAMOND_A4 % 1 1 !
 CONST DIAMOND_A4 : C SI% : !
$
$ Prototype C (hP4, P6_3/mmc)
$
 PHASE GRAPHITE_A9 % 1 1 !
 CONST GRAPHITE_A9 : C : !
$
$ Prototype ZnS (cF8, F-43m)
$
 PHASE SIC_B3 % 2 1 1 !
 CONST SIC_B3 : SI : C : !
$ ------------------------------------------------------------------------------
$ Defaults
$
 DEFINE-SYSTEM-DEFAULT ELEMENT 2 !
 DEFAULT-COM DEFINE_SYSTEM_ELEMENT VA !
 TYPE-DEF % SEQ * !
 TYPE-DEF A GES AMEND_PHASE_DESCRIPTION @ MAGNETIC -3 0.28 !
 TYPE-DEF B GES AMEND_PHASE_DESCRIPTION @ MAGNETIC -1 0.4 !
 FUNCTION ZERO      298.15  0;                                         6000 N !
 FUNCTION UN_ASS    298.15  0;                                         6000 N !
 FUNCTION R         298.15  +8.31451;                                  6000 N !
$ ------------------------------------------------------------------------------
$ Element data
$ ------------------------------------------------------------------------------
$ C
$
 PAR  G(GRAPHITE_A9,C),,                +GHSERCC;,,                   N 91Din !
 PAR  G(DIAMOND_A4,C),,                 +GDIACC;,,                    N 91Din !
 PAR  G(LIQUID,C),,                     +GHSERCC+117369-24.63*T;,,    N 91Din !
$
 FUNCTION GHSERCC   298.15  -17368.441+170.73*T-24.3*T*LN(T)
       -4.723E-04*T**2+2562600*T**(-1)-2.643E+08*T**(-2)+1.2E+10*T**(-3);
      6000.00  N !
 FUNCTION GDIACC    298.15  -16359.441+175.61*T-24.31*T*LN(T)
       -4.723E-04*T**2+2698000*T**(-1)-2.61E+08*T**(-2)+1.11E+10*T**(-3);
      6000.00  N !
$ ------------------------------------------------------------------------------
$ Si
$
 PAR  G(DIAMOND_A4,SI),,                +GHSERSI;                3600 N 91Din !
 PAR  G(FCC_A1,SI:VA),,                 +GHSERSI+51000-21.8*T;   3600 N 91Din !
 PAR  G(BCC_A2,SI:VA),,                 +GHSERSI+47000-22.5*T;   3600 N 91Din !
 PAR  G(HCP_A3,SI:VA),,                 +GHSERSI+49200-20.8*T;   3600 N 91Din !
$PAR  G(CBCC_A12,SI:VA),,               +GHSERSI+50208-20.377*T; 3600 N 91Din !
$PAR  G(CUB_A13,SI:VA),,                +GHSERSI+47279-20.377*T; 3600 N 91Din !
 PAR  G(LIQUID,SI),,                    +GLIQSI;                 3600 N 91Din !
$
 FUNCTION GHSERSI   298.15  -8162.609+137.236859*T-22.8317533*T*LN(T)
       -0.001912904*T**2-3.552E-09*T**3+176667*T**(-1);
      1687.00  Y  -9457.642+167.281367*T-27.196*T*LN(T)-4.20369E+30*T**(-9);
      3600.00  N !
 FUNCTION GLIQSI    298.15  +50696.36-30.099439*T+GHSERSI+2.09307E-21*T**7;
      1687.00  Y  +40370.523+137.722298*T-27.196*T*LN(T);
      3600.00  N !
 FUNCTION GBCCSI    298.15  +GHSERSI+47000-22.5*T;               3600 N 91Din !
$ ------------------------------------------------------------------------------
$ Binary system
$
$ C. Jiang, I.J. van Rooyen, S. Meher, Comput. Mater. Sci., 171, 109238(2020).
$
$ Checked against paper. Checked at 6000 K.
$
$ If BCC_A2 is included, it is stable from 3300 to 5200 K at about SiC
$ composition.
$
$ The thermodynamic properties of alpha-SiC (2H) and beta-SiC (3C) have been
$ evaluated by C. Varadachari and R. Bhowmick (Modelling Simul. Mater. Sci.
$ Eng., 17 (2009) 075006). According to this beta-SiC is about 1 kJ/mol-atoms
$ more stable than alpha-SiC at all temperatures. These data should be used
$ for future evaluation.
$
 PAR  L(LIQUID,C,SI;0),,                -3163.5+2.29617*T;,,          N 20Jia !
$
 PAR  L(DIAMOND_A4,C,SI;0),,            +474869.7;,,                  N 20Jia !
 PAR  L(DIAMOND_A4,C,SI;1),,            +222448;,,                    N 20Jia !
$
 PAR  G(SIC_B3,SI:C),,                  -88584+271.1462*T
             -41.2795*T*LN(T)-0.00436266*T**2+800000*T**(-1)
             +2E-07*T**3;,,                                           N 96Gro !
$
$ Metastable
$
 PAR  G(FCC_A1,SI:C),,                  +GHSERSI+GDIACC+90202.4;,,    N 20Jia !
 PAR  G(BCC_A2,SI:C),,                  +GBCCSI+3*GHSERCC
             +322050-75.667*T;,,                                      N 91Lac !
 PAR  G(HCP_A3,SI:C),,                  +UN_ASS;,,                    N !
$ ------------------------------------------------------------------------------
$
 ASSESSED_SYSTEM
  C-SI(TDB -* +LIQ +DIAM +GRAPH +SIC_B3 ;P3 TMM:300/5000 STP:.99/1690/-2) !
$
$
 LIST-OF-REFERENCE
 NUMBER  SOURCE
  Null   'Unknown source'
  91Din  'A.T. Dinsdale, Calphad, 15, 317-425(1991).'
  91Lac  'J. Lacaze, B. Sundman,
          Metall. Mater. Trans. A, 22A, 2211-23(1991); Fe-Si-C'
  96Gro  'J. Groebner, H.L. Lukas, F. Aldinger, Calphad, 20, 247-54(1996); Si-C'
  20Jia  'C. Jiang, I.J. van Rooyen, S. Meher,
          Comput. Mater. Sci., 171, 109238(2020); Si-C'
!
