$
$ Database for Ba-Bi from J. Liu et al. 2019.
$
$ J. Liu, P.-W. Guan, C.N. Marker, N.D. Smith, N. Orabona, S.-L. Shang, H. Kim,
$ Z.-K. Liu, J. Alloys Compd., 771, 281-89(2019).
$
$ Dataset created 2019.10.13 by Bengt Hallstedt.
$ 2023.02.24: Unary Bi changed from V4.4 to V5.0.
$
$ Invariant equilibria differ by up to 4 K due to rounding errors.
$
$ ------------------------------------------------------------------------------
 TEMP-LIM 298.15 6000.00 !
$
$ELEMENT NAME  REF. STATE               ATOMIC MASS H298-H0    S298    !
$
 ELEMENT VA   VACUUM                      0.0          0.0      0.0    ! 
 ELEMENT BA   BCC_A2                    137.33      6910.0     62.50   ! 
 ELEMENT BI   RHOMBOHEDRAL_A7           208.98      6426.6     56.735  !
$ ------------------------------------------------------------------------------
$ Species
$
 SPECIE  BA4BI3                             BA4BI3 !
 SPECIE  BABI3                              BA1BI3 !
$ ------------------------------------------------------------------------------
$ Phase definitions
$
 PHASE LIQUID:L % 1 1 !
 CONST LIQUID:L : BA BA4BI3 BABI3 BI : !
$
$ Fcc (cF4, Fm-3m) and MeX (cF8, Fm-3m)
$
 PHASE FCC_A1 %A 2 1 1 !
 CONST FCC_A1 : BA BI : VA : !
$
$ Bcc (cI2, Im-3m)
$
 PHASE BCC_A2 %B 2 1 3 !
 CONST BCC_A2 : BA% BI : VA : !
$
$ Hcp (hP2, P6_3/mmc) and Me2X (NiAs-type, hP4, P6_3/mmc, B8_1)
$
 PHASE HCP_A3 %A 2 1 0.5 !
 CONST HCP_A3 : BA BI : VA : !
$
$ Prototype alpha-As (hR2, R-3m)
$
 PHASE RHOMBOHEDRAL_A7 % 1 1 !
 CONST RHOMBOHEDRAL_A7 : BA BI% : !
$
$ Prototype La2Sb (tI12, I4/mmm)
$
 PHASE BA2BI % 2 2 1 !
 CONST BA2BI : BA : BI : !
$
$ Prototype Mn5Si3 (hP16, P6_3/mcm)
$
 PHASE BA5BI3_D88 % 2 5 3 !
 CONST BA5BI3_D88 : BA : BI : !
$
$ Prototype Th3P4 (cI28, I-43d)
$
 PHASE BA4BI3_D73 % 2 4 3 !
 CONST BA4BI3_D73 : BA : BI : !
$
$ Prototype Ge10Ho11 (tI84, I4/mmm)
$
 PHASE BA11BI10 % 2 11 10 !
 CONST BA11BI10 : BA : BI : !
$
$ Prototype Pb3Sr (tP4, P4/mmm)
$
 PHASE BABI3 % 2 1 3 !
 CONST BABI3 : BA : BI : !
$ ------------------------------------------------------------------------------
$ Defaults
$
 DEFINE-SYSTEM-DEFAULT ELEMENT 2 !
 DEFAULT-COM DEFINE_SYSTEM_ELEMENT VA !
 TYPE-DEF % SEQ * !
 TYPE-DEF A GES AMEND_PHASE_DESCRIPTION @ MAGNETIC -3 0.28 !
 TYPE-DEF B GES AMEND_PHASE_DESCRIPTION @ MAGNETIC -1 0.4 !
 FUNCTION ZERO      298.15  0;                                         6000 N !
 FUNCTION UN_ASS    298.15  0;                                         6000 N !
 FUNCTION R         298.15  +8.31451;                                  6000 N !
$ ------------------------------------------------------------------------------
$ Element data
$ ------------------------------------------------------------------------------
$ Ba
$
$ RHOMBOHEDRAL_A7 from 19Liu not included in unary
$
 PAR  G(BCC_A2,BA:VA),,                 +GHSERBA;                4000 N 91Din !
 PAR  G(HCP_A3,BA:VA),,                 +GHSERBA+2000+1.3*T;     4000 N 91Din !
 PAR  G(FCC_A1,BA:VA),,                 +GHSERBA+1800+0.6*T;     4000 N 91Din !
 PAR  G(RHOMBOHEDRAL_A7,BA),,           +GHSERBA+101333;         4000 N 19Liu !
 PAR  G(LIQUID,BA),,                    +GLIQBA;                 4000 N 91Din !
$
 FUNCTION GHSERBA   298.15  -17685.226+233.78606*T-42.889*T*LN(T)
       -0.0018314*T**2-9.5E-11*T**3+705880*T**(-1);
      1000.00  Y  -64873.614+608.188389*T-94.2824199*T*LN(T)
       +0.019504772*T**2-1.051353E-06*T**3+8220192*T**(-1);
      2995.00  Y  +8083.889+136.780042*T-32.2*T*LN(T);
      4000.00  N !
 FUNCTION GLIQBA    298.15  -9738.988+229.540143*T-43.4961089*T*LN(T)
       -0.002346416*T**2+9.91223E-07*T**3+723016*T**(-1);
      1000.00  Y  -7381.093+235.49642*T-45.103*T*LN(T)
       +0.002154*T**2+2.7E-11*T**3-365*T**(-1);
      2995.00  Y  +3856.393-4.568042*T+GHSERBA;
      4000.00  N !
$ ------------------------------------------------------------------------------
$ Bi
$
$ RHOMBOHEDRAL_A7 and LIQUID modified in unary 5.0
$ DIAMOND_A4 added in unary 5.0
$
 PAR  G(RHOMBOHEDRAL_A7,BI),,           +GHSERBI;                3000 N 09SGUN !
 PAR  G(FCC_A1,BI:VA),,                 +GHSERBI+9900-12.5*T;    3000 N 91Din !
 PAR  G(BCC_A2,BI:VA),,                 +GHSERBI+11297-13.9*T;   3000 N 91Din !
 PAR  G(HCP_A3,BI:VA),,                 +GHSERBI+9900-11.8*T;    3000 N 91Din !
$PAR  G(DIAMOND_A4,BI),,                +GHSERBI
$            +11296.8+9.253655*T;                                3000 N 88Che2 !
$PAR  G(BCT_A5,BI),,                    +GHSERBI+4184.07;        3000 N 91Din !
$PAR  G(TETRAGONAL_A6,BI),,             +GHSERBI+4184.07;        3000 N 91Din !
$PAR  G(TET_ALPHA1_A6,BI),,             +GHSERBI+4234;           3000 N 91Din !
 PAR  G(LIQUID,BI),,                    +GLIQBI;                 3000 N 09SGUN ! 
$
 FUNCTION GHSERBI   298.15  -7817.776+128.418925*T-28.4096529*T*LN(T)
       +0.012338888*T**2-8.381598E-6*T**3;
       544.55  Y  +29293.369-379.605174*T+49.678*T*LN(T)
       -0.0730245*T**2+1.3052833E-5*T**3-3544705*T**(-1)+1.66309E+25*T**(-9);
       800.00  Y  -11085.609+182.955328*T-36.041*T*LN(T)
       +7.4641E-3*T**2-1.05047E-6*T**3+5175*T**(-1)+1.66309E+25*T**(-9);
      1200.00  Y  -7580.864+124.770814*T-27.196*T*LN(T)+1.66309E+25*T**(-9);
      3000.00  N !
 FUNCTION GLIQBI    298.15  +11246.017-20.636399*T+GHSERBI-5.9608E-19*T**7;
       544.55  Y  +40629.667-400.415652*T+49.678*T*LN(T)
       -0.0730245*T**2+1.3052833E-5*T**3-3544705*T**(-1);
       800.00  Y  +250.689+162.14485*T-36.041*T*LN(T)
       +0.0074641*T**2-1.05047E-6*T**3+5175*T**(-1);
      1200.00  Y  +3755.434+103.960336*T-27.196*T*LN(T);
      3000.00 N !
$ ------------------------------------------------------------------------------
$ Binary system
$
$ J. Liu, P.-W. Guan, C.N. Marker, N.D. Smith, N. Orabona, S.-L. Shang, H. Kim,
$ Z.-K. Liu, J. Alloys Compd., 771, 281-89(2019).
$
$ Checked against paper. Checked at 6000 K.
$
$ Invariant equilibria differ by up to 4 K due to rounding errors.
$
 PAR  G(LIQUID,BA4BI3),,                +4*GLIQBA+3*GLIQBI
             -692362;,,                                               N 19Liu !
 PAR  G(LIQUID,BABI3),,                 +GLIQBA+3*GLIQBI
             -215939+3.5*T;,,                                         N 19Liu !
 PAR  L(LIQUID,BA,BA4BI3;0),,           -7000-10*T;,,                 N 19Liu !
 PAR  L(LIQUID,BA,BA4BI3;1),,           +8000-20*T;,,                 N 19Liu !
 PAR  L(LIQUID,BA4BI3,BABI3;0),,        -103112+49.1*T;,,             N 19Liu !
 PAR  L(LIQUID,BA4BI3,BABI3;1),,        +2223;,,                      N 19Liu !
 PAR  L(LIQUID,BABI3,BI;0),,            -515-3*T;,,                   N 19Liu !
$
 PAR  L(BCC_A2,BA,BI:VA;0),,            +18002;,,                     N 19Liu !
 PAR  L(RHOMBOHEDRAL_A7,BA,BI;0),,      +1023;,,                      N 19Liu !
$
 PAR  G(BA2BI,BA:BI),,                  +2*GHSERBA+GHSERBI
             -278696+31.5*T;,,                                        N 19Liu !
 PAR  G(BA5BI3_D88,BA:BI),,             +5*GHSERBA+3*GHSERBI
             -835368+93.6*T;,,                                        N 19Liu !
 PAR  G(BA4BI3_D73,BA:BI),,             +4*GHSERBA+3*GHSERBI
             -801108+67.9*T;,,                                        N 19Liu !
 PAR  G(BA11BI10,BA:BI),,               +11*GHSERBA+10*GHSERBI
             -2214303+128.1*T;,,                                      N 19Liu !
 PAR  G(BABI3,BA:BI),,                  +GHSERBA+3*GHSERBI
             -210268-30*T;,,                                          N 19Liu !
$
$ Metastable
$
 PAR  L(FCC_A1,BA,BI:VA;0),,            +18002;,,                     N Same !
 PAR  L(HCP_A3,BA,BI:VA;0),,            +18002;,,                     N Same !
$ ------------------------------------------------------------------------------
$
$
 LIST-OF-REFERENCE
 NUMBER  SOURCE
  Null   'Unknown source'
  Same   'Same or similar interaction as in the corresponding stable phase'
  COST   'COST 507 database'
  88Che2 'P.-Y. Chevalier, Thermochim. Acta, 132, 111-16(1988),
          SGTE unary database V.5.0, 2009; Bi' 
  91Din  'A.T. Dinsdale, Calphad, 15, 317-425(1991).'
  09SGUN 'SGTE unary database V.5.0, 2009.'
  19Liu  'J. Liu, P.-W. Guan, C.N. Marker, N.D. Smith, N. Orabona, S.-L. Shang,
          H. Kim, Z.-K. Liu, J. Alloys Compd., 771, 281-89(2019); Ba, Ba-Bi'
!
