$
$ Database for Bi-Te from S. Drzewowska and B. Onderka 2023.
$
$ S. Drzewowska, B. Onderka, J. Phase Equilib. Diffus., 44, 429-44(2023).
$
$ Dataset created 2024.01.28 by Bengt Hallstedt.
$
$ Modified from 18Gie. Includes Bi7Te3, but not Bi4Te3. The phase diagram
$ looks much more reasonable with Bi7Te3 and Bi2Te stable at room temperature.
$
$ The modelling does not give a reliable impression, in particular liquid,
$ but also Bi2Te3 and BiTe.
$
$ There is a narrow inverse miscibility gap with a minimum at 1858 K and
$ x(Te)=0.41.
$
$ ------------------------------------------------------------------------------
 TEMP-LIM 298.15 6000.00 !
$
$ELEMENT NAME  REF. STATE               ATOMIC MASS H298-H0    S298    !
$
 ELEMENT VA   VACUUM                      0.0          0.0      0.0    ! 
 ELEMENT BI   RHOMBOHEDRAL_A7           208.98      6426.6     56.735  !
 ELEMENT TE   HEXAGONAL_A8              127.60      6080.      49.221  ! 
$ ------------------------------------------------------------------------------
$ Species
$
 SPECIE  BI2TE3                             BI2TE3 !
$ ------------------------------------------------------------------------------
$ Phase definitions
$
 PHASE LIQUID:L % 1 1 !
 CONST LIQUID:L : BI BI2TE3 TE : !
$
$ Fcc (cF4, Fm-3m) and MeX (cF8, Fm-3m)
$
 PHASE FCC_A1 %A 2 1 1 !
 CONST FCC_A1 : BI : VA : !
$
$ Bcc (cI2, Im-3m)
$
 PHASE BCC_A2 %B 2 1 3 !
 CONST BCC_A2 : BI : VA : !
$
$ Hcp (hP2, P6_3/mmc) and Me2X (NiAs-type, hP4, P6_3/mmc, B8_1)
$
 PHASE HCP_A3 %A 2 1 0.5 !
 CONST HCP_A3 : BI : VA: !
$
$ Prototype alpha-As (hR2, R-3m)
$
 PHASE RHOMBOHEDRAL_A7 % 1 1 !
 CONST RHOMBOHEDRAL_A7 : BI : !
$
$ Prototype gamma-Se (hP3, P3_121)
$ The phase is named HEXAGONAL_A8 in the SGTE unary database and
$ TRIGONAL_A8 in LB.
$
 PHASE HEXAGONAL_A8 % 1 1 !
 CONST HEXAGONAL_A8 : TE : !
$
$ unknown structure
$
 PHASE BI7TE3 % 2 7 3 !
 CONST BI7TE3 : BI : TE : !
$
$ Prototype Sb2Te (hP9, P-3m1)
$
 PHASE BI2TE % 2 2 1 !
 CONST BI2TE : BI : TE : !
$
$ Prototype BiSe (hP12, P-3m1), beta
$
 PHASE BITE % 2 2 3 !
 CONST BITE : BI : BI TE% : !
$
$ Prototype Bi2Te3 (hR5, R-3m)
$
 PHASE BI2TE3_C33 % 2 2 3 !
 CONST BI2TE3_C33 : BI% TE : BI TE% : !
$ ------------------------------------------------------------------------------
$ Defaults
$
 DEFINE-SYSTEM-DEFAULT ELEMENT 2 !
 DEFAULT-COM DEFINE_SYSTEM_ELEMENT VA !
 TYPE-DEF % SEQ * !
 TYPE-DEF A GES AMEND_PHASE_DESCRIPTION @ MAGNETIC -3 0.28 !
 TYPE-DEF B GES AMEND_PHASE_DESCRIPTION @ MAGNETIC -1 0.4 !
 FUNCTION ZERO      298.15  0;                                         6000 N !
 FUNCTION UN_ASS    298.15  0;                                         6000 N !
 FUNCTION R         298.15  +8.31451;                                  6000 N !
$ ------------------------------------------------------------------------------
$ Element data
$ ------------------------------------------------------------------------------
$ Bi
$
$ RHOMBOHEDRAL_A7 and LIQUID modified in unary 5.0
$ DIAMOND_A4 added in unary 5.0
$
 PAR  G(RHOMBOHEDRAL_A7,BI),,           +GHSERBI;                3000 N 09SGUN !
 PAR  G(FCC_A1,BI:VA),,                 +GHSERBI+9900-12.5*T;    3000 N 91Din !
 PAR  G(BCC_A2,BI:VA),,                 +GHSERBI+11297-13.9*T;   3000 N 91Din !
 PAR  G(HCP_A3,BI:VA),,                 +GHSERBI+9900-11.8*T;    3000 N 91Din !
$PAR  G(DIAMOND_A4,BI),,                +GHSERBI
$            +11296.8+9.253655*T;                                3200 N 88Che2 !
$PAR  G(BCT_A5,BI),,                    +GHSERBI+4184.07;        3000 N 91Din !
$PAR  G(TETRAGONAL_A6,BI),,             +GHSERBI+4184.07;        3000 N 91Din !
$PAR  G(TET_ALPHA1,BI),,                +GHSERBI+4234;           3000 N 91Din !
 PAR  G(LIQUID,BI),,                    +GLIQBI;                 3000 N 09SGUN ! 
$
 PAR  G(BITE,BI:BI),,                   +5*GHSERBI
             +7371.3+48.735*T;,,                                      N 18Gie !
 PAR  G(BI2TE3_C33,BI:BI),,             +5*GHSERBI+150000;,,          N 18Gie !
$
 FUNCTION GHSERBI   298.15  -7817.776+128.418925*T-28.4096529*T*LN(T)
       +0.012338888*T**2-8.381598E-6*T**3;
       544.55  Y  +29293.369-379.605174*T+49.678*T*LN(T)
       -0.0730245*T**2+1.3052833E-5*T**3-3544705*T**(-1)+1.66309E+25*T**(-9);
       800.00  Y  -11085.609+182.955328*T-36.041*T*LN(T)
       +7.4641E-3*T**2-1.05047E-6*T**3+5175*T**(-1)+1.66309E+25*T**(-9);
      1200.00  Y  -7580.864+124.770814*T-27.196*T*LN(T)+1.66309E+25*T**(-9);
      3000.00  N !
 FUNCTION GLIQBI    298.15  +11246.017-20.636399*T+GHSERBI-5.9608E-19*T**7;
       544.55  Y  +40629.667-400.415652*T+49.678*T*LN(T)
       -0.0730245*T**2+1.3052833E-5*T**3-3544705*T**(-1);
       800.00  Y  +250.689+162.14485*T-36.041*T*LN(T)
       +0.0074641*T**2-1.05047E-6*T**3+5175*T**(-1);
      1200.00  Y  +3755.434+103.960336*T-27.196*T*LN(T);
      3000.00 N !
$ ------------------------------------------------------------------------------
$ Te
$
$ HEXAGONAL_A8 and LIQUID revised in unary 3.0
$
 PAR  G(HEXAGONAL_A8,TE),,              +GHSERTE;                2000 N 95Dav !
 PAR  G(LIQUID,TE),,                    +GLIQTE;                 2000 N 95Dav !
$
 PAR  G(BI2TE3_C33,TE:TE),,             +5*GHSERTE+150000;,,          N 18Gie !
$
 FUNCTION GHSERTE   298.15  -10544.679+183.372894*T-35.6687*T*LN(T)
       +0.01583435*T**2-5.240417E-06*T**3+155015*T**(-1);
       722.66  Y  +9160.595-129.265373*T+13.004*T*LN(T)
       -0.0362361*T**2+5.006367E-06*T**3-1286810*T**(-1);
      1150.00  Y  -12781.349+174.901226*T-32.5596*T*LN(T);
      1600.00  N !
 FUNCTION GLIQTE    298.15  -17554.731+685.877639*T-126.318*T*LN(T)
       +0.2219435*T**2-9.42075E-05*T**3+827930*T**(-1);
       626.49  Y  -3165763.48+46756.357*T-7196.41*T*LN(T)
       +7.09775*T**2-0.00130692833*T**3+2.58051E+08*T**(-1);
       722.66  Y  +180326.959-1500.57909*T+202.743*T*LN(T)
       -0.142016*T**2+1.6129733E-05*T**3-24238450*T**(-1);
      1150.00  Y  +19110.036-26.1929273*T+GHSERTE;
      1600.00  N !
$ ------------------------------------------------------------------------------
$ Binary system
$
$ S. Drzewowska, B. Onderka, J. Phase Equilib. Diffus., 44, 429-44(2023).
$
$ Checked against paper. Checked at 6000 K.
$
$ Modified from 18Gie. Includes Bi7Te3, but not Bi4Te3. The phase diagram
$ looks much more reasonable with Bi7Te3 and Bi2Te stable at room temperature.
$
$ The modelling does not give a reliable impression, in particular liquid,
$ but also Bi2Te3 and BiTe.
$
$ There is a narrow inverse miscibility gap with a minimum at 1858 K and
$ x(Te)=0.41.
$
 PAR  G(LIQUID,BI2TE3),,                +2*GLIQBI+3*GLIQTE
             +72794.54-22.082*T;,,                                    N 18Gie !
 PAR  L(LIQUID,BI,BI2TE3;0),,           -159278.76+1.5935*T;,,        N 18Gie !
 PAR  L(LIQUID,BI2TE3,TE;0),,           -258621+134.579*T;,,          N 18Gie !
 PAR  L(LIQUID,BI2TE3,TE;1),,           -140786+153.522*T;,,          N 18Gie !
$
 PAR  G(BI7TE3,BI:TE),,                 +7*GHSERBI+3*GHSERTE
             -109514.1-3.729*T;,,                                     N 23Drz !
 PAR  G(BI2TE,BI:TE),,                  +2*GHSERBI+GHSERTE
             -35629.2-2.1144*T;,,                                     N 23Drz !
$
 PAR  G(BITE,BI:TE),,                   +GBI2TE3+1162.35;,,           N 18Gie !
 PAR  L(BITE,BI:BI,TE;0),,              -30963.5-79.784*T;,,          N 18Gie !
 PAR  L(BITE,BI:BI,TE;1),,              -4387.95-27.642*T;,,          N 18Gie !
$
 PAR  G(BI2TE3_C33,BI:TE),,             +GBI2TE3;,,                   N 18Gie !
 PAR  G(BI2TE3_C33,TE:BI),,             +ZERO;,,                      N 18Gie !
 PAR  L(BI2TE3_C33,BI,TE:BI;0),,        +50000-201*T;,,               N 18Gie !
 PAR  L(BI2TE3_C33,BI,TE:TE;0),,        +50000-201*T;,,               N 18Gie !
 PAR  L(BI2TE3_C33,BI:BI,TE;0),,        +49000-205*T;,,               N 18Gie !
 PAR  L(BI2TE3_C33,TE:BI,TE;0),,        +49000-205*T;,,               N 18Gie !
$
 FUNCTION GBI2TE3   298.15  +2*GHSERBI+3*GHSERTE-95435.45+18.702*T;    6000 N !
$ ------------------------------------------------------------------------------
$
$
 LIST-OF-REFERENCE
 NUMBER  SOURCE
  Null   'Unknown source'
  Same   'Same or similar interaction as in the corresponding stable phase'
  COST   'COST 507 database'
  88Che2 'P.-Y. Chevalier, Thermochim. Acta, 132, 111-16(1988),
          SGTE unary database V.5.0, 2009; Bi' 
  91Din  'A.T. Dinsdale, Calphad, 15, 317-425(1991).'
  95Dav  'A.V. Davydov, M.H. Rand, B.B. Argent, Calphad, 19, 375-87(1995),
          SGTE unary database V.3.0, 1996; Te'
  09SGUN 'SGTE unary database V.5.0, 2009.'
  18Gie  'W. Gierlotka, Calphad, 63, 6-11(2018); Bi-Te'
  23Drz  'S. Drzewowska, B. Onderka,
          J. Phase Equilib. Diffus., 44, 429-44(2023); Bi-Te'
!
