$
$ Database for Sc-Zr from B. Hu et al. 2015.
$
$ B. Hu, P. Zhou, C. Pan, Y. Du, S. Liu, Y. Li, J. Han,
$ Chem. J. Chin. Univ., 36, 1939-44(2015).
$
$ Dataset created 2018.01.13 by Bengt Hallstedt.
$ 2021.02.05: Modified for use with GES6.
$
$ ------------------------------------------------------------------------------
 TEMP-LIM 298.15 6000.00 !
$
$ELEMENT NAME  REF. STATE               ATOMIC MASS H298-H0    S298    !
$
 ELEMENT VA   VACUUM                      0.0          0.0      0.0    ! 
 ELEMENT SC   HCP_A3                     44.9559    5217.448   34.6435 ! 
 ELEMENT ZR   HCP_A3                     91.22      5566.27    39.1809 ! 
$ ------------------------------------------------------------------------------
$ Phase definitions
$
 PHASE LIQUID:L % 1 1 !
 CONST LIQUID:L : SC ZR : !
$
$ Fcc (cF4, Fm-3m) and MeX (cF8, Fm-3m)
$
 PHASE FCC_A1 %A 2 1 1 !
 CONST FCC_A1 : SC ZR : VA : !
$
$ Bcc (cI2, Im-3m)
$
 PHASE BCC_A2 %B 2 1 3 !
 CONST BCC_A2 : SC ZR : VA : !
$
$ Hcp (hP2, P6_3/mmc) and Me2X (NiAs-type, hP4, P6_3/mmc, B8_1)
$
 PHASE HCP_A3 % 2 1 0.5 !
 CONST HCP_A3 : SC ZR : VA : !
$ ------------------------------------------------------------------------------
$ Defaults
$
 DEFINE-SYSTEM-DEFAULT ELEMENT 2 !
 DEFAULT-COM DEFINE_SYSTEM_ELEMENT VA !
 TYPE-DEF % SEQ * !
 TYPE-DEF A GES AMEND_PHASE_DESCRIPTION @ MAGNETIC -3 0.28 !
 TYPE-DEF B GES AMEND_PHASE_DESCRIPTION @ MAGNETIC -1 0.4 !
 FUNCTION ZERO      298.15  0;                                         6000 N !
 FUNCTION UN_ASS    298.15  0;                                         6000 N !
 FUNCTION R         298.15  +8.31451;                                  6000 N !
$ ------------------------------------------------------------------------------
$ Element data
$ ------------------------------------------------------------------------------
$ Sc
$
$ FCC_A1 and DHCP added in unary 4.4
$
 PAR  G(HCP_A3,SC:VA),,                 +GHSERSC;                3200 N 91Din !
 PAR  G(BCC_A2,SC:VA),,                 +GBCCSC;                 3200 N 91Din !
 PAR  G(FCC_A1,SC:VA),,                 +GHSERSC+5000;           3200 N 99Cac !
$PAR  G(DHCP,SC),,                      +GHSERSC
$            +1200+0.4157255*T;                                  3200 N 00Nor2 !
 PAR  G(LIQUID,SC),,                    +GLIQSC;                 3200 N 91Din !
$
 FUNCTION GHSERSC   298.15  -8689.547+153.48097*T-28.1882*T*LN(T)
       +0.00321892*T**2-1.64531E-06*T**3+72177*T**(-1);
       800.00  Y  -7511.295+132.759582*T-24.9132*T*LN(T)
       -5.73295E-04*T**2-8.59345E-07*T**3;
      1608.00  Y  +261143.04-1817.92245*T+241.441051*T*LN(T)
       -0.117529396*T**2+8.7398E-06*T**3-50607159*T**(-1);
      2000.00  Y  -30515.246+286.474338*T-44.2249*T*LN(T);
      3200.00  N !
 FUNCTION GBCCSC    298.15  +1979.728-1.024135*T+GHSERSC;
      1000.00  Y  +230161.408-2004.05469*T+276.76664*T*LN(T)
       -0.167120107*T**2+1.5637371E-05*T**3-33783257*T**(-1);
      1608.00  Y  -25928.011+283.642312*T-44.2249*T*LN(T);
      2000.00  Y  +4587.235-2.832026*T+GHSERSC;
      3200.00  N !
 FUNCTION GLIQSC    298.15  +6478.66+45.427539*T-10.7967803*T*LN(T)
       -0.020636524*T**2+2.13106E-06*T**3-158106*T**(-1);
      1608.00  Y  -11832.111+275.871695*T-44.2249*T*LN(T);
      3200.00  N !
$ ------------------------------------------------------------------------------
$ Zr
$
$ CUB_A13, CBCC_A12, ORTHORHOMBIC_A20 and TETRAGONAL_U added in unary 4.1
$
 PAR  G(HCP_A3,ZR:VA)           130.00  +GHSERZR;,,                   N 91Din !
 PAR  G(BCC_A2,ZR:VA)           130.00  +GBCCZR;,,                    N 91Din !
$PAR  G(OMEGA,ZR)               130.00  +GOMEZR;,,                    N 91Din !
 PAR  G(FCC_A1,ZR:VA)           130.00  +GHSERZR+7600-0.9*T;,,        N 91Din !
$PAR  G(CBCC_A12,ZR:VA)         130.00  +GHSERZR+4602.2;,,            N 99SGUN !
$PAR  G(CUB_A13,ZR:VA)          130.00  +GHSERZR+7531.2;,,            N 99SGUN !
$PAR  G(ORTHORHOMBIC_A20,ZR)    130.00  +GBCCZR+5000;,,               N 99SGUN !
$PAR  G(TETRAGONAL_U,ZR)        130.00  +GBCCZR+5000;,,               N 99SGUN !
 PAR  G(LIQUID,ZR)              130.00  +GLIQZR;,,                    N 91Din !
$
 FUNCTION GHSERZR   130.00  -7827.595+125.64905*T-24.1618*T*LN(T)
       -0.00437791*T**2+34971*T**(-1);
      2128.00  Y  -26085.921+262.724183*T-42.144*T*LN(T)-1.342896E+31*T**(-9);
      6000.00  N !
 FUNCTION GBCCZR    130.00  -525.539+124.9457*T-25.607406*T*LN(T)
       -3.40084E-04*T**2-9.729E-09*T**3+25233*T**(-1)-7.6143E-11*T**4;
      2128.00  Y  -4620.034+1.55998*T+GHSERZR+1.4103476E+32*T**(-9);
      6000.00  N !
 FUNCTION GOMEZR    130.00  -8878.082+144.432234*T-26.8556*T*LN(T)
       -0.002799446*T**2+38376*T**(-1);
      2128.00  Y  -3414.603+2.566675*T+GHSERZR+8.517346E+31*T**(-9);
      6000.00  N !
 FUNCTION GLIQZR    130.00  +18147.69-9.080812*T+GHSERZR+1.6275E-22*T**7;
      2128.00  Y  -8281.26+253.812609*T-42.144*T*LN(T);
      6000.00  N !
$ ------------------------------------------------------------------------------
$ Binary system
$
$ B. Hu, P. Zhou, C. Pan, Y. Du, S. Liu, Y. Li, J. Han,
$ Chem. J. Chin. Univ., 36, 1939-44(2015).
$
$ Checked against paper. Checked at 6000 K.
$
 PAR  L(LIQUID,SC,ZR;0),,               +ZERO;,,                      N 15Hu !
$
 PAR  L(BCC_A2,SC,ZR:VA;0),,            -6048.834+4.4931*T;,,         N 15Hu !
 PAR  L(HCP_A3,SC,ZR:VA;0),,            -10689.553+5.8839*T;,,        N 15Hu !
$
$ Metastable
$
 PAR  L(FCC_A1,SC,ZR:VA;0),,            -10689.553+5.8839*T;,,        N Same !
$ ------------------------------------------------------------------------------
$
$
 LIST-OF-REFERENCE
 NUMBER  SOURCE
  Null   'Unknown source'
  Same   'Same or similar interaction as in the corresponding stable phase'
  REFLAV 'Laves phase convention: G(LAVES,X:X)=+3*GHSERXX+15000'
  91Din  'A.T. Dinsdale, Calphad, 15, 317-425(1991).'
  99Cac  'G. Cacciamani, P. Riani, G. Borzone, N. Parodi, A. Saccone, R. Ferro,
          A. Pisch, R. Schmid-Fetzer, Intermetallics, 7, 101-8(1999),
          SGTE unary database V.4.4, 2001; Sc'
  99SGUN 'SGTE unary database V.4.1, 1999.'
  00Nor2 'S. Norgren, PhD Thesis, KTH, Stockholm, 2000,
          SGTE unary database V.4.4, 2001; Nd, Sc'
  15Hu   'B. Hu, P. Zhou, C. Pan, Y. Du, S. Liu, Y. Li, J. Han,
          Chem. J. Chin. Univ., 36, 1939-44(2015); Sc-Zr'
!
