$
$ Database for Ag-Ti from M. Li et al. 2005
$
$ M. Li, C. Li, F. Wang, W. Zhang, Calphad, 29, 269-75(2005).
$
$ Dataset created 2010.05.08 by Bengt Hallstedt.
$ 2020.12.20: Modified for use with GES6.
$ 2024.01.20: Changed phase names to AgTi and AgTi2.
$
$ ------------------------------------------------------------------------------
 TEMP-LIM 298.15 6000.00 !
$
$ELEMENT NAME  REF. STATE               ATOMIC MASS H298-H0    S298    !
$
 ELEMENT VA   VACUUM                      0.0          0.0      0.0    ! 
 ELEMENT AG   FCC_A1                    107.8682    5745.      42.55   ! 
 ELEMENT TI   HCP_A3                     47.88      4824.      30.72   ! 
$ ------------------------------------------------------------------------------
$ Phase definitions
$
 PHASE LIQUID:L % 1 1 !
 CONST LIQUID:L : AG TI : !
$
$ Fcc (cF4, Fm-3m) and MeX (cF8, Fm-3m)
$
 PHASE FCC_A1 % 2 1 1 !
 CONST FCC_A1 : AG% TI : VA : !
$
$ Bcc (cI2, Im-3m)
$
 PHASE BCC_A2 % 2 1 3 !
 CONST BCC_A2 : AG TI% : VA : !
$
$ Hcp (hP2, P6_3/mmc) and Me2X (NiAs-type, hP4, P6_3/mmc, B8_1)
$
 PHASE HCP_A3 % 2 1 0.5 !
 CONST HCP_A3 : AG TI% : VA: !
$
$ Prototype gamma-CuTi (tP4, P4/nmm)
$
 PHASE AGTI_B11 %  2 1 1 !
 CONST AGTI_B11 : AG% TI : AG TI% : !
$
$ Prototype CuZr2 (tI6, I4/mmm)
$
 PHASE AGTI2 %  2 1 2 !
 CONST AGTI2 : AG : TI : !
$ ------------------------------------------------------------------------------
$ Defaults
$
 DEFINE-SYSTEM-DEFAULT ELEMENT 2 !
 DEFAULT-COM DEFINE_SYSTEM_ELEMENT VA !
 TYPE-DEF % SEQ * !
 FUNCTION ZERO      298.15  0;                                         6000 N !
 FUNCTION UN_ASS    298.15  0;                                         6000 N !
$ ------------------------------------------------------------------------------
$ Element data
$ ------------------------------------------------------------------------------
$ Ag
$
$ CUB_A13 added in unary 3.0
$ CUB_A13 revised in unary 4.1
$ BCT_A5 added in unary 4.1
$
 PAR  G(FCC_A1,AG:VA),,                 +GHSERAG;                3000 N 91Din !
 PAR  G(HCP_A3,AG:VA),,                 +GHSERAG+300+0.3*T;      3000 N 91Din !
 PAR  G(BCC_A2,AG:VA),,                 +GHSERAG+3400-1.05*T;    3000 N 91Din !
$PAR  G(CUB_A13,AG:VA),,                +GHSERAG+3400-1.05*T;    3000 N 95Lim !
$PAR  G(CUB_A13,AG:VA),,                +GHSERAG
$            +3765.6-1.8826*T;                                   3000 N 96SGUN !
$PAR  G(BCT_A5,AG),,                    +GHSERAG+4184.1;         3000 N 96Oh !
 PAR  G(LIQUID,AG),,                    +GLIQAG;                 3000 N 91Din !
$
 PAR  G(AGTI_B11,AG:AG),,               +2*GHSERAG+10000;,,           N 05Li !
$
 FUNCTION GHSERAG   298.15  -7209.512+118.202013*T-23.8463314*T*LN(T)
       -0.001790585*T**2-3.98587E-07*T**3-12011*T**(-1);
      1234.93  Y  -15095.252+190.266404*T-33.472*T*LN(T)+1.411773E+29*T**(-9);
      3000.00  N !
 FUNCTION GLIQAG    298.15  +11025.076-8.89102*T+GHSERAG-1.033905E-20*T**7;
      1234.93  Y  -3587.111+180.964656*T-33.472*T*LN(T);
      3000.00  N !
$ ------------------------------------------------------------------------------
$ Ti
$
$ BCT_A5 added in unary 3.0
$
 PAR  G(HCP_A3,TI:VA),,                 +GHSERTI;                4000 N 91Din !
 PAR  G(BCC_A2,TI:VA),,                 +GBCCTI;                 4000 N 91Din !
 PAR  G(FCC_A1,TI:VA),,                 +GHSERTI+6000-0.1*T;     4000 N 91Din !
$PAR  G(CBCC_A12,TI:VA),,               +GHSERTI+4602.2;         4000 N 91Din !
$PAR  G(CUB_A13,TI:VA),,                +GHSERTI+7531.2;         4000 N 91Din !
$PAR  G(DIAMOND_A4,TI),,                +GHSERTI+25000;          4000 N 91Din !
$PAR  G(BCT_A5,TI),,                    +GHSERTI+4602.2;         3000 N SGCOST !
 PAR  G(LIQUID,TI),,                    +GLIQTI;                 4000 N 91Din !
$
 PAR  G(AGTI_B11,TI:TI),,               +2*GHSERTI+10000;,,           N 96Har2 !
$
 FUNCTION GHSERTI   298.15  -8059.921+133.615208*T-23.9933*T*LN(T)
       -0.004777975*T**2+1.06716E-07*T**3+72636*T**(-1);
       900.00  Y  -7811.815+132.988068*T-23.9887*T*LN(T)
       -0.0042033*T**2-9.0876E-08*T**3+42680*T**(-1);
      1155.00  Y  +908.837+66.976538*T-14.9466*T*LN(T)
       -0.0081465*T**2+2.02715E-07*T**3-1477660*T**(-1);
      1941.00  Y  -124526.786+638.806871*T-87.2182461*T*LN(T)
       +0.008204849*T**2-3.04747E-07*T**3+36699805*T**(-1);
      4000.00  N !
 FUNCTION GBCCTI    298.15  -1272.064+134.71418*T-25.5768*T*LN(T)
       -6.63845E-04*T**2-2.78803E-07*T**3+7208*T**(-1);
      1155.00  Y  +6667.385+105.366379*T-22.3771*T*LN(T)
       +0.00121707*T**2-8.4534E-07*T**3-2002750*T**(-1);
      1941.00  Y  +26483.26-182.426471*T+19.0900905*T*LN(T)
       -0.02200832*T**2+1.228863E-06*T**3+1400501*T**(-1);
      4000.00  N !
 FUNCTION GLIQTI    298.15  +12194.415-6.980938*T+GHSERTI;
      1300.00  Y  +369519.198-2554.0225*T+342.059267*T*LN(T)
       -0.163409355*T**2+1.2457117E-05*T**3-67034516*T**(-1);
      1941.00  Y  -19887.066+298.7367*T-46.29*T*LN(T);
      4000.00  N !
$ ------------------------------------------------------------------------------
$ Binary system
$
$ M. Li, C. Li, F. Wang, W. Zhang, Calphad, 29, 269-75(2005).
$
$ Checked against paper. Checked at 6000 K.
$
 PAR  L(LIQUID,AG,TI;0),,               +23713.6+2.01*T;,,            N 05Li !
 PAR  L(LIQUID,AG,TI;1),,               +6020.9-3.18*T;,,             N 05Li !
 PAR  L(LIQUID,AG,TI;2),,               -556.1+1.53*T;,,              N 05Li !
$
 PAR  L(FCC_A1,AG,TI:VA;0),,            +25480.5+1.4*T;,,             N 05Li !
$
 PAR  L(BCC_A2,AG,TI:VA;0),,            +19873.7+1.45*T;,,            N 05Li !
 PAR  L(BCC_A2,AG,TI:VA;1),,            +1817.4-5.02*T;,,             N 05Li !
 PAR  L(BCC_A2,AG,TI:VA;2),,            -8519+3.51*T;,,               N 05Li !
$
 PAR  L(HCP_A3,AG,TI:VA;0),,            +17758.2+6.07*T;,,            N 05Li !
$
$ Parameter below for stoichiometric AgTi
$PAR  G(AGTI_B11,AG:TI),,               +GHSERAG+GHSERTI
$            -4230.9+1.097*T;,,                                       N 05Li !
 PAR  G(AGTI_B11,AG:TI),,               +GHSERAG+GHSERTI
             -4615.6+2.16*T;,,                                        N 05Li !
 PAR  G(AGTI_B11,TI:AG),,               +GHSERTI+GHSERAG
             +24615.6-2.16*T;,,                                       N 05Li !
 PAR  L(AGTI_B11,AG,TI:AG;0),,          -8271.7+23.91*T;,,            N 05Li !
 PAR  L(AGTI_B11,AG:AG,TI;0),,          -8271.7+23.91*T;,,            N 05Li !
 PAR  L(AGTI_B11,AG,TI:TI;0),,          -13292.49+26.04*T;,,          N 05Li !
 PAR  L(AGTI_B11,TI:AG,TI;0),,          -13292.49+26.04*T;,,          N 05Li !
$
 PAR  G(AGTI2,AG:TI),,                  +GHSERAG+2*GHSERTI
             -6889.7+2.258*T;,,                                       N 05Li !
$ Parameter below used together with stoichiometric AgTi
$PAR  G(AGTI2,AG:TI),,                  +GHSERAG+2*GHSERTI
$            -6498.5+2.021*T;,,                                       N 05Li !
$ ------------------------------------------------------------------------------
$
 ASSESSED_SYSTEM
  AG-TI(TDB -* +LIQ +AGTI2 +AGTI_B11 +BCC_A2 +FCC_A1 +HCP_A3
  ;P3 TMM:300/2000 STP:.9/1000) !
$
$
 LIST-OF-REFERENCE
 NUMBER  SOURCE
  Null   'Unknown source'
  Same   'Same or similar interaction as in the corresponding stable phase'
  COST   'COST 507 database'
  SGCOST 'COST 507 database, SGTE unary database V.3.0, 1996; Al, B, Nd, Ti, Zn'
  91Din  'A.T. Dinsdale, Calphad, 15, 317-425(1991).'
  95Lim  'S.S. Lim, P.L. Rossiter, J.W. Tibballs, Calphad, 19, 131-41(1995),
          SGTE unary database V.4.1, 1999; Ag'
  96Har2 'K.C. Hari Kumar, I. Ansara, P. Wollants, L. Delaey,
          Z. Metallkd., 87, 666-72(1996); Cu-Ti'
  96Oh   'C.-S. Oh, J.-H. Shim, B.-J. Lee, D.N. Lee,
          J. Alloys Compounds, 238, 155-66(1996),
          SGTE unary database V.4.1, 1999; Ag'
  96SGUN 'SGTE unary database V.3.0, 1996.'
  05Li   'M. Li, C. Li, F. Wang, W. Zhang, Calphad, 29, 269-75(2005); Ag-Ti'
!
