$
$ Database for Bi-Se from M. Peters 2018.
$
$ M. Peters, unpublished, 2018.
$
$ Dataset created 2024.10.11 by Bengt Hallstedt.
$
$ A tdb and a pop-file are available in the NIST repository
$ (https://materialsdata.nist.gov/handle/11256/974), but no other documentation.
$
$ The liquid interaction is quite ugly.
$
$ There seems to be a whole mess of phases (probably stacking variants)
$ reported on the Bi-rich side of Bi2Se3, i.e. including the Bi3Se2 and Bi4Se5
$ phases.
$
$ ------------------------------------------------------------------------------
 TEMP-LIM 298.15 6000.00 !
$
$ELEMENT NAME  REF. STATE               ATOMIC MASS H298-H0    S298    !
$
 ELEMENT VA   VACUUM                      0.0          0.0      0.0    ! 
 ELEMENT BI   RHOMBOHEDRAL_A7           208.98      6426.6     56.735  !
 ELEMENT SE   HEXAGONAL_A8               78.96      5514.512   41.9655 ! 
$ ------------------------------------------------------------------------------
$ Species
$
 SPECIE  BI2SE3                             BI2SE3 !
$ ------------------------------------------------------------------------------
$ Phase definitions
$
 PHASE LIQUID:L % 1 1 !
 CONST LIQUID:L : BI BI2SE3 SE : !
$
$ Fcc (cF4) and MeX (cF8)
$
 PHASE FCC_A1 %A 2 1 1 !
 CONST FCC_A1 : BI : VA : !
$
$ Bcc (cI2, Im-3m)
$
 PHASE BCC_A2 %B 2 1 3 !
 CONST BCC_A2 : BI : VA : !
$
$ Hcp (hP2, P6_3/mmc) and Me2X (NiAs-type, hP4, P6_3/mmc, B8_1)
$
 PHASE HCP_A3 %A 2 1 0.5 !
 CONST HCP_A3 : BI : VA : !
$
$ Prototype alpha-As (hR2, R-3m)
$
 PHASE RHOMBOHEDRAL_A7 % 1 1 !
 CONST RHOMBOHEDRAL_A7 : BI : !
$
$ Prototype gamma-Se (hP3, P3_121)
$
 PHASE HEXAGONAL_A8 % 1 1 !
 CONST HEXAGONAL_A8 : SE : !
$
$ Pearson hP12, P-3m1
$
 PHASE BI3SE2 % 2 3 2 !
 CONST BI3SE2 : BI : SE : !
$
$ unknown structure
$
 PHASE BI4SE5 % 2 4 5 !
 CONST BI4SE5 : BI : SE : !
$
$ Prototype Bi2Te3 (hR5, R-3m)
$
 PHASE BI2SE3_C33 % 2 2 3 !
 CONST BI2SE3_C33 : BI% SE : SE% VA : !
$ ------------------------------------------------------------------------------
$ Defaults
$
 DEFINE-SYSTEM-DEFAULT ELEMENT 2 !
 DEFAULT-COM DEFINE_SYSTEM_ELEMENT VA !
 TYPE-DEF % SEQ * !
 TYPE-DEF A GES AMEND_PHASE_DESCRIPTION @ MAGNETIC -3 0.28 !
 TYPE-DEF B GES AMEND_PHASE_DESCRIPTION @ MAGNETIC -1 0.4 !
 FUNCTION ZERO      298.15  0;                                         6000 N !
 FUNCTION UN_ASS    298.15  0;                                         6000 N !
 FUNCTION R         298.15  +8.31451;                                  6000 N !
$ ------------------------------------------------------------------------------
$ Element data
$ ------------------------------------------------------------------------------
$ Bi
$
$ RHOMBOHEDRAL_A7 and LIQUID modified in unary 5.0
$ DIAMOND_A4 added in unary 5.0
$
 PAR  G(RHOMBOHEDRAL_A7,BI),,           +GHSERBI;                3000 N 09SGUN !
 PAR  G(FCC_A1,BI:VA),,                 +GHSERBI+9900-12.5*T;    3000 N 91Din !
 PAR  G(BCC_A2,BI:VA),,                 +GHSERBI+11297-13.9*T;   3000 N 91Din !
 PAR  G(HCP_A3,BI:VA),,                 +GHSERBI+9900-11.8*T;    3000 N 91Din !
$PAR  G(DIAMOND_A4,BI),,                +GHSERBI
$            +11296.8+9.253655*T;                                3000 N 88Che2 !
$PAR  G(BCT_A5,BI),,                    +GHSERBI+4184.07;        3000 N 91Din !
$PAR  G(TETRAGONAL_A6,BI),,             +GHSERBI+4184.07;        3000 N 91Din !
$PAR  G(TET_ALPHA1_A6,BI),,             +GHSERBI+4234;           3000 N 91Din !
 PAR  G(LIQUID,BI),,                    +GLIQBI;                 3000 N 09SGUN ! 
$
 PAR  G(BI2SE3_C33,BI:VA),,             +2*GHSERBI+57.3701*T;,,       N 18Pet !
$
 FUNCTION GHSERBI   298.15  -7817.776+128.418925*T-28.4096529*T*LN(T)
       +0.012338888*T**2-8.381598E-6*T**3;
       544.55  Y  +29293.369-379.605174*T+49.678*T*LN(T)
       -0.0730245*T**2+1.3052833E-5*T**3-3544705*T**(-1)+1.66309E+25*T**(-9);
       800.00  Y  -11085.609+182.955328*T-36.041*T*LN(T)
       +7.4641E-3*T**2-1.05047E-6*T**3+5175*T**(-1)+1.66309E+25*T**(-9);
      1200.00  Y  -7580.864+124.770814*T-27.196*T*LN(T)+1.66309E+25*T**(-9);
      3000.00  N !
 FUNCTION GLIQBI    298.15  +11246.017-20.636399*T+GHSERBI-5.9608E-19*T**7;
       544.55  Y  +40629.667-400.415652*T+49.678*T*LN(T)
       -0.0730245*T**2+1.3052833E-5*T**3-3544705*T**(-1);
       800.00  Y  +250.689+162.14485*T-36.041*T*LN(T)
       +0.0074641*T**2-1.05047E-6*T**3+5175*T**(-1);
      1200.00  Y  +3755.434+103.960336*T-27.196*T*LN(T);
      3000.00 N !
$ ------------------------------------------------------------------------------
$ Se
$
 PAR  G(HEXAGONAL_A8,SE),,              +GHSERSE;                1000 N 91Din !
 PAR  G(LIQUID,SE),,                    +GLIQSE;                 1000 N 91Din !
$
 PAR  G(BI2SE3_C33,SE:VA),,             +ZERO;,,                      N 18Pet !
 PAR  G(BI2SE3_C33,SE:SE),,             +5*GHSERSE+82293;,,           N 18Pet !
$
 FUNCTION GHSERSE   298.15  -9376.371+174.205877*T-33.6527*T*LN(T)
       +0.02424314*T**2-1.5318461E-05*T**3+102249*T**(-1);
       494.00  Y  -37546.134+507.111538*T-81.2006585*T*LN(T)
       +0.037144892*T**2-5.611026E-06*T**3+2614263*T**(-1);
       800.00  Y  -12193.47+197.770166*T-35.1456*T*LN(T);
      1000.00  N !
 FUNCTION GLIQSE    298.15  +50533.347-1178.28824*T+194.107439*T*LN(T)
       -0.390268991*T**2+1.19219297E-04*T**3-2224398*T**(-1); 
       494.00  Y  -5228.304+183.72559*T-35.1456*T*LN(T);
      1000.00  N !
$ ------------------------------------------------------------------------------
$ Binary system
$
$ M. Peters, unpublished, 2018.
$
$ Checked against author's tdb. Checked at 6000 K.
$
$ A tdb and a pop-file are available in the NIST repository
$ (https://materialsdata.nist.gov/handle/11256/974), but no other documentation.
$
$ The liquid interaction is quite ugly.
$
$ The function for liquid Bi is incorrect in the author's tdb. This makes the
$ stability of liquid Bi go through the roof at high temperature. In the
$ phase diagram this is visible as a lower liquidus with the author's tdb
$ than with this dataset, in particular around the congruent melting of Bi2Se3.
$ The melting T of Bi2Se3 is 978 K with the author's tdb and 990 K with this
$ dataset.
$
$ There seems to be a whole mess of phases (probably stacking variants)
$ reported on the Bi-rich side of Bi2Se3, i.e. including the Bi3Se2 and Bi4Se5
$ phases.
$
 PAR  G(LIQUID,BI2SE3),,                +2*GLIQBI+3*GLIQSE
             -113611+42.3335*T;,,                                     N 18Pet !
 PAR  L(LIQUID,BI,BI2SE3;0),,           -6522;,,                      N 18Pet !
 PAR  L(LIQUID,BI2SE3,SE;0),,           -228.5-1.6089*T;,,            N 18Pet !
 PAR  L(LIQUID,BI2SE3,SE;1),,           -93049+89.6829*T;,,           N 18Pet !
 PAR  L(LIQUID,BI2SE3,SE;2),,           -75075+90.4048*T;,,           N 18Pet !
$
 PAR  G(BI3SE2,BI:SE),,                 +3*GHSERBI+2*GHSERSE
             -93333+4.3949*T;,,                                       N 18Pet !
 PAR  G(BI4SE5,BI:SE),,                 +4*GHSERBI+5*GHSERSE
             -233327+32.9003*T;,,                                     N 18Pet !
$
 PAR  G(BI2SE3_C33,BI:SE),,             +2*GHSERBI+3*GHSERSE
             -140008+25.0482*T;,,                                     N 18Pet !
 PAR  L(BI2SE3_C33,BI,SE:SE;0),,        +25;,,                        N 18Pet !
 PAR  L(BI2SE3_C33,BI:SE,VA;0),,        +60901;,,                     N 18Pet !
$ ------------------------------------------------------------------------------
$
$
 LIST-OF-REFERENCE
 NUMBER  SOURCE
  Null   'Unknown source'
  Same   'Same or similar interaction as in the corresponding stable phase'
  REFLAV 'Laves phase convention: G(LAVES,X:X)=+3*GHSERXX+15000'
  88Che2 'P.-Y. Chevalier, Thermochim. Acta, 132, 111-16(1988),
          SGTE unary database V.5.0, 2009; Bi' 
  91Din  'A.T. Dinsdale, Calphad, 15, 317-425(1991).'
  09SGUN 'SGTE unary database V.5.0, 2009.'
  18Pet  'M. Peters, unpublished, 2018; Bi-Se'
!
