$
$ Database for Ni-Ta from Y. Cui and Z. Jin 1999 (included in LB Vol. 4)
$
$ Y. Cui, Z. Jin, Z. Metallkd., 90, 233-41(1999).
$
$ Dataset created 2010.02.15 by Bengt Hallstedt.
$ 2021.02.02: Modified for use with GES6.
$
$ There are minor differences compared to the paper. Ni3Ta and Ni2Ta
$ parameters used in LB were modified by Y. Cui.
$
$ According to Peter Franke they have misinterpreted enthalpy of mixing data
$ from Schaeffers et al. 1996. The temperature dependencies are more
$ negative than 94Ans.
$
$ ------------------------------------------------------------------------------
 TEMP-LIM 298.15 6000.00 !
$
$ELEMENT NAME  REF. STATE               ATOMIC MASS H298-H0    S298    !
$
 ELEMENT VA   VACUUM                      0.0          0.0      0.0    ! 
 ELEMENT NI   FCC_A1                     58.69      4787.0     29.7955 ! 
 ELEMENT TA   BCC_A2                    180.9479    5681.872   41.4718 ! 
$ ------------------------------------------------------------------------------
$ Phase definitions
$
 PHASE LIQUID:L % 1 1 !
 CONST LIQUID:L : NI TA : !
$
$ Fcc (cF4, Fm-3m) and MeX (cF8, Fm-3m)
$
 PHASE FCC_A1 %A 2 1 1 !
 CONST FCC_A1 : NI% TA : VA : !
$
$ Bcc (cI2, Im-3m)
$
 PHASE BCC_A2 %B 2 1 3 !
 CONST BCC_A2 : NI TA% : VA : !
$
$ Hcp (hP2, P6_3/mmc) and Me2X (NiAs-type, hP4, P6_3/mmc, B8_1)
$
 PHASE HCP_A3 %A 2 1 0.5 !
 CONST HCP_A3 : NI TA : VA : !
$
$ Prototype MoSi2 (tI6, I4/mmm)
$
 PHASE NI2TA_C11B % 2 2 1 !
 CONST NI2TA_C11B : NI : TA : !
$
$ Prototype NbPt3 (mP16, P2_1/m)
$ beta-Ni3Ta (low-T) has Al3Ti structure (tI8, I4/mmm, D0_22)
$
 PHASE NI3TA % 2 3 1 !
 CONST NI3TA : NI% TA : NI TA% : !
$
$ Prototype Pt8Ti (tI18, I4/mmm)
$
 PHASE NI8X % 2 8 1 !
 CONST NI8X : NI : TA : !
$
$ Prototype Fe7W6 (hR13, R-3m; mu-phase)
$
 PHASE NITA_D85 % 4 1 4 2 6 !
 CONST NITA_D85 : NI TA : TA : NI TA : NI : !
$
$ Prototype Al2Cu (tI12, I4/mcm; theta)
$
 PHASE NITA2_C16 % 2 1 2 !
 CONST NITA2_C16 : NI% TA : TA : !
$ ------------------------------------------------------------------------------
$ Defaults
$
 DEFINE-SYSTEM-DEFAULT ELEMENT 2 !
 DEFAULT-COM DEFINE_SYSTEM_ELEMENT VA !
 TYPE-DEF % SEQ * !
 TYPE-DEF A GES AMEND_PHASE_DESCRIPTION @ MAGNETIC -3 0.28 !
 TYPE-DEF B GES AMEND_PHASE_DESCRIPTION @ MAGNETIC -1 0.4 !
 FUNCTION ZERO      298.15  0;                                         6000 N !
 FUNCTION UN_ASS    298.15  0;                                         6000 N !
 FUNCTION R         298.15  +8.31451;                                  6000 N !
$ ------------------------------------------------------------------------------
$ Element data
$ ------------------------------------------------------------------------------
$ Ni
$
$ FCC_A1 and LIQUID modified in unary 5.0 (slight change in upper T interval)
$ BCT_A5 added in unary 5.0
$
 PAR  G(FCC_A1,NI:VA),,                 +GHSERNI;                3000 N 91Din !
 PAR  TC(FCC_A1,NI:VA),,                  633.00;                3000 N 91Din !
 PAR  BM(FCC_A1,NI:VA),,                    0.52;                3000 N 91Din !
 PAR  G(BCC_A2,NI:VA),,                 +GHSERNI
             +8715.084-3.556*T;                                  3000 N 91Din !
 PAR  TC(BCC_A2,NI:VA),,                  575.00;                3000 N 91Din !
 PAR  BM(BCC_A2,NI:VA),,                    0.85;                3000 N 91Din !
 PAR  G(HCP_A3,NI:VA),,                 +GHSERNI+1046+1.255*T;   3000 N 91Din !
 PAR  TC(HCP_A3,NI:VA),,                  633.00;                3000 N 91Din !
 PAR  BM(HCP_A3,NI:VA),,                    0.52;                3000 N 91Din !
$PAR  G(BCT_A5,NI),,                    +GHSERNI+10023-4.556*T;  3000 N 99Gho !
$PAR  G(CBCC_A12,NI:VA),,               +GHSERNI+3556;           3000 N 91Din !
$PAR  G(CUB_A13,NI:VA),,                +GHSERNI+2092;           3000 N 91Din !
 PAR  G(LIQUID,NI),,                    +GLIQNI;                 3000 N 91Din !
$
 PAR  G(NI3TA,NI:NI),,                  +4*GHSERNI+20000;,,           N 99Cui !
$
 FUNCTION GHSERNI   298.15  -5179.159+117.854*T-22.096*T*LN(T)-0.0048407*T**2;
      1728.00  Y  -27840.62+279.134977*T-43.1*T*LN(T)+1.12754E+31*T**(-9);
      3000.00  N !
 FUNCTION GLIQNI    298.15  +16414.686-9.397*T+GHSERNI-3.82318E-21*T**7;
      1728.00  Y  -9549.817+268.597977*T-43.1*T*LN(T);
      3000.00  N !
 FUNCTION GBCCNI    298.15  +GHSERNI+8715.084-3.556*T;                 6000 N !
$ ------------------------------------------------------------------------------
$ Ta
$
 PAR  G(BCC_A2,TA:VA),,                 +GHSERTA;,,                   N 91Din !
 PAR  G(FCC_A1,TA:VA),,                 +GHSERTA+16000+1.7*T;,,       N 91Din !
 PAR  G(HCP_A3,TA:VA),,                 +GHSERTA+12000+2.4*T;,,       N 91Din !
 PAR  G(LIQUID,TA),,                    +GLIQTA;,,                    N 91Din !
$
 PAR  G(NI3TA,TA:TA),,                  +4*GHSERTA+8000;,,            N 99Cui !
 PAR  G(NITA2_C16,TA:TA),,              +3*GHSERTA+19500;,,           N 99Cui !
$
 FUNCTION GHSERTA   298.15  -7285.889+119.139857*T-23.7592624*T*LN(T)
       -0.002623033*T**2+1.70109E-07*T**3-3293*T**(-1);
      1300.00  Y  -22389.955+243.88676*T-41.137088*T*LN(T)
       +0.006167572*T**2-6.55136E-07*T**3+2429586*T**(-1);
      2500.00  Y  +229382.886-722.59722*T+78.5244752*T*LN(T)
       -0.017983376*T**2+1.95033E-07*T**3-93813648*T**(-1);
      3290.00  Y  -1042384.01+2985.49125*T-362.159132*T*LN(T)
       +0.043117795*T**2-1.055148E-06*T**3+5.54714342E+08*T**(-1);
      6000.00  N !
 FUNCTION GLIQTA    298.15  +29160.975-7.578729*T+GHSERTA;
      1000.00  Y  +43884.339-61.981795*T+0.0279523*T*LN(T)
       -0.012330066*T**2+6.14599E-07*T**3-3523338*T**(-1);
      3290.00  Y  -6314.543+258.110873*T-41.84*T*LN(T);
      6000.00  N !
 FUNCTION GFCCTA    298.15  +GHSERTA+16000+1.7*T;                      6000 N !
$ ------------------------------------------------------------------------------
$ Binary system
$
$ From Y. Cui and Z. Jin 1999 (included in LB Vol. 4).
$
$ Y. Cui, Z. Jin, Z. Metallkd., 90, 233-41(1999).
$
$ Checked against LB and paper. Checked at 6000 K.
$
$ There are minor differences compared to the paper. Ni3Ta and Ni2Ta
$ parameters used in LB were modified by Y. Cui.
$
$ According to Peter Franke they have misinterpreted enthalpy of mixing data
$ from Schaeffers et al. 1996. The temperature dependencies are more
$ negative than 94Ans.
$
 PAR  L(LIQUID,NI,TA;0),,               -108449.99-0.235*T;,,         N 99Cui !
 PAR  L(LIQUID,NI,TA;1),,               -684.17-21.139*T;,,           N 99Cui !
 PAR  L(LIQUID,NI,TA;2),,               +37663.6-17.372*T;,,          N 99Cui !
$
 PAR  L(FCC_A1,NI,TA:VA;0),,            -52063.1-24.399*T;,,          N 99Cui !
 PAR  L(FCC_A1,NI,TA:VA;1),,            -67705.81+14.997*T;,,         N 99Cui !
 PAR  TC(FCC_A1,NI,TA:VA;0),,           -3568.77;,,                   N 99Cui !
$
 PAR  L(BCC_A2,NI,TA:VA;0),,            -15913.36-27.955*T;,,         N 99Cui !
 PAR  L(BCC_A2,NI,TA:VA;1),,            +13563.9-25.02*T;,,           N 99Cui !
$
 PAR  G(NI8X,NI:TA),,                   +8*GHSERNI+GHSERTA
             -123094.4-6.615*T;,,                                     N 99Cui !
$
$PAR  G(NI3TA,NI:TA),,                  +3*GHSERNI+GHSERTA
$            -91956.76-13.356*T;,,                                    N 99Cui !
$ Parameter below from LBall-v7+fun.TDB
 PAR  G(NI3TA,NI:TA),,                  +3*GHSERNI+GHSERTA
             -84656-17.38*T;,,                                        N 99Cui !
$PAR  G(NI3TA,TA:NI),,                  +GHSERNI+3*GHSERTA
$            +91956.76+13.356*T;,,                                    N 99Cui !
$ Parameter below from LBall-v7+fun.TDB
 PAR  G(NI3TA,TA:NI),,                  +GHSERNI+3*GHSERTA
             +112656+17.38*T;,,                                       N 99Cui !
 PAR  L(NI3TA,NI,TA:NI;0),,             -13540;,,                     N 99Cui !
 PAR  L(NI3TA,NI,TA:TA;0),,             -13540;,,                     N 99Cui !
 PAR  L(NI3TA,NI:NI,TA;0),,             -2988;,,                      N 99Cui !
 PAR  L(NI3TA,TA:NI,TA;0),,             -2988;,,                      N 99Cui !
$
$PAR  G(NI2TA_C11B,NI:TA),,             +2*GHSERNI+GHSERTA
$            -83890.71-3.3*T;,,                                       N 99Cui !
$ Parameter below from LBall-v7+fun.TDB
 PAR  G(NI2TA_C11B,NI:TA),,             +2*GHSERNI+GHSERTA
             -80208.42-5.517*T;,,                                     N 99Cui !
$
 PAR  G(NITA_D85,NI:TA:NI:NI),,         +7*GHSERNI+2*GBCCNI
             +4*GHSERTA;,,                                            N 99Cui !
 PAR  G(NITA_D85,NI:TA:TA:NI),,         +7*GHSERNI+6*GHSERTA
             -422680.7+20.579*T;,,                                    N 99Cui !
 PAR  G(NITA_D85,TA:TA:NI:NI),,         +6*GHSERNI+2*GBCCNI
             +4*GHSERTA+GFCCTA-90251.98+38.883*T;,,                   N 99Cui !
 PAR  G(NITA_D85,TA:TA:TA:NI),,         +6*GHSERNI+6*GHSERTA+GFCCTA
             -512932.68+59.462*T;,,                                   N 99Cui !
$
 PAR  G(NITA2_C16,NI:TA),,              +GHSERNI+2*GHSERTA
             -94978.92+10.32*T;,,                                     N 99Cui !
$PAR  L(NITA2_C16,NI,TA:TA;0),,         +15840;,,                     N 99Cui !
$ Parameter below from LBall-v7+fun.TDB
 PAR  L(NITA2_C16,NI,TA:TA;0),,         +15840.84;,,                  N 99Cui !
$ ------------------------------------------------------------------------------
$
 ASSESSED_SYSTEM
  NI-TA(TDB -* +LIQUID +FCC_A1 +BCC_A2 +NI2TA_C11B +NI3TA +NI8X +NITA_D85
  +NITA2_C16 ;P3 TMM:300/3500 STP:.05/1200) !
$
$
 LIST-OF-REFERENCE
 NUMBER  SOURCE
  Null   'Unknown source'
  Same   'Same or similar interaction as in the corresponding stable phase'
  91Din  'A.T. Dinsdale, Calphad, 15, 317-425(1991).'
  99Cui  'Y. Cui, Z. Jin, Z. Metallkd., 90, 233-41(1999); Ni-Ta'
  99Gho  'G. Ghosh, Metall. Mater. Trans. A, 30A, 1481-94(1999),
          SGTE unary database V.5.0, 2009; Ni'
!
