$
$ Database for Nb-Ni from H. Sun et al. 2023.
$
$ H. Sun, S.-L. Shang, R. Gong, B.J. Bocklund, A.M. Beese, Z.-K. Liu,
$ Calphad, 82, 102563(2023).
$
$ Dataset created 2024.03.10 by Bengt Hallstedt.
$
$ Using ESPEI and PyCalphad with uncertainty quantification.
$
$ Full sublattice models for mu (5sl) and NbNi3 (3sl).
$
$ Parameters are only reported in a supplemental tdb.
$
$ Ambitious modelling with a huge amount of numbers. The fcc interaction does
$ not make a good impression.
$
$ ------------------------------------------------------------------------------
 TEMP-LIM 298.15 6000.00 !
$
$ELEMENT NAME  REF. STATE               ATOMIC MASS H298-H0    S298    !
$
 ELEMENT VA   VACUUM                      0.0          0.0      0.0    ! 
 ELEMENT NB   BCC_A2                     92.9064    5220.0     36.27   ! 
 ELEMENT NI   FCC_A1                     58.69      4787.0     29.7955 ! 
$ ------------------------------------------------------------------------------
$ Phase definitions
$
 PHASE LIQUID:L % 1 1 !
 CONST LIQUID:L : NB NI : !
$
$ Fcc (cF4, Fm-3m) and MeX (cF8, Fm-3m)
$
 PHASE FCC_A1 %A 2 1 1 !
 CONST FCC_A1 : NB NI% : VA : !
$
$ Bcc (cI2, Im-3m)
$
 PHASE BCC_A2 %B 2 1 3 !
 CONST BCC_A2 : NB% NI : VA : !
$
$ Hcp (hP2, P6_3/mmc) and Me2X (NiAs-type, hP4, P6_3/mmc, B8_1)
$
 PHASE HCP_A3 %A 2 1 0.5 !
 CONST HCP_A3 : NB NI : VA : !
$
$ Prototype Fe7W6 (hR13, R-3m)
$
 PHASE MU_D85 % 5 1 2 2 2 6 !
 CONST MU_D85 : NB NI : NB NI : NB NI : NB NI : NB NI : !
$
$ Unknown structure
$
 PHASE NBNI8 % 2 1 8 !
 CONST NBNI8 : NB : NI : !
$
$ Prototype Cu3Ti (oP8, Pmmn)
$
 PHASE NBNI3_D0A % 3 1 1 2 !
 CONST NBNI3_D0A : NB NI : NB NI : NB NI : !
$ ------------------------------------------------------------------------------
$ Defaults
$
 DEFINE-SYSTEM-DEFAULT ELEMENT 2 !
 DEFAULT-COM DEFINE_SYSTEM_ELEMENT VA !
 TYPE-DEF % SEQ * !
 TYPE-DEF A GES AMEND_PHASE_DESCRIPTION @ MAGNETIC -3 0.28 !
 TYPE-DEF B GES AMEND_PHASE_DESCRIPTION @ MAGNETIC -1 0.4 !
 FUNCTION ZERO      298.15  0;                                         6000 N !
 FUNCTION UN_ASS    298.15  0;                                         6000 N !
 FUNCTION R         298.15  +8.31451;                                  6000 N !
$ ------------------------------------------------------------------------------
$ Element data
$ ------------------------------------------------------------------------------
$ Nb
$
 PAR  G(BCC_A2,NB:VA),,                 +GHSERNB;,,                   N 91Din !
 PAR  G(FCC_A1,NB:VA),,                 +GHSERNB+13500+1.7*T;,,       N 91Din !
 PAR  G(HCP_A3,NB:VA),,                 +GHSERNB+10000+2.4*T;,,       N 91Din !
 PAR  G(LIQUID,NB),,                    +GLIQNB;,,                    N 91Din !
$
 PAR  G(MU_D85,NB:NB:NB:NB:NB),,        +13*GHSERNB+213770;,,         N 23Sun !
$PAR  G(MU_D85,NB:NB:NB:NB),,           +13*GHSERNB+227500;,,         N 12Liu ! 
 PAR  G(NBNI3_D0A,NB:NB:NB),,           +4*GHSERNB+75531.9589;,,      N 23Sun !
$
 FUNCTION GHSERNB   298.15  -8519.353+142.045475*T-26.4711*T*LN(T)
       +2.03475E-04*T**2-3.5012E-07*T**3+93399*T**(-1);
      2750.00  Y  -37669.3+271.720843*T-41.77*T*LN(T)+1.528238E+32*T**(-9);
      6000.00  N !
 FUNCTION GLIQNB    298.15  +29781.555-10.816418*T+GHSERNB-3.06098E-23*T**7;
      2750.00  Y  -7499.398+260.756148*T-41.77*T*LN(T);
      6000.00  N !
$ ------------------------------------------------------------------------------
$ Ni
$
$ FCC_A1 and LIQUID modified in unary 5.0 (slight change in upper T interval)
$ BCT_A5 added in unary 5.0
$
 PAR  G(FCC_A1,NI:VA),,                 +GHSERNI;                3000 N 91Din !
 PAR  TC(FCC_A1,NI:VA),,                  633.00;                3000 N 91Din !
 PAR  BM(FCC_A1,NI:VA),,                    0.52;                3000 N 91Din !
 PAR  G(BCC_A2,NI:VA),,                 +GHSERNI
             +8715.084-3.556*T;                                  3000 N 91Din !
 PAR  TC(BCC_A2,NI:VA),,                  575.00;                3000 N 91Din !
 PAR  BM(BCC_A2,NI:VA),,                    0.85;                3000 N 91Din !
 PAR  G(HCP_A3,NI:VA),,                 +GHSERNI+1046+1.255*T;   3000 N 91Din !
 PAR  TC(HCP_A3,NI:VA),,                  633.00;                3000 N 91Din !
 PAR  BM(HCP_A3,NI:VA),,                    0.52;                3000 N 91Din !
$PAR  G(BCT_A5,NI),,                    +GHSERNI+10023-4.556*T;  3000 N 99Gho !
$PAR  G(CBCC_A12,NI:VA),,               +GHSERNI+3556;           3000 N 91Din !
$PAR  G(CUB_A13,NI:VA),,                +GHSERNI+2092;           3000 N 91Din !
 PAR  G(LIQUID,NI),,                    +GLIQNI;                 3000 N 91Din !
$
 PAR  G(MU_D85,NI:NI:NI:NI:NI),,        +13*GHSERNI+214322;,,         N 23Sun !
 PAR  G(NBNI3_D0A,NI:NI:NI),,           +4*GHSERNI+9108.14077;,,      N 23Sun !
$
 FUNCTION GHSERNI   298.15  -5179.159+117.854*T-22.096*T*LN(T)-0.0048407*T**2;
      1728.00  Y  -27840.62+279.134977*T-43.1*T*LN(T)+1.12754E+31*T**(-9);
      3000.00  N !
 FUNCTION GLIQNI    298.15  +16414.686-9.397*T+GHSERNI-3.82318E-21*T**7;
      1728.00  Y  -9549.817+268.597977*T-43.1*T*LN(T);
      3000.00  N !
 FUNCTION GBCCNI    298.15  +GHSERNI+8715.084-3.556*T;                 6000 N !
$ ------------------------------------------------------------------------------
$ Binary system
$
$ H. Sun, S.-L. Shang, R. Gong, B.J. Bocklund, A.M. Beese, Z.-K. Liu,
$ Calphad, 82, 102563(2023).
$
$ Checked against paper and author's tdb. Checked at 6000K.
$
$ Using ESPEI and PyCalphad with uncertainty quantification.
$
$ Full sublattice models for mu (5sl) and NbNi3 (3sl).
$
$ Parameters are only reported in a supplemental tdb.
$
$ Ambitious modelling with a huge amount of numbers. The fcc interaction does
$ not make a good impression.
$
 PAR  L(LIQUID,NB,NI;0),,               -84877.6174839229
             -2.31498*T;,,                                            N 23Sun !
 PAR  L(LIQUID,NB,NI;1),,               +93921.089630206
             -17.01069*T;,,                                           N 23Sun !
 PAR  L(LIQUID,NB,NI;2),,               -21000;,,                     N 23Sun !
$
 PAR  L(FCC_A1,NB,NI:VA;0),,            -12500-41.45*T;,,             N 23Sun !
 PAR  L(FCC_A1,NB,NI:VA;1),,            +100000-30*T;,,               N 23Sun !
 PAR  L(FCC_A1,NB,NI:VA;2),,            -108000+38.5*T;,,             N 23Sun !
 PAR  TC(FCC_A1,NB,NI:VA;0),,           -1200;,,                      N 96Bol !
 PAR  TC(FCC_A1,NB,NI:VA;1),,            +760;,,                      N 96Bol !
 PAR  BMAG(FCC_A1,NB,NI:VA;0),,           +1E-8;,,                    N 23Sun !
$
 PAR  L(BCC_A2,NB,NI:VA;0),,            -18724.3+5.02405*T;,,         N 23Sun !
$
 PAR  G(MU_D85,NB:NB:NB:NB:NI),,        +7*GHSERNB+6*GHSERNI
             -218623.740220968-130.098044910099*T+19.4656*T*LN(T);,,  N 23Sun !
 PAR  G(MU_D85,NB:NB:NB:NI:NB),,        +11*GHSERNB+2*GHSERNI
             +349643;,,                                               N 23Sun !
 PAR  G(MU_D85,NB:NB:NB:NI:NI),,        +5*GHSERNB+8*GHSERNI
             -131558.895591796;,,                                     N 23Sun !
 PAR  G(MU_D85,NB:NB:NI:NB:NB),,        +11*GHSERNB+2*GHSERNI
             +457914;,,                                               N 23Sun !
 PAR  G(MU_D85,NB:NB:NI:NB:NI),,        +5*GHSERNB+8*GHSERNI
             -206234.534811725-83.8149404986018*T+16.8545*T*LN(T);,,  N 23Sun !
 PAR  G(MU_D85,NB:NB:NI:NI:NB),,        +9*GHSERNB+4*GHSERNI
             +514213;,,                                               N 23Sun !
 PAR  G(MU_D85,NB:NB:NI:NI:NI),,        +3*GHSERNB+10*GHSERNI
             +5953.28834236305;,,                                     N 23Sun !
 PAR  G(MU_D85,NB:NI:NB:NB:NB),,        +11*GHSERNB+2*GHSERNI
             +408532;,,                                               N 23Sun !
 PAR  G(MU_D85,NB:NI:NB:NB:NI),,        +5*GHSERNB+8*GHSERNI
             -134717.870286792;,,                                     N 23Sun !
 PAR  G(MU_D85,NB:NI:NB:NI:NB),,        +9*GHSERNB+4*GHSERNI
             +226816;,,                                               N 23Sun !
 PAR  G(MU_D85,NB:NI:NB:NI:NI),,        +3*GHSERNB+10*GHSERNI
             +58906.3812678098;,,                                     N 23Sun !
 PAR  G(MU_D85,NB:NI:NI:NB:NB),,        +9*GHSERNB+4*GHSERNI
             +494327.670935803;,,                                     N 23Sun !
 PAR  G(MU_D85,NB:NI:NI:NB:NI),,        +3*GHSERNB+10*GHSERNI
             -150153.83446131;,,                                      N 23Sun !
 PAR  G(MU_D85,NB:NI:NI:NI:NB),,        +7*GHSERNB+6*GHSERNI
             +473468;,,                                               N 23Sun !
 PAR  G(MU_D85,NB:NI:NI:NI:NI),,        +GHSERNB+12*GHSERNI
             +151270.719433344;,,                                     N 23Sun !
 PAR  G(MU_D85,NI:NB:NB:NB:NB),,        +12*GHSERNB+GHSERNI+172401;,, N 23Sun !
 PAR  G(MU_D85,NI:NB:NB:NB:NI),,        +6*GHSERNB+7*GHSERNI
             -137115.794321021-134.246250078871*T+28.8142*T*LN(T);,,  N 23Sun !
 PAR  G(MU_D85,NI:NB:NB:NI:NB),,        +10*GHSERNB+3*GHSERNI
             +301487;,,                                               N 23Sun !
 PAR  G(MU_D85,NI:NB:NB:NI:NI),,        +4*GHSERNB+9*GHSERNI
             -242166.471446692-164.026869601384*T+34.3145*T*LN(T);,,  N 23Sun !
 PAR  G(MU_D85,NI:NB:NI:NB:NB),,        +10*GHSERNB+3*GHSERNI
             +274720;,,                                               N 23Sun !
 PAR  G(MU_D85,NI:NB:NI:NB:NI),,        +4*GHSERNB+9*GHSERNI
             -129558;,,                                               N 23Sun !
 PAR  G(MU_D85,NI:NB:NI:NI:NB),,        +8*GHSERNB+5*GHSERNI
             +377103;,,                                               N 23Sun !
 PAR  G(MU_D85,NI:NB:NI:NI:NI),,        +2*GHSERNB+11*GHSERNI
             +68126.8;,,                                              N 23Sun !
 PAR  G(MU_D85,NI:NI:NB:NB:NB),,        +10*GHSERNB+3*GHSERNI
             +383155;,,                                               N 23Sun !
 PAR  G(MU_D85,NI:NI:NB:NB:NI),,        +4*GHSERNB+9*GHSERNI
             -143568;,,                                               N 23Sun !
 PAR  G(MU_D85,NI:NI:NB:NI:NB),,        +8*GHSERNB+5*GHSERNI
             +206832;,,                                               N 23Sun !
 PAR  G(MU_D85,NI:NI:NB:NI:NI),,        +2*GHSERNB+11*GHSERNI
             -38275.4;,,                                              N 23Sun !
 PAR  G(MU_D85,NI:NI:NI:NB:NB),,        +8*GHSERNB+5*GHSERNI
             +493119.589916903;,,                                     N 23Sun !
 PAR  G(MU_D85,NI:NI:NI:NB:NI),,        +2*GHSERNB+11*GHSERNI
             +2269.70958689655;,,                                     N 23Sun !
 PAR  G(MU_D85,NI:NI:NI:NI:NB),,        +6*GHSERNB+7*GHSERNI
             +335555;,,                                               N 23Sun !
 PAR  L(MU_D85,NB,NI:NB:NB:NB:NI;0),,   -661388.244132556+130*T;,,    N 23Sun !
 PAR  L(MU_D85,NB,NI:NB:NI:NB:NI;0),,   -136819.389731292;,,          N 23Sun !
 PAR  L(MU_D85,NB:NB,NI:NB:NB:NI;0),,   -453346.795238934;,,          N 23Sun !
 PAR  L(MU_D85,NB:NB:NB,NI:NB:NI;0),,   -143276.639444082;,,          N 23Sun !
 PAR  L(MU_D85,NI:NB:NB,NI:NB:NI;0),,   -254956.646403948;,,          N 23Sun !
 PAR  L(MU_D85,NB:NB:NB:NB,NI:NI;0),,   -43613.1051073698;,,          N 23Sun !
 PAR  L(MU_D85,NB:NB:NB:NB:NB,NI;0),,   -277160.551672838;,,          N 23Sun !
$
 PAR  G(NBNI3_D0A,NB:NB:NI),,           +2*GHSERNB+2*GHSERNI
             -51972.3634;,,                                           N 23Sun !
 PAR  G(NBNI3_D0A,NB:NI:NB),,           +3*GHSERNB+GHSERNI
             +44073.1739;,,                                           N 23Sun !
 PAR  G(NBNI3_D0A,NB:NI:NI),,           +GHSERNB+3*GHSERNI
             -111189-47.2511071*T+8.15289*T*LN(T);,,                  N 23Sun !
 PAR  G(NBNI3_D0A,NI:NB:NB),,           +3*GHSERNB+GHSERNI
             +44215.9711;,,                                           N 23Sun !
 PAR  G(NBNI3_D0A,NI:NB:NI),,           +GHSERNB+3*GHSERNI
             -129712.630565805+8.8536863815839*T+0.1474*T*LN(T);,,    N 23Sun !
 PAR  G(NBNI3_D0A,NI:NI:NB),,           +2*GHSERNB+2*GHSERNI
             -51972.3634;,,                                           N 23Sun !
 PAR  L(NBNI3_D0A,NB,NI:NB:NB;0),,      +ZERO;,,                      N 23Sun !
 PAR  L(NBNI3_D0A,NB,NI:NB:NI;0),,      -10000;,,                     N 23Sun !
 PAR  L(NBNI3_D0A,NB,NI:NI:NB;0),,      +ZERO;,,                      N 23Sun !
 PAR  L(NBNI3_D0A,NB,NI:NI:NI;0),,      -5000;,,                      N 23Sun !
 PAR  L(NBNI3_D0A,NB:NB,NI:NB;0),,      +ZERO;,,                      N 23Sun !
 PAR  L(NBNI3_D0A,NB:NB,NI:NI;0),,      -10000;,,                     N 23Sun !
 PAR  L(NBNI3_D0A,NI:NB,NI:NB;0),,      +ZERO;,,                      N 23Sun !
 PAR  L(NBNI3_D0A,NI:NB,NI:NI;0),,      -5000;,,                      N 23Sun !
$
 PAR  G(NBNI8,NB:NI),,                  +GHSERNB+8*GHSERNI
             -162557.48+23.195821*T;,,                                N 23Sun !
$
$ Metastable
$
 PAR  L(HCP_A3,NB,NI:VA;0),,            -12500-41.45*T;,,             N Same !
 PAR  L(HCP_A3,NB,NI:VA;1),,            +100000-30*T;,,               N Same !
 PAR  L(HCP_A3,NB,NI:VA;2),,            -108000+38.5*T;,,             N Same !
$ ------------------------------------------------------------------------------
$
 ASSESSED_SYSTEM
  NB-NI(TDB -* +LIQUID +FCC_A1 +BCC_A2 +NBNI3_D0A +MU_D85 +NBNI8
  ;P3 TMM:300/3000 *) !
$
$
 LIST-OF-REFERENCE
 NUMBER  SOURCE
  Null   'Unknown source'
  Same   'Same or similar interaction as in the corresponding stable phase'
  REFLAV 'Laves phase convention: G(LAVES,X:X)=+3*GHSERXX+15000'
  COST   'COST 507 database'
  91Din  'A.T. Dinsdale, Calphad, 15, 317-425(1991).'
  96Bol  'A. Bolcavage, U.R. Kattner,
          J. Phase Equilib., 17, 92-100(1996); Nb-Ni'
  99Gho  'G. Ghosh, Metall. Mater. Trans. A, 30A, 1481-94(1999),
          SGTE unary database V.5.0, 2009; Ni'
  12Liu  'S.H. Liu, B. Hallstedt, D. Music, Y. Du,
          Calphad, 38, 43-58(2012); Fe-Nb, Mn-Nb, Fe-Mn-Nb'
  23Sun  'H. Sun, S.-L. Shang, R. Gong, B.J. Bocklund, A.M. Beese, Z.-K. Liu,
          Calphad, 82, 102563(2023); Nb-Ni'
!
