$
$ Database for Co-Re from X.J. Liu et al. 2014.
$
$ X.J. Liu, J.Y. Lin, Y. Lu, Y.H. Guo, C.P. Wang, Calphad, 45, 138-44(2014).
$
$ Dataset created 2024.07.25 by Bengt Hallstedt.
$
$ Old data for Re used. With current data the phase diagram is not reproduced.
$
$ ------------------------------------------------------------------------------
 TEMP-LIM 298.15 6000.00 !
$
$ELEMENT NAME  REF. STATE               ATOMIC MASS H298-H0    S298    !
$
 ELEMENT VA   VACUUM                      0.0          0.0      0.0    ! 
 ELEMENT CO   HCP_A3                     58.9332    4765.567   30.0400 ! 
 ELEMENT RE   HCP_A3                    186.207     5333.      36.4820 ! 
$ ------------------------------------------------------------------------------
$ Phase definitions
$
 PHASE LIQUID:L % 1 1 !
 CONST LIQUID:L : CO RE : !
$
$ Fcc (cF4, Fm-3m) and MeX (cF8, Fm-3m)
$
 PHASE FCC_A1 %A 2 1 1 !
 CONST FCC_A1 : CO% RE : VA : !
$
$ Bcc (cI2, Im-3m)
$
 PHASE BCC_A2 %B 2 1 3 !
 CONST BCC_A2 : CO RE : VA : !
$
$ Hcp (hP2, P6_3/mmc) and Me2X (NiAs-type, hP4, P6_3/mmc, B8_1)
$
 PHASE HCP_A3 %A 2 1 0.5 !
 CONST HCP_A3 : CO% RE% : VA : !
$ ------------------------------------------------------------------------------
$ Defaults
$
 DEFINE-SYSTEM-DEFAULT ELEMENT 2 !
 DEFAULT-COM DEFINE_SYSTEM_ELEMENT VA !
 TYPE-DEF % SEQ * !
 TYPE-DEF A GES AMEND_PHASE_DESCRIPTION @ MAGNETIC -3 0.28 !
 TYPE-DEF B GES AMEND_PHASE_DESCRIPTION @ MAGNETIC -1 0.4 !
 FUNCTION ZERO      298.15  0;                                         6000 N !
 FUNCTION UN_ASS    298.15  0;                                         6000 N !
 FUNCTION R         298.15  +8.31451;                                  6000 N !
$ ------------------------------------------------------------------------------
$ Element data
$ ------------------------------------------------------------------------------
$ Co
$
 PAR  G(HCP_A3,CO:VA),,                 +GHSERCO;,,                   N 91Din !
 PAR  TC(HCP_A3,CO:VA),,                 1396.00;,,                   N 91Din !
 PAR  BM(HCP_A3,CO:VA),,                    1.35;,,                   N 91Din !
 PAR  G(FCC_A1,CO:VA),,                 +GHSERCO
             +427.591-0.615248*T;,,                                   N 91Din !
 PAR  TC(FCC_A1,CO:VA),,                 1396.00;,,                   N 91Din !
 PAR  BM(FCC_A1,CO:VA),,                    1.35;,,                   N 91Din !
 PAR  G(BCC_A2,CO:VA),,                 +GHSERCO+2938-0.7138*T;,,     N 91Din !
 PAR  TC(BCC_A2,CO:VA),,                 1450.00;,,                   N 91Din !
 PAR  BM(BCC_A2,CO:VA),,                    1.35;,,                   N 91Din !
$PAR  G(CBCC_A12,CO:VA),,               +GHSERCO+4155;,,              N 91Din !
$PAR  G(CUB_A13,CO:VA),,                +GHSERCO+3155;,,              N 91Din !
 PAR  G(LIQUID,CO),,                    +GLIQCO;,,                    N 91Din !
$
 FUNCTION GHSERCO   298.15  +310.241+133.36601*T-25.0861*T*LN(T)
       -0.002654739*T**2-1.7348E-07*T**3+72527*T**(-1);
      1768.00  Y  -17197.666+253.28374*T-40.5*T*LN(T)+9.3488E+30*T**(-9);
      6000.00  N !
 FUNCTION GLIQCO    298.15  +15085.037-8.931932*T+GHSERCO-2.19801E-21*T**7;
      1768.00  Y  -846.61+243.599944*T-40.5*T*LN(T);
      6000.00  N !
$ ------------------------------------------------------------------------------
$ Re
$
$ Old data for hcp and liquid Re
$
$ HCP_A3 and LIQUID revised in unary 3.0
$ BCC_A2 revised in unary 4.4
$
 PAR  G(HCP_A3,RE:VA),,                 +GHSERRE;,,                   N 91Din !
 PAR  G(FCC_A1,RE:VA),,                 +GHSERRE+11000-1.5*T;,,       N 91Din !
 PAR  G(BCC_A2,RE:VA),,                 +GHSERRE+17000-3.7*T;,,       N 01SGUN !
$PAR  G(BCC_A2,RE:VA),,                 +GHSERRE+29200-6*T;,,         N 91Din !
 PAR  G(LIQUID,RE),,                    +GLIQRE;,,                    N 91Din !
$
 FUNCTION GHSERRE   298.15  -7305.045+123.758773*T-23.6892641*T*LN(T)
       -0.002723387*T**2;
      3459.00  Y  +38514.17-65.920606*T+.0645635*T*LN(T)
       -0.008050184*T**2+2.19551E-07*T**3-15938253*T**(-1);
      6000.00  N !
 FUNCTION GLIQRE    298.15  +45296.708-11.184298*T+GHSERRE;  
      1000.00  Y  +66060.979-113.540121*T+7.4580354*T*LN(T)
       -0.016183804*T**2+7.69496E-07*T**3-4421721*T**(-1);
      3459.00  Y  -5301.43+328.158541*T-50*T*LN(T);
      6000.00  N !
$ ------------------------------------------------------------------------------
$ Binary system
$
$ X.J. Liu, J.Y. Lin, Y. Lu, Y.H. Guo, C.P. Wang, Calphad, 45, 138-44(2014).
$
$ Checked against paper and author's tdb. Checked at 6000 K.
$
$ Old data for Re used. With current data the phase diagram is not reproduced.
$
 PAR  L(LIQUID,CO,RE;0),,               +8000-27*T;,,                 N 14Liu !
 PAR  L(LIQUID,CO,RE;1),,               -4000;,,                      N 14Liu !
$
 PAR  L(FCC_A1,CO,RE:VA;0),,            -7050-12*T;,,                 N 14Liu !
$
 PAR  L(HCP_A3,CO,RE:VA;0),,            -11800-11*T;,,                N 14Liu !
 PAR  L(HCP_A3,CO,RE:VA;1),,            +8550+3*T;,,                  N 14Liu !
$
$ Metastable
$
 PAR  L(BCC_A2,CO,RE:VA;0),,            -7050-12*T;,,                 N Same !
$ ------------------------------------------------------------------------------
$
$
 LIST-OF-REFERENCE
 NUMBER  SOURCE
  Null   'Unknown source'
  Same   'Same or similar interaction as in the corresponding stable phase'
  REFLAV 'Laves phase convention: G(LAVES,X:X)=+3*GHSERXX+15000'
  91Din  'A.T. Dinsdale, Calphad, 15, 317-425(1991).'
  01SGUN 'SGTE unary database V.4.4, 2001.'
  14Liu  'X.J. Liu, J.Y. Lin, Y. Lu, Y.H. Guo, C.P. Wang,
          Calphad, 45, 138-44(2014); Co-Re'
!
