$
$ Database for Mn-Nb from S. Liu et al. 2012
$
$ S. Liu, B. Hallstedt, D. Music, Y. Du, Calphad, 38, 43-58(2012).
$
$ Dataset created 2012.07.02 by Bengt Hallstedt.
$ 2021.01.30: Modified for use with GES6.
$
$ Standard treatment of C14_LAVES, MU_D85 not included
$
$ ------------------------------------------------------------------------------
 TEMP-LIM 298.15 6000.00 !
$
$ELEMENT NAME  REF. STATE               ATOMIC MASS H298-H0    S298    !
$
 ELEMENT VA   VACUUM                      0.0          0.0      0.0    ! 
 ELEMENT MN   CBCC_A12                   54.9380    4995.696   32.2206 ! 
 ELEMENT NB   BCC_A2                     92.9064    5220.0     36.27   ! 
$ ------------------------------------------------------------------------------
$ Phase definitions
$
 PHASE LIQUID:L % 1 1 !
 CONST LIQUID:L : MN NB : !
$
$ Fcc (cF4, Fm-3m) and MeX (cF8, Fm-3m)
$
 PHASE FCC_A1 %A 2 1 1 !
 CONST FCC_A1 : MN% NB : VA : !
$
$ Bcc (cI2, Im-3m)
$
 PHASE BCC_A2 %B 2 1 3 !
 CONST BCC_A2 : MN% NB% : VA : !
$
$ Hcp (hP2, P6_3/mmc) and Me2X (NiAs-type, hP4, P6_3/mmc, B8_1)
$
 PHASE HCP_A3 %A 2 1 0.5 !
 CONST HCP_A3 : MN NB : VA : !
$
$ Prototype alpha-Mn (cI58, I-43m)
$
 PHASE CBCC_A12 %A 2 1 1 !
 CONST CBCC_A12 : MN% NB : VA : !
$
$ Prototype beta-Mn (cP20, P4_132)
$
 PHASE CUB_A13 % 2 1 1 !
 CONST CUB_A13 : MN% NB : VA : !
$
$ Prototype MgZn2 (hP12, P6_3/mmc)
$
 PHASE C14_LAVES % 2 2 1 !
 CONST C14_LAVES : MN% NB : MN NB% : !
$
$ Prototype Fe7W6 (hR13, R-3m)
$
$PHASE MU_D85 % 4 1 4 2 6 !
$CONST MU_D85 : MN% NB : NB : NB : MN% NB : !
$ ------------------------------------------------------------------------------
$ Defaults
$
 DEFINE-SYSTEM-DEFAULT ELEMENT 2 !
 DEFAULT-COM DEFINE_SYSTEM_ELEMENT VA !
 TYPE-DEF % SEQ * !
 TYPE-DEF A GES AMEND_PHASE_DESCRIPTION @ MAGNETIC -3 0.28 !
 TYPE-DEF B GES AMEND_PHASE_DESCRIPTION @ MAGNETIC -1 0.4 !
 FUNCTION ZERO      298.15  0;                                         6000 N !
 FUNCTION UN_ASS    298.15  0;                                         6000 N !
 FUNCTION R         298.15  +8.31451;                                  6000 N !
$ ------------------------------------------------------------------------------
$ Element data
$ ------------------------------------------------------------------------------
$ Mn
$
 PAR  G(CBCC_A12,MN:VA),,               +GHSERMN;                2000 N 91Din !
 PAR  TC(CBCC_A12,MN:VA),,               -285.00;                2000 N 91Din !
 PAR  BM(CBCC_A12,MN:VA),,                 -0.66;                2000 N 91Din !
 PAR  G(CUB_A13,MN:VA),,                +GCUBMN;                 2000 N 91Din !
 PAR  G(FCC_A1,MN:VA),,                 +GFCCMN;                 2000 N 91Din !
 PAR  TC(FCC_A1,MN:VA),,                -1620.00;                2000 N 91Din !
 PAR  BM(FCC_A1,MN:VA),,                   -1.86;                2000 N 91Din !
 PAR  G(BCC_A2,MN:VA),,                 +GBCCMN;                 2000 N 91Din !
 PAR  TC(BCC_A2,MN:VA),,                 -580.00;                2000 N 91Din !
 PAR  BM(BCC_A2,MN:VA),,                   -0.27;                2000 N 91Din !
 PAR  G(HCP_A3,MN:VA),,                 +GHCPMN;                 2000 N 91Din !
 PAR  TC(HCP_A3,MN:VA),,                -1620.00;                2000 N 91Din !
 PAR  BM(HCP_A3,MN:VA),,                   -1.86;                2000 N 91Din !
 PAR  G(LIQUID,MN),,                    +GLIQMN;                 2000 N 91Din !
$
 PAR  G(C14_LAVES,MN:MN),,              +3*GHSERMN+3000;,,            N COST !
$
 FUNCTION GHSERMN   298.15  -8115.28+130.059*T-23.4582*T*LN(T)
       -0.00734768*T**2+69827*T**(-1);
      1519.00  Y  -28733.41+312.2648*T-48*T*LN(T)+1.656847E+30*T**(-9);
      2000.00  N !
 FUNCTION GCUBMN    298.15  -5800.4+135.995*T-24.8785*T*LN(T)
       -0.00583359*T**2+70269*T**(-1);
      1519.00  Y  +442.65-0.9715*T+GHSERMN+2.310723E+30*T**(-9);
      2000.00  N !
 FUNCTION GFCCMN    298.15  -3439.3+131.884*T-24.5177*T*LN(T)
       -0.006*T**2+69600*T**(-1);
      1519.00  Y  +2663.31-2.5984*T+GHSERMN+2.205113E+30*T**(-9);
      2000.00  N !
 FUNCTION GBCCMN    298.15  -3235.3+127.85*T-23.7*T*LN(T)
       -0.00744271*T**2+60000*T**(-1);
      1519.00  Y  +5544.58-4.5605*T+GHSERMN-3.91695E+29*T**(-9);
      2000.00  N !
 FUNCTION GHCPMN    298.15  -4439.3+133.007*T-24.5177*T*LN(T)
       -0.006*T**2+69600*T**(-1);
      1519.00  Y  +1663.31-1.4754*T+GHSERMN+2.205113E+30*T**(-9);
      2000.00  N !
 FUNCTION GLIQMN    298.15  +17859.91-12.6208*T+GHSERMN-4.41929E-21*T**7;
      1519.00  Y  -9993.9+299.036*T-48*T*LN(T);
      2000.00  N !
$ ------------------------------------------------------------------------------
$ Nb
$
$ CBCC_A12 and CUB_A13 from 06Slu not included in unary
$
 PAR  G(BCC_A2,NB:VA),,                 +GHSERNB;,,                   N 91Din !
 PAR  G(FCC_A1,NB:VA),,                 +GHSERNB+13500+1.7*T;,,       N 91Din !
 PAR  G(HCP_A3,NB:VA),,                 +GHSERNB+10000+2.4*T;,,       N 91Din !
 PAR  G(CBCC_A12,NB:VA),,               +GHSERNB+17600;,,             N 06Slu !
 PAR  G(CUB_A13,NB:VA),,                +GHSERNB+22000;,,             N 06Slu !
 PAR  G(LIQUID,NB),,                    +GLIQNB;,,                    N 91Din !
$
 PAR  G(C14_LAVES,NB:NB),,              +3*GHSERNB+15000;,,           N REFLAV !
$PAR  G(MU_D85,NB:NB:NB:NB),,           +13*GHSERNB+227500;,,         N 12Liu !
$
 FUNCTION GHSERNB   298.15  -8519.353+142.045475*T-26.4711*T*LN(T)
       +2.03475E-04*T**2-3.5012E-07*T**3+93399*T**(-1);
      2750.00  Y  -37669.3+271.720843*T-41.77*T*LN(T)+1.528238E+32*T**(-9);
      6000.00  N !
 FUNCTION GLIQNB    298.15  +29781.555-10.816418*T+GHSERNB-3.06098E-23*T**7;
      2750.00  Y  -7499.398+260.756148*T-41.77*T*LN(T);
      6000.00  N !
$ ------------------------------------------------------------------------------
$ Binary system
$
$ S. Liu, B. Hallstedt, D. Music, Y. Du, Calphad, 38, 43-58(2012).
$
$ Checked against manuscript. Checked at 6000 K.
$
$ Standard treatment of C14_LAVES, MU_D85 not included
$
 PAR  L(LIQUID,MN,NB;0),,               -15322.786;,,                 N 12Liu !
 PAR  L(LIQUID,MN,NB;1),,               +12376.04;,,                  N 12Liu !
$
 PAR  L(FCC_A1,MN,NB:VA;0),,            +6305.5;,,                    N 12Liu !
$
 PAR  L(BCC_A2,MN,NB:VA;0),,            +16895.03;,,                  N 12Liu !
$
 PAR  L(CBCC_A12,MN,NB:VA;0),,          -10485.26;,,                  N 12Liu !
 PAR  L(CUB_A13,MN,NB:VA;0),,           -10485.26;,,                  N 12Liu !
$
 PAR  G(C14_LAVES,MN:NB),,              +2*GHSERMN+GHSERNB
             -33354.052;,,                                            N 12Liu !
 PAR  G(C14_LAVES,NB:MN),,              +2*GHSERNB+GHSERMN
             +51354.052;,,                                            N 12Liu !
 PAR  G(C14_LAVES,MN,NB:MN;0),,         +48832.7;,,                   N 12Liu !
 PAR  G(C14_LAVES,MN,NB:NB;0),,         +48832.7;,,                   N 12Liu !
 PAR  G(C14_LAVES,MN:MN,NB;0),,         +23322.74;,,                  N 12Liu !
 PAR  G(C14_LAVES,NB:MN,NB;0),,         +23322.74;,,                  N 12Liu !
$
$PAR  G(MU_D85,MN:NB:NB:MN),,           +7*GHSERMN+6*GHSERNB
$            -119340;,,                                               N 12Liu !
$PAR  G(MU_D85,MN:NB:NB:NB),,           +GHSERMN+12*GHSERNB
$            +181220;,,                                               N 12Liu !
$PAR  G(MU_D85,NB:NB:NB:MN),,           +6*GHSERMN+7*GHSERNB
$            -47450;,,                                                N 12Liu !
$
$ Metastable
$
 PAR  L(HCP_A3,MN,NB:VA;0),,            +6305.5;,,                    N Same !
$ ------------------------------------------------------------------------------
$
$
 LIST-OF-REFERENCE
 NUMBER  SOURCE
  Null   'Unknown source'
  Same   'Same or similar interaction as in the corresponding stable phase'
  REFLAV 'Laves phase convention: G(LAVES,X:X)=+3*GHSERXX+15000'
  COST   'COST 507 database'
  91Din  'A.T. Dinsdale, Calphad, 15, 317-425(1991).'
  06Slu  'M.H.F. Sluiter, Calphad, 30, 357-66(2006); Nb'
  12Liu  'S. Liu, B. Hallstedt, D. Music, Y. Du,
          Calphad, 38, 43-58(2012); Mn-Nb'
!
