$
$ Database for Th-U from O. Benes et al. 2014.
$
$ O. Benes, D. Manara, R.J.M. Konings, J. Nucl. Mater., 449, 15-22(2014).
$
$ Dataset created 2024.04.22 by Bengt Hallstedt.
$
$ Two different bcc phases have been defined in the paper; one for gamma-U
$ (and epsilon-Pu) and one for beta-Th. This will have to be corrected.
$
$ Invariant equilibria differ by up to 19 K.
$
$ ------------------------------------------------------------------------------
 TEMP-LIM 298.15 6000.00 !
$
$ELEMENT NAME  REF. STATE               ATOMIC MASS H298-H0    S298    !
$
 ELEMENT VA   VACUUM                      0.0          0.0      0.0    ! 
 ELEMENT TH   FCC_A1                    232.0381    6350.0     51.8    ! 
 ELEMENT U    ORTHORHOMBIC_A20          238.0289    6364.      50.20   ! 
$ ------------------------------------------------------------------------------
$ Phase definitions
$
 PHASE LIQUID:L % 1 1 !
 CONST LIQUID:L : TH U : !
$
$ Fcc (cF4, Fm-3m) and MeX (cF8, Fm-3m), delta-Pu and alpha-Th
$
 PHASE FCC_A1 %A 2 1 1 !
 CONST FCC_A1 : TH% U : VA : !
$
$ Bcc (cI2, Im-3m)
$
$PHASE BCC_A2 %B 2 1 3 !
$CONST BCC_A2 : TH% U% : VA : !
$
$ Bcc (cI2, Im-3m), gamma-U
$
 PHASE BCC_U %B 2 1 3 !
 CONST BCC_U : TH U% : VA : !
$
$ Bcc (cI2, Im-3m), beta-Th
$
 PHASE BCC_TH %B 2 1 3 !
 CONST BCC_TH : TH% U : VA : !
$
$ Prototype alpha-U (oC4, Cmcm)
$
 PHASE ORTHORHOMBIC_A20 % 1 1 !
 CONST ORTHORHOMBIC_A20 : U : !
$
$ Prototype beta-U (tP30, P4_2/mnm, SB: A_b)
$
 PHASE TETRAGONAL_U % 1 1 !
 CONST TETRAGONAL_U : U : !
$ ------------------------------------------------------------------------------
$ Defaults
$
 DEFINE-SYSTEM-DEFAULT ELEMENT 2 !
 DEFAULT-COM DEFINE_SYSTEM_ELEMENT VA !
 TYPE-DEF % SEQ * !
 TYPE-DEF A GES AMEND_PHASE_DESCRIPTION @ MAGNETIC -3 0.28 !
 TYPE-DEF B GES AMEND_PHASE_DESCRIPTION @ MAGNETIC -1 0.4 !
 FUNCTION ZERO      298.15  0;                                         6000 N !
 FUNCTION UN_ASS    298.15  0;                                         6000 N !
 FUNCTION R         298.15  +8.31451;                                  6000 N !
$ ------------------------------------------------------------------------------
$ Element data
$ ------------------------------------------------------------------------------
$ Th
$
$ FCC_A1, BCC_A2 and LIQUID modified in unary 4.4
$
$ TETRAGONAL_A6 from 14Ben not included in unary
$
$ Note! Incorrectly defined bcc!
$
 PAR  G(FCC_A1,TH:VA),,                 +GHSERTH;                4000 N 01SGUN !
$PAR  G(BCC_A2,TH:VA),,                 +GBCCTH;                 4000 N 01SGUN !
 PAR  G(BCC_TH,TH:VA),,                 +GBCCTH;                 4000 N 01SGUN !
 PAR  G(BCC_U,TH:VA),,                  +GBCCTH+3000;            4000 N 14Ben !
$PAR  G(TETRAGONAL_A6,TH),,             +GHSERTH+3053;           4000 N 14Ben !
 PAR  G(LIQUID,TH),,                    +GLIQTH;                 4000 N 01SGUN !
$
 FUNCTION GHSERTH   298.15  -7732.08+116.273975*T-24.841*T*LN(T)
       -0.00236725*T**2-5.2883E-07*T**3+13010*T**(-1);
      1633.00  Y  -37352.871+236.906118*T-39.107*T*LN(T)
       -0.00358025*T**2+2.36893E-07*T**3+7981000*T**(-1);
      2900.00  Y  -33353.313+283.231045*T-46.024*T*LN(T);
      4000.00  N !
 FUNCTION GBCCTH    298.15  -2321.06+133.531195*T-28.244*T*LN(T)
       +4.3775E-04*T**2-5.3048E-07*T**3+91190*T**(-1);
      1633.00  Y  -115978.348+800.909049*T-116.453*T*LN(T)
       +0.03098*T**2-2.536883E-06*T**3+27512600*T**(-1);
      2023.00  Y  -33602.796+208.774709*T-35.813*T*LN(T)
       -0.00346655*T**2+1.66067E-07*T**3+11876950*T**(-1);
      3600.00  Y  -980.302-0.049551*T+GHSERTH;
      4000.00  N !
 FUNCTION GLIQTH    298.15  +5031.109+110.886346*T-24.987*T*LN(T)
       -0.00168345*T**2-9.09067E-07*T**3+10865*T**(-1);
      1499.80  Y  -15602.847+127.657716*T-24.03*T*LN(T)
       -0.0136421*T**2+1.210117E-06*T**3+7111100*T**(-1);
      2014.50  Y  -17273.382+275.001274*T-46.024*T*LN(T);
      4000.00  N !
$ ------------------------------------------------------------------------------
$ U
$
$ FCC_A1 and HCP_A3 added in unary 4.1
$
$ FCC_A1, BETA_PU, GAMMA_PU and TETRAGONAL_A6 from 99Kur not included in unary
$ HCP_A3 from 04Che not in unary
$ FCC_A1, HCP_A3, ALPHA_PU, BETA_PU, GAMMA_PU and TETRAGONAL_A6 from 10Kur1
$ not included in unary
$
$ Note! Incorrectly defined bcc!
$
 PAR  G(ORTHORHOMBIC_A20,U),,           +GHSERUU;                3000 N 91Din !
 PAR  G(TETRAGONAL_U,U),,               +GTETUU;                 3000 N 91Din !
$PAR  G(BCC_A2,U:VA),,                  +GBCCUU;                 3000 N 91Din !
 PAR  G(BCC_U,U:VA),,                   +GBCCUU;                 3000 N 91Din !
 PAR  G(BCC_TH,U:VA),,                  +GBCCUU+15000;           3000 N 14Ben !
$PAR  G(FCC_A1,U:VA),,                  +GHSERUU+2000;           3000 N 99Kur !
 PAR  G(FCC_A1,U:VA),,                  +GHSERUU+5000;           3000 N 99SGUN !
$PAR  G(FCC_A1,U:VA),,                  +GBCCUU+5000;            3000 N 10Kur1 !
$PAR  G(HCP_A3,U:VA),,                  +GBCCUU+5000-0.008*T;    3000 N 99SGUN !
$PAR  G(HCP_A3,U:VA),,                  +GBCCUU+5000;            3000 N 10Kur1 !
$PAR  G(HCP_A3,U:VA),,                  +GHSERUU+50000;          3000 N 04Che3 !
$PAR  G(ALPHA_PU,U),,                   +GHSERUU+5000;           3000 N 10Kur1 !
$PAR  G(BETA_PU,U),,                    +GHSERUU+2000;           3000 N 99Kur !
$PAR  G(BETA_PU,U),,                    +GHSERUU+5000;           3000 N 10Kur1 !
$PAR  G(GAMMA_PU,U),,                   +GHSERUU+2000;           3000 N 99Kur !
$PAR  G(GAMMA_PU,U),,                   +GHSERUU+5000;           3000 N 10Kur1 !
$PAR  G(TETRAGONAL_A6,U),,              +GHSERUU+2000;           3000 N 99Kur !
$PAR  G(TETRAGONAL_A6,U),,              +GBCCUU+5000;            3000 N 10Kur1 !
 PAR  G(LIQUID,U),,                     +GHSERUU
             +12355.5-10.3239*T;                                 3000 N 91Din !
$
 FUNCTION GHSERUU   298.15  -8407.734+130.955151*T-26.9182*T*LN(T)
       +0.00125156*T**2-4.42605E-06*T**3+38568*T**(-1);
       955.00  Y  -22521.8+292.121093*T-48.66*T*LN(T);
      3000.00  N !
 FUNCTION GTETUU    298.15  -5156.136+106.976316*T-22.841*T*LN(T)
       -0.01084475*T**2+2.7889E-08*T**3+81944*T**(-1);
       941.50  Y  -14327.309+244.16802*T-42.9278*T*LN(T);
      3000.00  N !
 FUNCTION GBCCUU    298.15  -752.767+131.5381*T-27.5152*T*LN(T)
       -0.00835595*T**2+9.67907E-07*T**3+204611*T**(-1);
      1049.00  Y  -4698.365+202.685635*T-38.2836*T*LN(T);
      3000.00  N !
$ ------------------------------------------------------------------------------
$ Binary system
$
$ O. Benes, D. Manara, R.J.M. Konings, J. Nucl. Mater., 449, 15-22(2014).
$
$ Checked against paper. Checked at 6000 K.
$
$ Two different bcc phases have been defined in the paper; one for gamma-U
$ (and epsilon-Pu) and one for beta-Th. This will have to be corrected.
$
$ Invariant equilibria differ by up to 19 K.
$
 PAR  L(LIQUID,TH,U;0),,                +29500;,,                     N 14Ben !
 PAR  L(LIQUID,TH,U;1),,                -6175;,,                      N 14Ben !
 PAR  L(LIQUID,TH,U;2),,                +7500;,,                      N 14Ben !
$
 PAR  L(FCC_A1,TH,U:VA;0),,             +30000;,,                     N 14Ben !
 PAR  L(BCC_U,TH,U:VA;0),,              +62900;,,                     N 14Ben !
 PAR  L(BCC_TH,TH,U:VA;0),,             +18500;,,                     N 14Ben !
$ ------------------------------------------------------------------------------
$
$
 LIST-OF-REFERENCE
 NUMBER  SOURCE
  Null   'Unknown source'
  Same   'Same or similar interaction as in the corresponding stable phase'
  COST   'COST 507 database'
  91Din  'A.T. Dinsdale, Calphad, 15, 317-425(1991).'
  99Kur  'M. Kurata, Calphad, 23, 305-37(1999); Pu, U'
  99SGUN 'SGTE unary database V.4.1, 1999.'
  01SGUN 'SGTE unary database V.4.4, 2001.'
  04Che3 'P.-Y. Chevalier, E. Fischer, B. Cheynet,
          Calphad, 28, 15-40(2004); U, Zr'
  10Kur1 'M. Kurata, IOP Conf. Ser.: Mater. Sci. Eng., 9, 012022(2010);
          Pu, U'
  14Ben  'O. Benes, D. Manara, R.J.M. Konings,
          J. Nucl. Mater., 449, 15-22(2014); Th, Th-U'
!
