$
$ Database for Gd-O from R. Nakazawa et al. 2023.
$
$ R. Nakazawa, A. Itoh, S. Yasui, M. Kurata, Y. Kobayashi,
$ Calphad, 83, 102636(2023).
$
$ Dataset created 2024.02.08 by Bengt Hallstedt.
$
$ Modified from 07Zin/14McM using own data on the Gd2O3 liquidus.
$
$ ------------------------------------------------------------------------------
 TEMP-LIM 298.15 6000.00 !
$
$ELEMENT NAME  REF. STATE               ATOMIC MASS H298-H0    S298    !
$
 ELEMENT /-   ELECTRON_GAS                0.0          0.0      0.0    ! 
 ELEMENT VA   VACUUM                      0.0          0.0      0.0    ! 
 ELEMENT GD   HCP_A3                    157.25      9087.648   68.0894 ! 
 ELEMENT O    1/2_MOLE_O2(G)             15.999     4341.0    102.52   ! 
$ ------------------------------------------------------------------------------
$ Species
$
 SPECIE  GD+3                               GD/+3 !
 SPECIE  GDO                                GD1O1 !
 SPECIE  O-2                                O/-2 !
 SPECIE  O2                                 O2 !
 SPECIE  O3                                 O3 !
$ ------------------------------------------------------------------------------
$ Phase definitions
$
 PHASE ION:Y % 2 1 1 !
 CONST ION:Y : GD+3 : O-2 VA : !
$
$ Fcc (cF4, Fm-3m) and MeX (cF8, Fm-3m)
$
 PHASE FCC_A1 %A 2 1 1 !
 CONST FCC_A1 : GD : VA : !
$
$ Bcc (cI2, Im-3m)
$
 PHASE BCC_A2 %B 2 1 3 !
 CONST BCC_A2 : GD : VA : !
$
$ Hcp (hP2, P6_3/mmc) and Me2X (NiAs-type, hP4, P6_3/mmc, B8_1)
$
 PHASE HCP_A3 %A 2 1 0.5 !
 CONST HCP_A3 : GD : VA : !
$
$ Prototype A-La2O3 (hP5, P-3m1)
$
 PHASE A_R2O3_D52:I % 2 2 3 !
 CONST A_R2O3_D52:I : GD+3 : O-2 : !
$
$ Prototype B-Sm2O3 (mC30, C2/m)
$
 PHASE B_R2O3:I % 2 2 3 !
 CONST B_R2O3:I : GD+3 : O-2 : !
$
$ Prototype Mn2O3 (cI80, Ia-3)
$
 PHASE C_R2O3_D53:I % 2 2 3 !
 CONST C_R2O3_D53:I : GD+3 : O-2 : !
$
$ Prototype H-La2O3 (hP10, P6_3/mmc)
$
 PHASE H_R2O3:I % 2 2 3 !
 CONST H_R2O3:I : GD+3 : O-2 : !
$
$ Prototype Nd2O3 (cI26, Im-3m)
$
 PHASE X_R2O3:I % 2 2 3 !
 CONST X_R2O3:I : GD+3 : O-2 : !
$
 PHASE GAS:G % 1 1 !
 CONST GAS:G : GD GDO O O2% O3 : !
$
 PHASE O2GAS % 1 1 !
 CONST O2GAS : O2 : !
$ ------------------------------------------------------------------------------
$ Defaults
$
 DEFINE-SYSTEM-DEFAULT ELEMENT 2 !
 DEFAULT-COM DEFINE_SYSTEM_ELEMENT VA /- !
 DEFAULT-COM REJECT_PHASE O2GAS !
 TYPE-DEF % SEQ * !
 TYPE-DEF A GES AMEND_PHASE_DESCRIPTION @ MAGNETIC -3 0.28 !
 TYPE-DEF B GES AMEND_PHASE_DESCRIPTION @ MAGNETIC -1 0.4 !
 FUNCTION ZERO      298.15  0;                                         6000 N !
 FUNCTION UN_ASS    298.15  0;                                         6000 N !
 FUNCTION R         298.15  +8.31451;                                  6000 N !
 FUNCTION RTLNP     298.15  +8.31451*T*LN(1E-05*P);                    6000 N !
$ ------------------------------------------------------------------------------
$ Element data
$ ------------------------------------------------------------------------------
$ Gd
$
$ HCP_A3, BCC_A2 and LIQUID revised in unary 3.0
$ Small correction made to top two temperature ranges of bcc_A2 to ensure 
$ continuity in Gibbs energy, AD, Dec 2002
$ FCC_A1 added in unary 4.4
$
$ FCC_A1 from 03Cac not included in unary
$
 PAR  G(HCP_A3,GD:VA)           200.00  +GHSERGD;                3600 N 95She2 !
 PAR  TC(HCP_A3,GD:VA)          200.00    293.4;                 3600 N 95She2 !
 PAR  BM(HCP_A3,GD:VA)          200.00      3.0;                 3600 N 95She2 !
$PAR  TC(HCP_A3,GD:VA)          200.00    291.8;                 3600 N 91Din !
$PAR  BMAGN(HCP_A3,GD:VA)       200.00      3.0;                 3600 N 91Din !
 PAR  G(FCC_A1,GD:VA)           200.00  +GHSERGD+500;            3600 N 00Zin !
$PAR  G(FCC_A1,GD:VA)           200.00  +GHSERGD
$            +1800-0.831451*T;                                   3600 N 03Cac !
 PAR  G(BCC_A2,GD:VA)           200.00  +GBCCGD;                 3600 N 95She2 !
$PAR  G(LIQUID,GD)              200.00  +GLIQGD;                 3600 N 95She2 !
$
 PAR  G(ION,GD+3:VA),,                  +GLIQGD;                 3600 N 95She2 !
$
 PAR  G(GAS,GD),,                       +F9730T+RTLNP;,,              N 94SUB !
$
 FUNCTION GHSERGD   200.00  -6834.5855+97.13101*T-24.7214131*T*LN(T)
       -0.00285240521*T**2-3.14674076E-07*T**3-8665.73348*T**(-1);
      1000.00  Y  -6483.25362+95.6919924*T-24.6598297*T*LN(T)
       -0.00185225011*T**2-6.61211607E-07*T**3;
      1508.15  Y  -123124.992+699.125537*T-101.800197*T*LN(T)
       +0.0150644246*T**2-6.39165948E-07*T**3+29356890.3*T**(-1);
      3600.00  N !
 FUNCTION GBCCGD    200.00  +3233.80866-2.11184585*T+GHSERGD;
      1000.00  Y  +152792.743-1349.58873*T+180.097094*T*LN(T)
       -0.119550229*T**2+1.17915728E-05*T**3-22038836*T**(-1);
      1508.15  Y  -15783.7618+202.222183*T-38.960425*T*LN(T);
      1586.15  Y  -19850.5562+224.818035*T-41.904333*T*LN(T)
       +8.58222759E-04*T**2-3.77570269E-08*T**3+995428.573*T**(-1);
      3600.00  N !
 FUNCTION GLIQGD    200.00  +13060.0262-8.32179974*T+GHSERGD;
      1000.00  Y  +146262.037-1208.70685*T+159.352082*T*LN(T)
       -0.108247135*T**2+1.06945505E-05*T**3-19678357*T**(-1);
      1508.15  Y  -5397.314+192.336215*T-38.5075*T*LN(T);
      3600.00  N !
$ Gd(g)
 FUNCTION F9730T    298.15  +389263.308+12.0310123*T-31.09667*T*LN(T)
       +0.0043744995*T**2-3.89921333E-07*T**3+51343.7*T**(-1);
       900.00  Y  +394013.061-20.8136257*T-26.77322*T*LN(T)
       +0.0035990595*T**2-5.867165E-07*T**3-746813*T**(-1);
      2000.00  Y  +446189.988-312.145001*T+11.50177*T*LN(T)
       -0.00917368*T**2+2.31208667E-07*T**3-14377915*T**(-1);
      4300.00  Y  +314516.395-4.49008146*T-24.02177*T*LN(T)
       -0.00529332*T**2+1.6610595E-07*T**3+72305750*T**(-1);
      6600.00  Y  -157617.484+985.460517*T-137.2938*T*LN(T)
       +0.00680942*T**2-7.67351667E-08*T**3+4.422428E+08*T**(-1);
     10000.00  N !
$ ------------------------------------------------------------------------------
$ O
$
$ GHSEROO modified in unary 3.0
$
 PAR  G(O2GAS,O2),,                     +2*GHSEROO+RTLNP;,,           N 91Din !
$
 PAR  G(GAS,O),,                        +F7397T+RTLNP;,,              N 92SUB !
 PAR  G(GAS,O2),,                       +2*GHSEROO+RTLNP;,,           N 91Din !
 PAR  G(GAS,O3),,                       +F7683T+RTLNP;,,              N 92SUB !
$
$ 1/2 O2(g)
 FUNCTION GHSEROO   298.15  -3480.87-25.503038*T-11.1355*T*LN(T)
       -0.005098875*T**2+6.61845833E-07*T**3-38365*T**(-1);
      1000.00  Y  -6568.763+12.659879*T-16.8138*T*LN(T)
       -5.957975E-04*T**2+6.781E-09*T**3+262905*T**(-1);
      3300.00  Y  -13986.728+31.259624*T-18.9536*T*LN(T)
       -4.25243E-04*T**2+1.0721E-08*T**3+4383200*T**(-1);
      6000.00  N !
$ O(g)
 FUNCTION F7397T    298.15  +243206.529-42897.0876*T**(-1)-20.7513421*T
       -21.0155542*T*LN(T)+1.26870532E-04*T**2-1.23131285E-08*T**3;
      2950.00  Y  +252301.473-3973170.33*T**(-1)-51.974853*T
       -17.2118798*T*LN(T)-5.41356254E-04*T**2+7.64520703E-09*T**3;
      6000.00  N !
$ O3(g)
 FUNCTION F7683T    298.15  +133772.042-11328.9959*T**(-1)-84.8602165*T
       -19.8314069*T*LN(T)-0.0392015696*T**2+7.90727187E-06*T**3;  
       600.00  Y  +120765.524+997137.156*T**(-1)+120.113376*T
       -51.8410152*T*LN(T)-0.00353983136*T**2+3.20640143E-07*T**3;
      1500.00  Y  +115412.196+1878139.02*T**(-1)+164.679664*T
       -58.069736*T*LN(T)-2.84399032E-04*T**2+5.95650279E-10*T**3;
      6000.00  N !
$ ------------------------------------------------------------------------------
$ Binary system
$
$ R. Nakazawa, A. Itoh, S. Yasui, M. Kurata, Y. Kobayashi,
$ Calphad, 83, 102636(2023).
$
$ Checked against paper and author's tdb. Checked at 6000 K.
$
$ Modified from 07Zin/14McM using own data on the Gd2O3 liquidus.
$
 PAR  G(ION,GD+3:O-2),,                 +GGD2O3LQ;,,                  N 07Zin !
 PAR  L(ION,GD+3:O-2,VA;0),,            +46438;,,                     N 23Nak !
 PAR  L(ION,GD+3:O-2,VA;1),,            -29606;,,                     N 23Nak !
$
 PAR  G(C_R2O3_D53,GD+3:O-2),,          +GGD2O3C;,,                   N 07Zin !
 PAR  G(B_R2O3,GD+3:O-2),,              +GGD2O3B;,,                   N 07Zin !
 PAR  G(A_R2O3_D52,GD+3:O-2),,          +GGD2O3A;,,                   N 07Zin !
 PAR  G(H_R2O3,GD+3:O-2),,              +GGD2O3H;,,                   N 07Zin !
 PAR  G(X_R2O3,GD+3:O-2),,              +GGD2O3X;,,                   N 07Zin !
$
 PAR  G(GAS,GDO),,                      +F9749T+RTLNP;,,              N 94SUB !
$
 FUNCTION GGD2O3C   298.15  -1868812+660.0623*T-119.1688*T*LN(T)
       -0.006438*T**2+772000*T**(-1);
      6000.00  N !
 FUNCTION GGD2O3B   298.15  -1858111+620.0992*T-114.534*T*LN(T)
       -0.007203*T**2+540000*T**(-1);
      6000.00  N !
 FUNCTION GGD2O3A   298.15  +GGD2O3B+6300-2.579*T;                     6000 N !
 FUNCTION GGD2O3H   298.15  +GGD2O3B+41000-16.565*T;                   6000 N !
 FUNCTION GGD2O3X   298.15  +GGD2O3B+53031-21.134*T;                   6000 N !
 FUNCTION GGD2O3LQ  298.15  +GGD2O3B+124733-47.759*T;                  6000 N !
$ GdO(g)
 FUNCTION F9749T    298.15  -79547.3838-76.3472253*T-25.3179*T*LN(T)
       -0.013296715*T**2+2.05700833E-06*T**3+18171.875*T**(-1);
       900.00  Y  -92370.8134+73.5316137*T-47.46628*T*LN(T)
       +0.0036947135*T**2-3.855385E-07*T**3+1409442*T**(-1);
      2600.00  Y  -45510.4029-178.972915*T-14.59652*T*LN(T)
       -0.006293445*T**2+1.72757333E-07*T**3-10672460*T**(-1);
      5500.00  Y  -248091.81+347.006*T-76.49165*T*LN(T)
       +0.002123087*T**2-4.17754167E-08*T**3+1.1410195E+08*T**(-1);
      6000.00  N !
$ ------------------------------------------------------------------------------
$
$
 LIST-OF-REFERENCE
 NUMBER  SOURCE
  Null   'Unknown source'
  COST   'COST 507 database'
  91Din  'A.T. Dinsdale, Calphad, 15, 317-425(1991).'
  92SUB  'SGTE Substance Database, version 1992'
  94SUB  'SGTE Substance Database, version 1994'
  95She2 'H. Shen, W. Zhang, G. Liu, R. Wang, Z. Du, Report F-95-02,
          University of Science and Technology, Beijing, May 1995,
          SGTE unary database V.3.0, 1996; Gd'
  00Zin  'M. Zinkevich, N. Mattern, H. J Seifert,
          J. Phase Equilib., 21, 385-94(2000),
          SGTE unary database V.4.4, 2001; Gd'
  03Cac  'G. Cacciamani, S. De Negri, A. Saccone, R. Ferro,
          Intermetallics, 11, 1135-51(2003); Gd'
  07Zin  'M. Zinkevich, Prog. Mater. Sci., 52, 597-647(2007); Gd-O'
  14McM  'J.W. McMurray, D. Shin, B.W. Slone, T.M. Besmann,
          J. Nucl. Mater., 452, 397-406(2014); Gd-O'
  23Nak  'R. Nakazawa, A. Itoh, S. Yasui, M. Kurata, Y. Kobayashi,
          Calphad, 83, 102636(2023); Gd-O'
!
