$
$ Database for Al-Ti from I. Ohnuma et al. 2000.
$
$ I. Ohnuma, Y. Fujita, H. Mitsui, K. Ishikawa, R. Kainuma, K. Ishida,
$ Acta Mater., 48, 3113-23(2000).
$
$ Dataset created 2019.08.01 by Bengt Hallstedt.
$ 2020.12.22: Modified for use with GES6.
$
$ This dataset contains 4-sublattice models for fcc and hcp. Option F is used
$ for fcc. It cannot be used for hcp due its interaction parameters.
$
$ The temperature dependencies are very large, even larger than 98Sau or 08Wit.
$ This does not seem realistic.
$
$ The AlTi-L1_0 phase field is not quite reproduced. There is an L1_2 region
$ on the Al-rich side of AlTi at high temperature. This was obviously missed
$ in the original calculation by 00Ohn.
$
$ There is an inverse miscibility gap with a minimum at 2536 K and x(Ti)=0.24.
$ This is much lower than 98Sau.
$
$ There is considerable confusion about the phases between Al3Ti and AlTi.
$
$ ------------------------------------------------------------------------------
 TEMP-LIM 298.15 6000.00 !
$
$ELEMENT NAME  REF. STATE               ATOMIC MASS H298-H0    S298    !
$
 ELEMENT VA   VACUUM                      0.0          0.0      0.0    ! 
 ELEMENT AL   FCC_A1                     26.98154   4540.      28.30   ! 
 ELEMENT TI   HCP_A3                     47.88      4824.      30.72   ! 
$ ------------------------------------------------------------------------------
$ Phase definitions
$
 PHASE LIQUID:L % 1 1 !
 CONST LIQUID:L : AL TI : !
$
$ Fcc (cF4, Fm-3m) and MeX (cF8, Fm-3m)
$
 PHASE FCC_A1 %A 2 1 1 !
 CONST FCC_A1 : AL% TI : VA : !
$
$ Disordered part of FCC_4SL, identical to FCC_A1
$
 PHASE A1_FCC %A 2 1 1 !
 CONST A1_FCC : AL% TI : VA : !
$
$ Prototype AuCu (L1_0, tP2, P4/mmm) and AuCu3 (L1_2, cP4, Pm-3m)
$
 PHASE FCC_4SL:F %AY 5 0.25 0.25 0.25 0.25 1 !
 CONST FCC_4SL:F : AL% TI : AL% TI : AL TI% : AL TI% : VA :  !
$
$ Bcc (cI2, Im-3m)
$
 PHASE BCC_A2 %B 2 1 3 !
 CONST BCC_A2 : AL TI% : VA : !
$
$ Disordered part of B2_BCC, identical to BCC_A2
$
 PHASE A2_BCC %B 2 1 3 !
 CONST A2_BCC : AL TI% : VA : !
$
$ Prototype CsCl (cP2, Pm-3m)
$
 PHASE B2_BCC %BO 3 0.5 0.5 3 !
 CONST B2_BCC : AL% TI : AL TI% : VA : !
$
$ Hcp (hP2, P6_3/mmc) and Me2X (NiAs-type, hP4, P6_3/mmc, B8_1)
$
 PHASE HCP_A3 %A 2 1 0.5 !
 CONST HCP_A3 : AL TI% : VA : !
$
$ Disordered part of HCP_4SL, identical to HCP_A3
$
 PHASE A3_HCP %A 2 1 0.5 !
 CONST A3_HCP : AL TI% : VA : !
$
$ Prototype AuCd (B19, oP4, Pmma) and CdMg3 (D0_19, hP8, P6_3/mmc)
$
 PHASE HCP_4SL %AZ 5 0.25 0.25 0.25 0.25 0.5 !
 CONST HCP_4SL : AL% TI : AL TI% : AL TI% : AL TI% : VA : !
$
$ Prototype Al3Ti (tI8, I4/mmm)
$
 PHASE AL3TI_D022 % 2 3 1 !
 CONST AL3TI_D022 : AL : TI : !
$
$ Prototype Al5Ti2 (tP28, P4/mmm), zeta
$
 PHASE AL5TI2 % 2 5 2 !
 CONST AL5TI2 : AL : TI : !
$
$ Prototype Ga2Hf (tI24, I4_1/amd), eta
$
 PHASE AL2TI % 2 2 1 !
 CONST AL2TI : AL : TI : !
$ ------------------------------------------------------------------------------
$ Defaults
$
 DEFINE-SYSTEM-DEFAULT ELEMENT 2 !
 DEFAULT-COM DEFINE_SYSTEM_ELEMENT VA !
 DEFAULT-COM REJECT_PHASE BCC_A2 FCC_A1 HCP_A3 !
 TYPE-DEF % SEQ * !
 TYPE-DEF A GES AMEND_PHASE_DESCRIPTION @ MAGNETIC -3 0.28 !
 TYPE-DEF B GES AMEND_PHASE_DESCRIPTION @ MAGNETIC -1 0.4 !
 TYPE-DEF O GES AMEND_PHASE_DESCRIPTION B2_BCC DIS_PART A2_BCC !
 TYPE-DEF Y GES AMEND_PHASE_DESCRIPTION FCC_4SL DIS_PART A1_FCC !
 TYPE-DEF Z GES AMEND_PHASE_DESCRIPTION HCP_4SL DIS_PART A3_HCP !
 FUNCTION ZERO      298.15  0;                                         6000 N !
 FUNCTION UN_ASS    298.15  0;                                         6000 N !
 FUNCTION R         298.15  +8.31451;                                  6000 N !
$ ------------------------------------------------------------------------------
$ Element data
$ ------------------------------------------------------------------------------
$ Al
$
$ BCT_A5 and DIAMOND_A4 added in unary 3.0
$
 PAR  G(FCC_A1,AL:VA),,                 +GHSERAL;                2900 N 91Din !
 PAR  G(A1_FCC,AL:VA),,                 +GHSERAL;                2900 N 91Din !
 PAR  G(BCC_A2,AL:VA),,                 +GHSERAL+10083-4.813*T;  2900 N 91Din !
 PAR  G(A2_BCC,AL:VA),,                 +GHSERAL+10083-4.813*T;  2900 N 91Din !
 PAR  G(HCP_A3,AL:VA),,                 +GHSERAL+5481-1.8*T;     2900 N 91Din !
 PAR  G(A3_HCP,AL:VA),,                 +GHSERAL+5481-1.8*T;     2900 N 91Din !
$PAR  G(CBCC_A12,AL:VA),,               +GHSERAL
$            +10083.4-4.813*T;                                   2900 N 91Din !
$PAR  G(CUB_A13,AL:VA),,                +GHSERAL
$            +10920.44-4.8116*T;                                 2900 N 91Din !
$PAR  G(BCT_A5,AL),,                    +GHSERAL+10083-4.813*T;  2900 N SGCOST !
$PAR  G(DIAMOND_A4,AL),,                +GHSERAL+30*T;           2900 N SGCOST !
 PAR  G(LIQUID,AL),,                    +GLIQAL;                 2900 N 91Din !
$
 FUNCTION GHSERAL   298.15  -7976.15+137.093038*T-24.3671976*T*LN(T)
       -0.001884662*T**2-8.77664E-07*T**3+74092*T**(-1);
       700.00  Y  -11276.24+223.048446*T-38.5844296*T*LN(T)
       +0.018531982*T**2 -5.764227E-06*T**3+74092*T**(-1);
       933.47  Y  -11278.361+188.684136*T-31.748192*T*LN(T)
       -1.230622E+28*T**(-9);
      2900.00  N !
 FUNCTION GLIQAL    298.15  +11005.045-11.84185*T+GHSERAL+7.9337E-20*T**7;
       933.47  Y  -795.991+177.430209*T-31.748192*T*LN(T);
      2900.00  N !
 FUNCTION GBCCAL    298.15  +GHSERAL+10083-4.813*T;                    2900 N !
 FUNCTION GHCPAL    298.15  +GHSERAL+5481-1.8*T;                       2900 N !
$ ------------------------------------------------------------------------------
$ Ti
$
$ BCT_A5 added in unary 3.0
$
 PAR  G(HCP_A3,TI:VA),,                 +GHSERTI;                4000 N 91Din !
 PAR  G(A3_HCP,TI:VA),,                 +GHSERTI;                4000 N 91Din !
 PAR  G(BCC_A2,TI:VA),,                 +GBCCTI;                 4000 N 91Din !
 PAR  G(A2_BCC,TI:VA),,                 +GBCCTI;                 4000 N 91Din !
 PAR  G(FCC_A1,TI:VA),,                 +GHSERTI+6000-0.1*T;     4000 N 91Din !
 PAR  G(A1_FCC,TI:VA),,                 +GHSERTI+6000-0.1*T;     4000 N 91Din !
$PAR  G(CBCC_A12,TI:VA),,               +GHSERTI+4602.2;         4000 N 91Din !
$PAR  G(CUB_A13,TI:VA),,                +GHSERTI+7531.2;         4000 N 91Din !
$PAR  G(DIAMOND_A4,TI),,                +GHSERTI+25000;          4000 N 91Din !
$PAR  G(BCT_A5,TI),,                    +GHSERTI+4602.2;         3000 N SGCOST !
 PAR  G(LIQUID,TI),,                    +GLIQTI;                 4000 N 91Din !
$
 FUNCTION GHSERTI   298.15  -8059.921+133.615208*T-23.9933*T*LN(T)
       -0.004777975*T**2+1.06716E-07*T**3+72636*T**(-1);
       900.00  Y  -7811.815+132.988068*T-23.9887*T*LN(T)
       -0.0042033*T**2-9.0876E-08*T**3+42680*T**(-1);
      1155.00  Y  +908.837+66.976538*T-14.9466*T*LN(T)
       -0.0081465*T**2+2.02715E-07*T**3-1477660*T**(-1);
      1941.00  Y  -124526.786+638.806871*T-87.2182461*T*LN(T)
       +0.008204849*T**2-3.04747E-07*T**3+36699805*T**(-1);
      4000.00  N !
 FUNCTION GBCCTI    298.15  -1272.064+134.71418*T-25.5768*T*LN(T)
       -6.63845E-04*T**2-2.78803E-07*T**3+7208*T**(-1);
      1155.00  Y  +6667.385+105.366379*T-22.3771*T*LN(T)
       +0.00121707*T**2-8.4534E-07*T**3-2002750*T**(-1);
      1941.00  Y  +26483.26-182.426471*T+19.0900905*T*LN(T)
       -0.02200832*T**2+1.228863E-06*T**3+1400501*T**(-1);
      4000.00  N !
 FUNCTION GLIQTI    298.15  +12194.415-6.980938*T+GHSERTI;
      1300.00  Y  +369519.198-2554.0225*T+342.059267*T*LN(T)
       -0.163409355*T**2+1.2457117E-05*T**3-67034516*T**(-1);
      1941.00  Y  -19887.066+298.7367*T-46.29*T*LN(T);
      4000.00  N !
 FUNCTION GFCCTI    298.15  +GHSERTI+6000-0.1*T;                       4000 N !
$ ------------------------------------------------------------------------------
$ Binary system
$
$ I. Ohnuma, Y. Fujita, H. Mitsui, K. Ishikawa, R. Kainuma, K. Ishida,
$ Acta Mater., 48, 3113-23(2000).
$
$ Checked against paper. Checked at 6000 K.
$
$ This dataset contains 4-sublattice models for fcc and hcp using option F.
$
$ The temperature dependencies are very large, even larger than 98Sau or 08Wit.
$ This does not seem realistic.
$
$ The AlTi-L1_0 phase field is not quite reproduced. There is an L1_2 region
$ on the Al-rich side of AlTi at high temperature. This was obviously missed
$ in the original calculation by 00Ohn.
$
$ There is an inverse miscibility gap with a minimum at 2536 K and x(Ti)=0.24.
$ This is much lower than 98Sau.
$
$ There is considerable confusion about the phases between Al3Ti and AlTi.
$
 PAR  L(LIQUID,AL,TI;0),,               -115504.9+50.5799*T;,,        N 00Ohn !
 PAR  L(LIQUID,AL,TI;1),,               -22686.3+20.3229*T;,,         N 00Ohn !
$
 PAR  L(FCC_A1,AL,TI:VA;0),,            -154429+55.5545*T;,,          N 00Ohn !
 PAR  L(FCC_A1,AL,TI:VA;1),,            -83147.4+52.4916*T;,,         N 00Ohn !
 PAR  L(FCC_A1,AL,TI:VA;2),,            +129979.1-83.9227*T;,,        N 00Ohn !
$
 PAR  L(A1_FCC,AL,TI:VA;0),,            -154429+55.5545*T;,,          N 00Ohn !
 PAR  L(A1_FCC,AL,TI:VA;1),,            -83147.4+52.4916*T;,,         N 00Ohn !
 PAR  L(A1_FCC,AL,TI:VA;2),,            +129979.1-83.9227*T;,,        N 00Ohn !
$
 PAR  G(FCC_4SL,AL:AL:AL:TI:VA),,       -5890.42;,,                   N 00Ohn !
 PAR  G(FCC_4SL,AL:AL:TI:TI:VA),,       -7853.89;,,                   N 00Ohn !
 PAR  G(FCC_4SL,AL:TI:TI:TI:VA),,       -5890.42;,,                   N 00Ohn !
 PAR  L(FCC_4SL,AL,TI:*:*:*:VA;0),,     +5890.42;,,                   N 00Ohn !
$
 PAR  L(BCC_A2,AL,TI:VA;0),,            -155658.2+62.5396*T;,,        N 00Ohn !
 PAR  L(BCC_A2,AL,TI:VA;1),,            -60128+36.8383*T;,,           N 00Ohn !
$
 PAR  L(A2_BCC,AL,TI:VA;0),,            -155658.2+62.5396*T;,,        N 00Ohn !
 PAR  L(A2_BCC,AL,TI:VA;1),,            -60128+36.8383*T;,,           N 00Ohn !
$
 PAR  G(B2_BCC,AL:TI:VA),,              -6723.17;,,                   N 00Ohn !
 PAR  G(B2_BCC,TI:AL:VA),,              -6723.17;,,                   N 00Ohn !
 PAR  L(B2_BCC,AL,TI:AL:VA;0),,         +8376.6;,,                    N 00Ohn !
 PAR  L(B2_BCC,AL:AL,TI:VA;0),,         +8376.6;,,                    N 00Ohn !
 PAR  L(B2_BCC,AL,TI:AL:VA;1),,         -1653.58;,,                   N 00Ohn !
 PAR  L(B2_BCC,AL:AL,TI:VA;1),,         -1653.58;,,                   N 00Ohn !
 PAR  L(B2_BCC,AL,TI:TI:VA;0),,         +5069.59;,,                   N 00Ohn !
 PAR  L(B2_BCC,TI:AL,TI:VA;0),,         +5069.59;,,                   N 00Ohn !
 PAR  L(B2_BCC,AL,TI:TI:VA;1),,         -1653.58;,,                   N 00Ohn !
 PAR  L(B2_BCC,TI:AL,TI:VA;1),,         -1653.58;,,                   N 00Ohn !
$
 PAR  L(HCP_A3,AL,TI:VA;0),,            -150464+56.8734*T;,,          N 00Ohn !
 PAR  L(HCP_A3,AL,TI:VA;1),,            -43568.6+25.2704*T;,,         N 00Ohn !
$
 PAR  L(A3_HCP,AL,TI:VA;0),,            -150464+56.8734*T;,,          N 00Ohn !
 PAR  L(A3_HCP,AL,TI:VA;1),,            -43568.6+25.2704*T;,,         N 00Ohn !
$
 PAR  G(HCP_4SL,AL:AL:AL:TI:VA),,       +ZERO;,,                      N 00Ohn !
 PAR  G(HCP_4SL,AL:AL:TI:AL:VA),,       +ZERO;,,                      N 00Ohn !
 PAR  G(HCP_4SL,AL:TI:AL:AL:VA),,       +ZERO;,,                      N 00Ohn !
 PAR  G(HCP_4SL,TI:AL:AL:AL:VA),,       +ZERO;,,                      N 00Ohn !
 PAR  G(HCP_4SL,AL:AL:TI:TI:VA),,       -5000;,,                      N 00Ohn !
 PAR  G(HCP_4SL,AL:TI:AL:TI:VA),,       -5000;,,                      N 00Ohn !
 PAR  G(HCP_4SL,AL:TI:TI:AL:VA),,       -5000;,,                      N 00Ohn !
 PAR  G(HCP_4SL,TI:AL:AL:TI:VA),,       -5000;,,                      N 00Ohn !
 PAR  G(HCP_4SL,TI:AL:TI:AL:VA),,       -5000;,,                      N 00Ohn !
 PAR  G(HCP_4SL,TI:TI:AL:AL:VA),,       -5000;,,                      N 00Ohn !
 PAR  G(HCP_4SL,AL:TI:TI:TI:VA),,       -5781.4;,,                    N 00Ohn !
 PAR  G(HCP_4SL,TI:AL:TI:TI:VA),,       -5781.4;,,                    N 00Ohn !
 PAR  G(HCP_4SL,TI:TI:AL:TI:VA),,       -5781.4;,,                    N 00Ohn !
 PAR  G(HCP_4SL,TI:TI:TI:AL:VA),,       -5781.4;,,                    N 00Ohn !
 PAR  G(HCP_4SL,AL,TI:AL:AL:AL:VA;0),,  +ZERO;,,                      N 00Ohn !
 PAR  G(HCP_4SL,AL:AL,TI:AL:AL:VA;0),,  +ZERO;,,                      N 00Ohn !
 PAR  G(HCP_4SL,AL:AL:AL,TI:AL:VA;0),,  +ZERO;,,                      N 00Ohn !
 PAR  G(HCP_4SL,AL:AL:AL:AL,TI:VA;0),,  +ZERO;,,                      N 00Ohn !
 PAR  G(HCP_4SL,AL,TI:AL:AL:AL:VA;1),,  +ZERO;,,                      N 00Ohn !
 PAR  G(HCP_4SL,AL:AL,TI:AL:AL:VA;1),,  +ZERO;,,                      N 00Ohn !
 PAR  G(HCP_4SL,AL:AL:AL,TI:AL:VA;1),,  +ZERO;,,                      N 00Ohn !
 PAR  G(HCP_4SL,AL:AL:AL:AL,TI:VA;1),,  +ZERO;,,                      N 00Ohn !
 PAR  G(HCP_4SL,AL,TI:AL:AL:TI:VA;0),,  +2500;,,                      N 00Ohn !
 PAR  G(HCP_4SL,AL,TI:AL:TI:AL:VA;0),,  +2500;,,                      N 00Ohn !
 PAR  G(HCP_4SL,AL,TI:TI:AL:AL:VA;0),,  +2500;,,                      N 00Ohn !
 PAR  G(HCP_4SL,AL:AL,TI:AL:TI:VA;0),,  +2500;,,                      N 00Ohn !
 PAR  G(HCP_4SL,AL:AL,TI:TI:AL:VA;0),,  +2500;,,                      N 00Ohn !
 PAR  G(HCP_4SL,TI:AL,TI:AL:AL:VA;0),,  +2500;,,                      N 00Ohn !
 PAR  G(HCP_4SL,AL:AL:AL,TI:TI:VA;0),,  +2500;,,                      N 00Ohn !
 PAR  G(HCP_4SL,AL:TI:AL,TI:AL:VA;0),,  +2500;,,                      N 00Ohn !
 PAR  G(HCP_4SL,TI:AL:AL,TI:AL:VA;0),,  +2500;,,                      N 00Ohn !
 PAR  G(HCP_4SL,AL:AL:TI:AL,TI:VA;0),,  +2500;,,                      N 00Ohn !
 PAR  G(HCP_4SL,AL:TI:AL:AL,TI:VA;0),,  +2500;,,                      N 00Ohn !
 PAR  G(HCP_4SL,TI:AL:AL:AL,TI:VA;0),,  +2500;,,                      N 00Ohn !
 PAR  G(HCP_4SL,AL,TI:AL:AL:TI:VA;1),,  +ZERO;,,                      N 00Ohn !
 PAR  G(HCP_4SL,AL,TI:AL:TI:AL:VA;1),,  +ZERO;,,                      N 00Ohn !
 PAR  G(HCP_4SL,AL,TI:TI:AL:AL:VA;1),,  +ZERO;,,                      N 00Ohn !
 PAR  G(HCP_4SL,AL:AL,TI:AL:TI:VA;1),,  +ZERO;,,                      N 00Ohn !
 PAR  G(HCP_4SL,AL:AL,TI:TI:AL:VA;1),,  +ZERO;,,                      N 00Ohn !
 PAR  G(HCP_4SL,TI:AL,TI:AL:AL:VA;1),,  +ZERO;,,                      N 00Ohn !
 PAR  G(HCP_4SL,AL:AL:AL,TI:TI:VA;1),,  +ZERO;,,                      N 00Ohn !
 PAR  G(HCP_4SL,AL:TI:AL,TI:AL:VA;1),,  +ZERO;,,                      N 00Ohn !
 PAR  G(HCP_4SL,TI:AL:AL,TI:AL:VA;1),,  +ZERO;,,                      N 00Ohn !
 PAR  G(HCP_4SL,AL:AL:TI:AL,TI:VA;1),,  +ZERO;,,                      N 00Ohn !
 PAR  G(HCP_4SL,AL:TI:AL:AL,TI:VA;1),,  +ZERO;,,                      N 00Ohn !
 PAR  G(HCP_4SL,TI:AL:AL:AL,TI:VA;1),,  +ZERO;,,                      N 00Ohn !
 PAR  G(HCP_4SL,AL,TI:AL:TI:TI:VA;0),,  +4293.87;,,                   N 00Ohn !
 PAR  G(HCP_4SL,AL,TI:TI:AL:TI:VA;0),,  +4293.87;,,                   N 00Ohn !
 PAR  G(HCP_4SL,AL,TI:TI:TI:AL:VA;0),,  +4293.87;,,                   N 00Ohn !
 PAR  G(HCP_4SL,AL:AL,TI:TI:TI:VA;0),,  +4293.87;,,                   N 00Ohn !
 PAR  G(HCP_4SL,TI:AL,TI:AL:TI:VA;0),,  +4293.87;,,                   N 00Ohn !
 PAR  G(HCP_4SL,TI:AL,TI:TI:AL:VA;0),,  +4293.87;,,                   N 00Ohn !
 PAR  G(HCP_4SL,AL:TI:AL,TI:TI:VA;0),,  +4293.87;,,                   N 00Ohn !
 PAR  G(HCP_4SL,TI:AL:AL,TI:TI:VA;0),,  +4293.87;,,                   N 00Ohn !
 PAR  G(HCP_4SL,TI:TI:AL,TI:AL:VA;0),,  +4293.87;,,                   N 00Ohn !
 PAR  G(HCP_4SL,AL:TI:TI:AL,TI:VA;0),,  +4293.87;,,                   N 00Ohn !
 PAR  G(HCP_4SL,TI:AL:TI:AL,TI:VA;0),,  +4293.87;,,                   N 00Ohn !
 PAR  G(HCP_4SL,TI:TI:AL:AL,TI:VA;0),,  +4293.87;,,                   N 00Ohn !
 PAR  G(HCP_4SL,AL,TI:AL:TI:TI:VA;1),,  +133.413;,,                   N 00Ohn !
 PAR  G(HCP_4SL,AL,TI:TI:AL:TI:VA;1),,  +133.413;,,                   N 00Ohn !
 PAR  G(HCP_4SL,AL,TI:TI:TI:AL:VA;1),,  +133.413;,,                   N 00Ohn !
 PAR  G(HCP_4SL,AL:AL,TI:TI:TI:VA;1),,  +133.413;,,                   N 00Ohn !
 PAR  G(HCP_4SL,TI:AL,TI:AL:TI:VA;1),,  +133.413;,,                   N 00Ohn !
 PAR  G(HCP_4SL,TI:AL,TI:TI:AL:VA;1),,  +133.413;,,                   N 00Ohn !
 PAR  G(HCP_4SL,AL:TI:AL,TI:TI:VA;1),,  +133.413;,,                   N 00Ohn !
 PAR  G(HCP_4SL,TI:AL:AL,TI:TI:VA;1),,  +133.413;,,                   N 00Ohn !
 PAR  G(HCP_4SL,TI:TI:AL,TI:AL:VA;1),,  +133.413;,,                   N 00Ohn !
 PAR  G(HCP_4SL,AL:TI:TI:AL,TI:VA;1),,  +133.413;,,                   N 00Ohn !
 PAR  G(HCP_4SL,TI:AL:TI:AL,TI:VA;1),,  +133.413;,,                   N 00Ohn !
 PAR  G(HCP_4SL,TI:TI:AL:AL,TI:VA;1),,  +133.413;,,                   N 00Ohn !
 PAR  G(HCP_4SL,AL,TI:TI:TI:TI:VA;0),,  +6182.08;,,                   N 00Ohn !
 PAR  G(HCP_4SL,TI:AL,TI:TI:TI:VA;0),,  +6182.08;,,                   N 00Ohn !
 PAR  G(HCP_4SL,TI:TI:AL,TI:TI:VA;0),,  +6182.08;,,                   N 00Ohn !
 PAR  G(HCP_4SL,TI:TI:TI:AL,TI:VA;0),,  +6182.08;,,                   N 00Ohn !
 PAR  G(HCP_4SL,AL,TI:TI:TI:TI:VA;1),,  +400.238;,,                   N 00Ohn !
 PAR  G(HCP_4SL,TI:AL,TI:TI:TI:VA;1),,  +400.238;,,                   N 00Ohn !
 PAR  G(HCP_4SL,TI:TI:AL,TI:TI:VA;1),,  +400.238;,,                   N 00Ohn !
 PAR  G(HCP_4SL,TI:TI:TI:AL,TI:VA;1),,  +400.238;,,                   N 00Ohn !
$
 PAR  G(AL3TI_D022,AL:TI),,             +3*GHSERAL+GHSERTI
             -178185.2+61.9576*T;,,                                   N 00Ohn !
 PAR  G(AL5TI2,AL:TI),,                 +5*GHSERAL+2*GHSERTI
             -302890.7+98.9457*T;,,                                   N 00Ohn !
 PAR  G(AL2TI,AL:TI),,                  +2*GHSERAL+GHSERTI
             -131082.6+42.0639*T;,,                                   N 00Ohn !
$ ------------------------------------------------------------------------------
$
$
 LIST-OF-REFERENCE
 NUMBER  SOURCE
  Null   'Unknown source'
  REFLAV 'Laves phase convention: G(LAVES,X:X)=+3*GHSERXX+15000'
  SGCOST 'COST 507 database, SGTE unary database V.3.0, 1996; Al, B, Nd, Ti, Zn'
  91Din  'A.T. Dinsdale, Calphad, 15, 317-425(1991).'
  00Ohn  'I. Ohnuma, Y. Fujita, H. Mitsui, K. Ishikawa, R. Kainuma, K. Ishida,
          Acta Mater., 48, 3113-23(2000); Al-Ti'
!
