$
$ Database for Ni-Th from C.P. Wang et al. 2009
$
$ C.P. Wang, Y. He, H.L. Zhang, X.J. Liu, J. Alloys Compd., 487, 126-31(2009).
$
$ Dataset created 2017.05.25 by Bengt Hallstedt.
$ 2020.07.18: Modified for use with GES6.
$
$ Compositions changed from fractional to integer. This required an adjustment
$ of the Ni7Th2 parameters. Invariant equilibria differ by up to 4 K.
$
$ There is an inverse miscibility gap with a minimum at 5725 K and x(Th)=0.09.
$
$ ------------------------------------------------------------------------------
 TEMP-LIM 298.15 6000.00 !
$
$ELEMENT NAME  REF. STATE               ATOMIC MASS H298-H0    S298    !
$
 ELEMENT VA   VACUUM                      0.0          0.0      0.0    ! 
 ELEMENT NI   FCC_A1                     58.69      4787.0     29.7955 ! 
 ELEMENT TH   FCC_A1                    232.0381    6350.0     51.8    ! 
$ ------------------------------------------------------------------------------
$ Phase definitions
$
 PHASE LIQUID:L % 1 1 !
 CONST LIQUID:L : NI TH : !
$
$ Fcc (cF4, Fm-3m) and MeX (cF8, Fm-3m)
$
 PHASE FCC_A1 %A 2 1 1 !
 CONST FCC_A1 : NI% TH% : VA : !
$
$ Bcc (cI2, Im-3m)
$
 PHASE BCC_A2 %B 2 1 3 !
 CONST BCC_A2 : NI TH% : VA : !
$
$ Hcp (hP2, P6_3/mmc) and Me2X (NiAs-type, hP4, P6_3/mmc, B8_1)
$
 PHASE HCP_A3 %A 2 1 0.5 !
 CONST HCP_A3 : NI : VA : !
$
$ Prototype Ni17Th2 (hP38, P6_3/mmc)
$
 PHASE NI17TH2 % 2 19 2 !
 CONST NI17TH2 : NI : TH : !
$
$ Prototype CaCu5 (hP6, P6/mmm)
$
 PHASE NI5TH_D2D % 2 5 1 !
 CONST NI5TH_D2D : NI : TH : !
$
$ Prototype Ce2Ni7 (hP36, P6_3/mmc)
$
 PHASE NI7TH2_ALPHA % 2 7 2 !
 CONST NI7TH2_ALPHA : NI : TH : !
$
$ Prototype Co7Gd2 (hR18, R-3m)
$
 PHASE NI7TH2_BETA % 2 7 2 !
 CONST NI7TH2_BETA : NI : TH : !
$
$ Prototype AlB2 (hP3, P6/mmm)
$
 PHASE NI2TH_C32 % 2 2 1 !
 CONST NI2TH_C32 : NI : TH : !
$
$ Prototype Ni7Th4 (mC12, C2/c)
$
 PHASE NI7TH4 % 2 7 4 !
 CONST NI7TH4 : NI : TH : !
$
$ Prototype AgSr (oP16, Pnma)
$
 PHASE NITH % 2 1 1 !
 CONST NITH : NI : TH : !
$
$ Prototype Fe3Th7 (hP20, P6_3mc)
$
 PHASE NI3TH7_D102 % 2 3 7 !
 CONST NI3TH7_D102 : NI : TH : !
$ ------------------------------------------------------------------------------
$ Defaults
$
 DEFINE-SYSTEM-DEFAULT ELEMENT 2 !
 DEFAULT-COM DEFINE_SYSTEM_ELEMENT VA !
 TYPE-DEF % SEQ * !
 TYPE-DEF A GES AMEND_PHASE_DESCRIPTION @ MAGNETIC -3 0.28 !
 TYPE-DEF B GES AMEND_PHASE_DESCRIPTION @ MAGNETIC -1 0.4 !
 FUNCTION ZERO      298.15  0;                                         6000 N !
 FUNCTION UN_ASS    298.15  0;                                         6000 N !
 FUNCTION R         298.15  +8.31451;                                  6000 N !
$ ------------------------------------------------------------------------------
$ Element data
$ ------------------------------------------------------------------------------
$ Ni
$
$ FCC_A1 and LIQUID modified in unary 5.0 (slight change in upper T interval)
$ BCT_A5 added in unary 5.0
$
 PAR  G(FCC_A1,NI:VA),,                 +GHSERNI;                3000 N 91Din !
 PAR  TC(FCC_A1,NI:VA),,                  633.00;                3000 N 91Din !
 PAR  BM(FCC_A1,NI:VA),,                    0.52;                3000 N 91Din !
 PAR  G(BCC_A2,NI:VA),,                 +GHSERNI
             +8715.084-3.556*T;                                  3000 N 91Din !
 PAR  TC(BCC_A2,NI:VA),,                  575.00;                3000 N 91Din !
 PAR  BM(BCC_A2,NI:VA),,                    0.85;                3000 N 91Din !
 PAR  G(HCP_A3,NI:VA),,                 +GHSERNI+1046+1.255*T;   3000 N 91Din !
 PAR  TC(HCP_A3,NI:VA),,                  633.00;                3000 N 91Din !
 PAR  BM(HCP_A3,NI:VA),,                    0.52;                3000 N 91Din !
$PAR  G(BCT_A5,NI),,                    +GHSERNI+10023-4.556*T;  3000 N 99Gho !
$PAR  G(CBCC_A12,NI:VA),,               +GHSERNI+3556;           3000 N 91Din !
$PAR  G(CUB_A13,NI:VA),,                +GHSERNI+2092;           3000 N 91Din !
 PAR  G(LIQUID,NI),,                    +GLIQNI;                 3000 N 91Din !
$
 FUNCTION GHSERNI   298.15  -5179.159+117.854*T-22.096*T*LN(T)-0.0048407*T**2;
      1728.00  Y  -27840.62+279.134977*T-43.1*T*LN(T)+1.12754E+31*T**(-9);
      3000.00  N !
 FUNCTION GLIQNI    298.15  +16414.686-9.397*T+GHSERNI-3.82318E-21*T**7;
      1728.00  Y  -9549.817+268.597977*T-43.1*T*LN(T);
      3000.00  N !
 FUNCTION GBCCNI    298.15  +GHSERNI+8715.084-3.556*T;                 6000 N !
$ ------------------------------------------------------------------------------
$ Th
$
$ FCC_A1, BCC_A2 and LIQUID modified in unary 4.4
$
 PAR  G(FCC_A1,TH:VA),,                 +GHSERTH;                4000 N 01SGUN !
 PAR  G(BCC_A2,TH:VA),,                 +GBCCTH;                 4000 N 01SGUN !
 PAR  G(LIQUID,TH),,                    +GLIQTH;                 4000 N 01SGUN !
$
 FUNCTION GHSERTH   298.15  -7732.08+116.273975*T-24.841*T*LN(T)
       -0.00236725*T**2-5.2883E-07*T**3+13010*T**(-1);
      1633.00  Y  -37352.871+236.906118*T-39.107*T*LN(T)
       -0.00358025*T**2+2.36893E-07*T**3+7981000*T**(-1);
      2900.00  Y  -33353.313+283.231045*T-46.024*T*LN(T);
      4000.00  N !
 FUNCTION GBCCTH    298.15  -2321.06+133.531195*T-28.244*T*LN(T)
       +4.3775E-04*T**2-5.3048E-07*T**3+91190*T**(-1);
      1633.00  Y  -115978.348+800.909049*T-116.453*T*LN(T)
       +0.03098*T**2-2.536883E-06*T**3+27512600*T**(-1);
      2023.00  Y  -33602.796+208.774709*T-35.813*T*LN(T)
       -0.00346655*T**2+1.66067E-07*T**3+11876950*T**(-1);
      3600.00  Y  -980.302-0.049551*T+GHSERTH;
      4000.00  N !
 FUNCTION GLIQTH    298.15  +5031.109+110.886346*T-24.987*T*LN(T)
       -0.00168345*T**2-9.09067E-07*T**3+10865*T**(-1);
      1499.80  Y  -15602.847+127.657716*T-24.03*T*LN(T)
       -0.0136421*T**2+1.210117E-06*T**3+7111100*T**(-1);
      2014.50  Y  -17273.382+275.001274*T-46.024*T*LN(T);
      4000.00  N !
$ ------------------------------------------------------------------------------
$ Binary system
$
$ C.P. Wang, Y. He, H.L. Zhang, X.J. Liu, J. Alloys Compd., 487, 126-31(2009).
$
$ Checked against paper. Checked at 6000K.
$
$ Compositions changed from fractional to integer. This required an adjustment
$ of the Ni7Th2 parameters. Invariant equilibria differ by up to 4 K.
$
$ There is an inverse miscibility gap with a minimum at 5725 K and x(Th)=0.09.
$
 PAR  L(LIQUID,NI,TH;0),,               -182520+25*T;,,               N 09Wan !
 PAR  L(LIQUID,NI,TH;1),,               -110920+17*T;,,               N 09Wan !
 PAR  L(LIQUID,NI,TH;2),,               -50700+25*T;,,                N 09Wan !
 PAR  L(LIQUID,NI,TH;3),,               +27000;,,                     N 09Wan !
$
 PAR  L(FCC_A1,NI,TH:VA;0),,            +ZERO;,,                      N 09Wan !
 PAR  L(BCC_A2,NI,TH:VA;0),,            +ZERO;,,                      N 09Wan !
$
 PAR  G(NI17TH2,NI:TH),,                +19*GHSERNI+2*GHSERTH
             -558243+79.8*T;,,                                        N 09Wan !
 PAR  G(NI5TH_D2D,NI:TH),,              +5*GHSERNI+GHSERTH
             -241440+24.6*T;,,                                        N 09Wan !
$PAR  G(NI7TH2_ALPHA,NI:TH),,           +7*GHSERNI+2*GHSERTH
$            -382410+28.548*T;,,                                      N 09Wan !
 PAR  G(NI7TH2_ALPHA,NI:TH),,           +7*GHSERNI+2*GHSERTH
             -383886+28.548*T;,,                                      N 09Wan !
$PAR  G(NI7TH2_BETA,NI:TH),,            +7*GHSERNI+2*GHSERTH
$            -369810+19.98*T;,,                                       N 09Wan !
 PAR  G(NI7TH2_BETA,NI:TH),,            +7*GHSERNI+2*GHSERTH
             -371286+19.98*T;,,                                       N 09Wan !
 PAR  G(NI2TH_C32,NI:TH),,              +2*GHSERNI+GHSERTH
             -140250+9*T;,,                                           N 09Wan !
 PAR  G(NI7TH4,NI:TH),,                 +7*GHSERNI+4*GHSERTH
             -518760+29.7*T;,,                                        N 09Wan !
 PAR  G(NITH,NI:TH),,                   +GHSERNI+GHSERTH
             -90940+5*T;,,                                            N 09Wan !
 PAR  G(NI3TH7_D102,NI:TH),,            +3*GHSERNI+7*GHSERTH
             -290000+14*T;,,                                          N 09Wan !
$ ------------------------------------------------------------------------------
$
$
 LIST-OF-REFERENCE
 NUMBER  SOURCE
  Null   'Unknown source'
  Same   'Same or similar interaction as in the corresponding stable phase'
  REFLAV 'Laves phase convention: G(LAVES,X:X)=+3*GHSERXX+15000'
  91Din  'A.T. Dinsdale, Calphad, 15, 317-425(1991).'
  99Gho  'G. Ghosh, Metall. Mater. Trans. A, 30A, 1481-94(1999),
          SGTE unary database V.5.0, 2009; Ni'
  01SGUN 'SGTE unary database V.4.4, 2001.'
  09Wan  'C.P. Wang, Y. He, H.L. Zhang, X.J. Liu,
          J. Alloys Compd., 487, 126-31(2009); Ni-Th'
!
