$
$ Database for Be-Si from K. Liu et al. 2021.
$
$ K. Liu, P. Wang, X. Huang, H. Yang, Y. Du,
$ J. Phase Equilib. Diffus., 42, 515-23(2021).
$
$ Dataset created 2021.11.14 by Bengt Hallstedt.
$
$ ------------------------------------------------------------------------------
 TEMP-LIM 298.15 6000.00 !
$
$ELEMENT NAME  REF. STATE               ATOMIC MASS H298-H0    S298    !
$
 ELEMENT VA   VACUUM                      0.0          0.0      0.0    ! 
 ELEMENT BE   HCP_A3                      9.01218   1950.0      9.50   ! 
 ELEMENT SI   DIAMOND_A4                 28.0855    3217.      18.81   ! 
$ ------------------------------------------------------------------------------
$ Phase definitions
$
 PHASE LIQUID:L % 1 1 !
 CONST LIQUID:L : BE SI : !
$
$ Fcc (cF4, Fm-3m) and MeX (cF8, Fm-3m)
$
 PHASE FCC_A1 %A 2 1 1 !
 CONST FCC_A1 : BE SI : VA : !
$
$ Bcc (cI2, Im-3m)
$
 PHASE BCC_A2 %B 2 1 3 !
 CONST BCC_A2 : BE% SI : VA : !
$
$ Hcp (hP2, P6_3/mmc) and Me2X (NiAs-type, hP4, P6_3/mmc, B8_1)
$
 PHASE HCP_A3 %A 2 1 0.5 !
 CONST HCP_A3 : BE% SI : VA : !
$
$ Prototype C (cF8, Fd-3m)
$
 PHASE DIAMOND_A4 % 1 1 !
 CONST DIAMOND_A4 : SI : !
$ ------------------------------------------------------------------------------
$ Defaults
$
 DEFINE-SYSTEM-DEFAULT ELEMENT 2 !
 DEFAULT-COM DEFINE_SYSTEM_ELEMENT VA !
 TYPE-DEF % SEQ * !
 TYPE-DEF A GES AMEND_PHASE_DESCRIPTION @ MAGNETIC -3 0.28 !
 TYPE-DEF B GES AMEND_PHASE_DESCRIPTION @ MAGNETIC -1 0.4 !
 FUNCTION ZERO      298.15  0;                                         6000 N !
 FUNCTION UN_ASS    298.15  0;                                         6000 N !
 FUNCTION R         298.15  +8.31451;                                  6000 N !
$ ------------------------------------------------------------------------------
$ Element data
$ ------------------------------------------------------------------------------
$ Be
$
 PAR  G(HCP_A3,BE:VA),,                 +GHSERBE;                3000 N 91Din !
 PAR  G(BCC_A2,BE:VA),,                 +GBCCBE;                 3000 N 91Din !
 PAR  G(FCC_A1,BE:VA),,                 +GHSERBE+6349-1.085*T;   3000 N 91Din !
 PAR  G(LIQUID,BE),,                    +GLIQBE;                 3000 N 91Din !
$
 FUNCTION GHSERBE   298.15  -8553.651+137.560219*T-21.204*T*LN(T)
       -0.00284715*T**2-1.60413E-07*T**3+293690*T**(-1);
      1527.00  Y  -121305.858+772.405844*T-103.9843*T*LN(T)
       +0.021078651*T**2-1.119065E-06*T**3+27251743*T**(-1);
      3000.00  N !
 FUNCTION GBCCBE    298.15  -1076.057+109.411712*T-17.1727841*T*LN(T)
       -0.008672487*T**2+9.61427E-07*T**3+242309*T**(-1);
      1527.00  Y  -6970.378+196.411689*T-30*T*LN(T);
      1560.00  Y  -2609.973+178.131722*T-27.7823769*T*LN(T)
       -1.03629E-04*T**2-5.9331E-08*T**3-1250847*T**(-1);
      3000.00  N !
 FUNCTION GLIQBE    298.15  +7511.838+120.362788*T-20.0497038*T*LN(T)
       -0.004821347*T**2+4.15958E-07*T**3+281044*T**(-1);
      1560.00  Y  +5364.713+156.961141*T-25.486*T*LN(T)
       -0.0010572*T**2-1.117E-09*T**3+15920*T**(-1);
      3000.00  N !
$ ------------------------------------------------------------------------------
$ Si
$
 PAR  G(DIAMOND_A4,SI),,                +GHSERSI;                3600 N 91Din !
 PAR  G(FCC_A1,SI:VA),,                 +GHSERSI+51000-21.8*T;   3600 N 91Din !
 PAR  G(BCC_A2,SI:VA),,                 +GHSERSI+47000-22.5*T;   3600 N 91Din !
 PAR  G(HCP_A3,SI:VA),,                 +GHSERSI+49200-20.8*T;   3600 N 91Din !
$PAR  G(CBCC_A12,SI:VA),,               +GHSERSI+50208-20.377*T; 3600 N 91Din !
$PAR  G(CUB_A13,SI:VA),,                +GHSERSI+47279-20.377*T; 3600 N 91Din !
 PAR  G(LIQUID,SI),,                    +GLIQSI;                 3600 N 91Din !
$
 FUNCTION GHSERSI   298.15  -8162.609+137.236859*T-22.8317533*T*LN(T)
       -0.001912904*T**2-3.552E-09*T**3+176667*T**(-1);
      1687.00  Y  -9457.642+167.281367*T-27.196*T*LN(T)-4.20369E+30*T**(-9);
      3600.00  N !
 FUNCTION GLIQSI    298.15  +50696.36-30.099439*T+GHSERSI+2.09307E-21*T**7;
      1687.00  Y  +40370.523+137.722298*T-27.196*T*LN(T);
      3600.00  N !
 FUNCTION GBCCSI    298.15  +GHSERSI+47000-22.5*T;               3600 N 91Din !
$ ------------------------------------------------------------------------------
$ Binary system
$
$ K. Liu, P. Wang, X. Huang, H. Yang, Y. Du,
$ J. Phase Equilib. Diffus., 42, 515-23(2021).
$
$ Checked against paper. Checked at 6000 K.
$
 PAR  L(LIQUID,BE,SI;0),,               -17043.579+19.7356*T;,,       N 21Liu !
 PAR  L(LIQUID,BE,SI;1),,               +4349.615;,,                  N 21Liu !
 PAR  L(LIQUID,BE,SI;2),,               +8544.5477;,,                 N 21Liu !
$
 PAR  L(BCC_A2,BE,SI:VA;0),,            +60000;,,                     N 05Pan !
 PAR  L(HCP_A3,BE,SI:VA;0),,            +60000;,,                     N 05Pan !
$
$ Metastable
$
 PAR  L(FCC_A1,BE,SI:VA;0),,            +60000;,,                     N Same !
$ ------------------------------------------------------------------------------
$
$
 LIST-OF-REFERENCE
 NUMBER  SOURCE
  Null   'Unknown source'
  Same   'Same or similar interaction as in the corresponding stable phase'
  REFLAV 'Laves phase convention: G(LAVES,X:X)=+3*GHSERXX+15000'
  91Din  'A.T. Dinsdale, Calphad, 15, 317-425(1991).'
  05Pan  'Z. Pan, Y. Du, B. Huang, Z. Metallkd., 96, 1301-7(2005); Be-Si'
  21Liu  'K. Liu, P. Wang, X. Huang, H. Yang, Y. Du,
          J. Phase Equilib. Diffus., 42, 515-23(2021); Be-Si'
!
