$
$ Database for Hf-Pt from B. Yang et al. 2018.
$
$ B. Yang, C. Guo, C. Li, Z. Du, Int. J. Mater. Res., 109, 851-57(2018).
$
$ Dataset created 2018.09.23 by Bengt Hallstedt.
$ 2021.01.17: Modified for use with GES6.
$
$ To my understanding D0_24 (HfPt3) is an ordered dhcp structure rather than
$ an ordered hcp structure.
$
$ It is a difficult to understand why HfPt4-L12 is not modelled as
$ ordered fcc.
$
$ This parameter set does not give a convincing impression.
$
$ ------------------------------------------------------------------------------
 TEMP-LIM 298.15 6000.00 !
$
$ELEMENT NAME  REF. STATE               ATOMIC MASS H298-H0    S298    !
$
 ELEMENT VA   VACUUM                      0.0          0.0      0.0    ! 
 ELEMENT HF   HCP_A3                    178.49      5845.0     43.56   ! 
 ELEMENT PT   FCC_A1                    195.08      5723.712   41.6308 !
$ ------------------------------------------------------------------------------
$ Phase definitions
$
 PHASE LIQUID:L % 1 1 !
 CONST LIQUID:L : HF PT : !
$
$ Fcc (cF4, Fm-3m) and MeX (cF8, Fm-3m)
$
 PHASE FCC_A1 %A 2 1 1 !
 CONST FCC_A1 : HF PT% : VA : !
$
$ Bcc (cI2, Im-3m)
$
 PHASE BCC_A2 %B 2 1 3 !
 CONST BCC_A2 : HF% PT : VA : !
$
$ Disordered part of B2_BCC, identical to BCC_A2
$
 PHASE A2_BCC %B 2 1 3 !
 CONST A2_BCC : HF% PT : VA : !
$
$ Prototype CsCl (cP2, Pm-3m)
$
 PHASE B2_BCC %BO 3 0.5 0.5 3 !
 CONST B2_BCC : HF% PT : HF PT% : VA : !
$
$ Hcp (hP2, P6_3/mmc) and Me2X (NiAs-type, hP4, P6_3/mmc, B8_1)
$
 PHASE HCP_A3 %A 2 1 0.5 !
 CONST HCP_A3 : HF% PT : VA : !
$
$ Disordered part of D024_HCP, identical to HCP_A3
$
 PHASE A3_HCP %A 2 1 0.5 !
 CONST A3_HCP : HF% PT : VA : !
$
$ Prototype Ni3Ti (hP16, P6_3/mmc)
$
 PHASE D024_HCP %AZ 3 0.25 0.75 0.5 !
 CONST D024_HCP : HF% PT : HF PT% : VA : !
$
$ Prototype NiTi2 (cF96, Fd-3m)
$
 PHASE HF2PT % 2 2 1 !
 CONST HF2PT : HF : HF PT% : !
$
$ Prototype CrB (oC8, Cmcm)
$
 PHASE HFPT_B33 % 2 1 1 !
 CONST HFPT_B33 : HF% PT : HF PT% : !
$
$ Prototype Pd4Pu3 (hR14, R-3)
$
 PHASE HF3PT4 % 2 3 4 !
 CONST HF3PT4 : HF% PT : HF PT% : !
$
$ Prototype Pd3Ti2 (oC20, Cmcm)
$
 PHASE HF2PT3 % 2 2 3 !
 CONST HF2PT3 : HF : PT : !
$
$ Prototype AuCu3 (cP4, Pm-3m)
$
 PHASE HFPT4_L12 % 2 1 3 !
 CONST HFPT4_L12 : HF% PT : PT : !
$ ------------------------------------------------------------------------------
$ Defaults
$
 DEFINE-SYSTEM-DEFAULT ELEMENT 2 !
 DEFAULT-COM DEFINE_SYSTEM_ELEMENT VA !
 DEFAULT-COM REJECT-PHASE BCC_A2 HCP_A3 !
 TYPE-DEF % SEQ * !
 TYPE-DEF A GES AMEND_PHASE_DESCRIPTION @ MAGNETIC -3 0.28 !
 TYPE-DEF B GES AMEND_PHASE_DESCRIPTION @ MAGNETIC -1 0.4 !
 TYPE-DEF O GES AMEND_PHASE_DESCRIPTION B2_BCC DIS_PART A2_BCC !
 TYPE-DEF Z GES AMEND_PHASE_DESCRIPTION D024_HCP DIS_PART A3_HCP !
 FUNCTION ZERO      298.15  0;                                         6000 N !
 FUNCTION UN_ASS    298.15  0;                                         6000 N !
 FUNCTION R         298.15  +8.31451;                                  6000 N !
$ ------------------------------------------------------------------------------
$ Element data
$ ------------------------------------------------------------------------------
$ Hf
$
$ HCP_A3 and BCC_A2 modified in unary 5.0
$ (upper T interval added + trailing decimals added)
$
 PAR  G(HCP_A3,HF:VA),,                 +GHSERHF;                3001 N 91Din !
 PAR  G(A3_HCP,HF:VA),,                 +GHSERHF;                3001 N 91Din !
 PAR  G(BCC_A2,HF:VA),,                 +GBCCHF;                 3001 N 91Din !
 PAR  G(A2_BCC,HF:VA),,                 +GBCCHF;                 3001 N 91Din !
 PAR  G(FCC_A1,HF:VA),,                 +GHSERHF+10000-2.2*T;    3001 N 91Din !
 PAR  G(LIQUID,HF),,                    +GLIQHF;                 3001 N 91Din !
$
 PAR  G(HF2PT,HF:HF),,                  +3*GHSERHF+15000;,,           N 18Yan !
 PAR  G(HFPT_B33,HF:HF),,               +2*GHSERHF+10000;,,           N 18Yan !
 PAR  G(HF3PT4,HF:HF),,                 +7*GHSERHF+35000;,,           N 18Yan !
$
 FUNCTION GHSERHF   298.15  -6987.297+110.744026*T-22.7075*T*LN(T)
       -0.004146145*T**2-4.77E-10*T**3-22590*T**(-1);
      2506.00  Y  -1446776.329+6193.609991*T-787.5363829*T*LN(T)
       +0.1735215*T**2-7.575759E-06*T**3+5.01742495E+08*T**(-1);
      3000.00  Y  -34274.698+277.882368*T-44*T*LN(T);
      3001.00  N !
 FUNCTION GBCCHF    298.15  +5370.703+103.836026*T-22.8995*T*LN(T)
       -0.004206605*T**2+8.71923E-07*T**3-22590*T**(-1)-1.446E-10*T**4;
      2506.00  Y  +1912456.771-8624.20573*T+1087.6141247*T*LN(T)
       -0.286857065*T**2+1.3427829E-05*T**3-6.10085091E+08*T**(-1);
      3000.00  Y  -32498.178+276.723247*T-44*T*LN(T);
      3001.00  N !
 FUNCTION GLIQHF    298.15  +27402.256-10.953093*T+GHSERHF;
      1000.00  Y  +49731.499-149.91739*T+12.116812*T*LN(T)
       -0.021262021*T**2+1.376466E-06*T**3-4449699*T**(-1);
      2506.00  Y  -4247.217+265.470523*T-44*T*LN(T);
      3001.00  N !
$ ------------------------------------------------------------------------------
$ Pt
$
 PAR  G(FCC_A1,PT:VA),,                 +GHSERPT;                4000 N 91Din !
 PAR  G(BCC_A2,PT:VA),,                 +GHSERPT+15000-2.4*T;    4000 N 91Din !
 PAR  G(A2_BCC,PT:VA),,                 +GHSERPT+15000-2.4*T;    4000 N 91Din !
 PAR  G(HCP_A3,PT:VA),,                 +GHSERPT+2500+0.1*T;     4000 N 91Din !
 PAR  G(A3_HCP,PT:VA),,                 +GHSERPT+2500+0.1*T;     4000 N 91Din !
 PAR  G(LIQUID,PT),,                    +GLIQPT;                 4000 N 91Din !
$
 PAR  G(HFPT_B33,PT:PT),,               +2*GHSERPT+10000;,,           N 18Yan !
 PAR  G(HF3PT4,PT:PT),,                 +7*GHSERPT+35000;,,           N 18Yan !
 PAR  G(HFPT4_L12,PT:PT),,              +4*GHSERPT+20000;,,           N 18Yan !
$
 FUNCTION GHSERPT   298.15  -7595.631+124.388275*T-24.5526*T*LN(T)
       -0.00248297*T**2-2.0138E-08*T**3+7974*T**(-1);
      1300.00  Y  -9253.174+161.529615*T-30.2527*T*LN(T)
       +0.002321665*T**2-6.56946E-07*T**3-272106*T**(-1);
      2041.50  Y  -222048.216+1019.35892*T-136.192996*T*LN(T)
       +0.020454938*T**2-7.59259E-07*T**3+71539020*T**(-1);
      4000.00  N !
 FUNCTION GLIQPT    298.15  +20114.016-9.275183*T+GHSERPT;
       600.00  Y  +19023.491+32.94182*T-12.3403769*T*LN(T)
       -0.011551507*T**2+9.31516E-07*T**3-601426*T**(-1);
      2041.50  Y  +1404.468+205.858962*T-36.5*T*LN(T);
      4000.00  N !
 FUNCTION GBCCPT    298.15  +GHSERPT+15000-2.4*T;                      6000 N !
$ ------------------------------------------------------------------------------
$ Binary system
$
$ B. Yang, C. Guo, C. Li, Z. Du, Int. J. Mater. Res., 109, 851-57(2018).
$
$ Checked against paper. Checked at 6000 K.
$
$ To my understanding D0_24 (HfPt3) is an ordered dhcp structure rather than
$ an ordered hcp structure.
$
$ It is a difficult to understand why HfPt4-L12 is not modelled as
$ ordered fcc.
$
$ This parameter set does not give a convincing impression.
$
 PAR  L(LIQUID,HF,PT;0),,               -419491.5+35.5706*T;,,        N 18Yan !
 PAR  L(LIQUID,HF,PT;1),,               +208709.3-24.8263*T;,,        N 18Yan !
 PAR  L(LIQUID,HF,PT;2),,               -37764-19.74*T;,,             N 18Yan !
$
 PAR  L(FCC_A1,HF,PT:VA;0),,            -336484.7+20.4467*T;,,        N 18Yan !
 PAR  L(FCC_A1,HF,PT:VA;1),,            +316697+2.0296*T;,,           N 18Yan !
 PAR  L(FCC_A1,HF,PT:VA;2),,            +29405.1;,,                   N 18Yan !
$
 PAR  L(BCC_A2,HF,PT:VA;0),,            -350926.3+25.591*T;,,         N 18Yan !
 PAR  L(BCC_A2,HF,PT:VA;1),,            +203432.7-60.9129*T;,,        N 18Yan !
 PAR  L(BCC_A2,HF,PT:VA;2),,            +1785.2;,,                    N 18Yan !
$
 PAR  L(A2_BCC,HF,PT:VA;0),,            -350926.3+25.591*T;,,         N 18Yan !
 PAR  L(A2_BCC,HF,PT:VA;1),,            +203432.7-60.9129*T;,,        N 18Yan !
 PAR  L(A2_BCC,HF,PT:VA;2),,            +1785.2;,,                    N 18Yan !
$
 PAR  G(B2_BCC,HF:PT:VA),,              -6517.1-4.8644*T;,,           N 18Yan !
 PAR  G(B2_BCC,PT:HF:VA),,              -6517.1-4.8644*T;,,           N 18Yan !
 PAR  L(B2_BCC,HF,PT:HF:VA;0),,         +105274.1-34.7085*T;,,        N 18Yan !
 PAR  L(B2_BCC,HF:HF,PT:VA;0),,         +105274.1-34.7085*T;,,        N 18Yan !
 PAR  L(B2_BCC,HF,PT:HF:VA;1),,         -4539-9.006*T;,,              N 18Yan !
 PAR  L(B2_BCC,HF:HF,PT:VA;1),,         -4539-9.006*T;,,              N 18Yan !
 PAR  L(B2_BCC,HF,PT:PT:VA;0),,         +27843.5+16.4171*T;,,         N 18Yan !
 PAR  L(B2_BCC,PT:HF,PT:VA;0),,         +27843.5+16.4171*T;,,         N 18Yan !
 PAR  L(B2_BCC,HF,PT:PT:VA;1),,         +1444.8-9.3287*T;,,           N 18Yan !
 PAR  L(B2_BCC,PT:HF,PT:VA;1),,         +1444.8-9.3287*T;,,           N 18Yan !
$
 PAR  L(HCP_A3,HF,PT:VA;0),,            -173586.5+7.7716*T;,,         N 18Yan !
 PAR  L(HCP_A3,HF,PT:VA;1),,            +84908;,,                     N 18Yan !
 PAR  L(HCP_A3,HF,PT:VA;2),,            +70000;,,                     N 18Yan !
$
 PAR  L(A3_HCP,HF,PT:VA;0),,            -173586.5+7.7716*T;,,         N 18Yan !
 PAR  L(A3_HCP,HF,PT:VA;1),,            +84908;,,                     N 18Yan !
 PAR  L(A3_HCP,HF,PT:VA;2),,            +70000;,,                     N 18Yan !
$
 PAR  G(D024_HCP,HF:PT:VA),,            +U1HHFPT;,,                   N 18Yan !
 PAR  G(D024_HCP,PT:HF:VA),,            -U1HHFPT;,,                   N 18Yan !
 PAR  L(D024_HCP,HF,PT:HF:VA;0),,       +U2HHFPT;,,                   N 18Yan !
 PAR  L(D024_HCP,HF,PT:HF:VA;1),,       +U3HHFPT;,,                   N 18Yan !
 PAR  L(D024_HCP,HF,PT:PT:VA;0),,       -U1HHFPT+U2HHFPT;,,           N 18Yan !
 PAR  L(D024_HCP,HF,PT:PT:VA;1),,       +U3HHFPT;,,                   N 18Yan !
 PAR  L(D024_HCP,HF:HF,PT:VA;0),,       -4*U1HHFPT+3*U2HHFPT;,,       N 18Yan !
 PAR  L(D024_HCP,HF:HF,PT:VA;1),,       +3*U3HHFPT;,,                 N 18Yan !
 PAR  L(D024_HCP,PT:HF,PT:VA;0),,       +U1HHFPT+3*U2HHFPT;,,         N 18Yan !
 PAR  L(D024_HCP,PT:HF,PT:VA;1),,       +3*U3HHFPT;,,                 N 18Yan !
$
 PAR  G(HF2PT,HF:PT),,                  +2*GHSERHF+GHSERPT
             -242970+11.0244*T;,,                                     N 18Yan !
 PAR  L(HF2PT,HF:HF,PT;0),,             +10087.8+10.5902*T;,,         N 18Yan !
$
 PAR  G(HFPT_B33,HF:PT),,               +GHSERHF+GHSERPT
             -228768.5+12.3394*T;,,                                   N 18Yan !
 PAR  G(HFPT_B33,PT:HF),,               +GHSERPT+GHSERHF
             -228768.5+12.3394*T;,,                                   N 18Yan !
$
 PAR  G(HF3PT4,HF:PT),,                 +3*GHSERHF+4*GHSERPT
             -804939.4+39.6567*T;,,                                   N 18Yan !
 PAR  G(HF3PT4,PT:HF),,                 +3*GHSERPT+4*GHSERHF
             +874939.4-39.6567*T;,,                                   N 18Yan !
 PAR  L(HF3PT4,HF:HF,PT;0),,            -228731.5+87.0241*T;,,        N 18Yan !
 PAR  L(HF3PT4,PT:HF,PT;0),,            -228731.5+87.0241*T;,,        N 18Yan !
 PAR  L(HF3PT4,HF:HF,PT;1),,            +522201.2-3.8925*T;,,         N 18Yan !
 PAR  L(HF3PT4,PT:HF,PT;1),,            +522201.2-3.8925*T;,,         N 18Yan !
$
 PAR  G(HF2PT3,HF:PT),,                 +2*GHSERHF+3*GHSERPT
             -576700.6+30.6937*T;,,                                   N 18Yan !
$
 PAR  G(HFPT4_L12,HF:PT),,              +GHSERHF+3*GHSERPT
             -453975.3+32.9044*T;,,                                   N 18Yan !
 PAR  L(HFPT4_L12,HF,PT:PT;0),,         +14392.7-46.6242*T;,,         N 18Yan !
 PAR  L(HFPT4_L12,HF,PT:PT;1),,         -92829-34.4846*T;,,           N 18Yan !
$
 FUNCTION U1HHFPT   298.15  -51183.5+5.0648*T;                         6000 N !
 FUNCTION U2HHFPT   298.15  +37384.2+4.5005*T;                         6000 N !
 FUNCTION U3HHFPT   298.15  +28005.6+8.0016*T;                         6000 N !
$ ------------------------------------------------------------------------------
$
$
 LIST-OF-REFERENCE
 NUMBER  SOURCE
  Null   'Unknown source'
  Lin    'Linear combination of lattice stabilities'
  Same   'Same or similar interaction as in the corresponding stable phase'
  REFLAV 'Laves phase convention: G(LAVES,X:X)=+3*GHSERXX+15000'
  91Din  'A.T. Dinsdale, Calphad, 15, 317-425(1991).'
  18Yan  'B. Yang, C. Guo, C. Li, Z. Du,
          Int. J. Mater. Res., 109, 851-57(2018); Hf-Pt'
!
