$
$ Database for Se-Te from O. Fikar et al. 2021.
$
$ O. Fikar, J. Vrestal, A. Kroupa, S.-W. Chen, Calphad, 74, 102309(2021).
$
$ Dataset created 2024.05.05 by Bengt Hallstedt.
$
$ Associate liquid model with SeTe associates. This should definitely not be
$ needed! The liquid does have a strange H-mix, but with a max of -2.5 kJ/mol
$ it is bloody close to ideal. And then a -20*T term for an almost ideal
$ solid solution to match the liquid??? I don't bloody believe this.
$
$ I didn't think it was possible to do worse than 12Gie, but it was.
$
$ ------------------------------------------------------------------------------
 TEMP-LIM 298.15 6000.00 !
$
$ELEMENT NAME  REF. STATE               ATOMIC MASS H298-H0    S298    !
$
 ELEMENT VA   VACUUM                      0.0          0.0      0.0    ! 
 ELEMENT SE   HEXAGONAL_A8               78.96      5514.512   41.9655 ! 
 ELEMENT TE   HEXAGONAL_A8              127.60      6080.      49.221  ! 
$ ------------------------------------------------------------------------------
$ Species
$
 SPECIE  SETE                               SE1TE1 !
$ ------------------------------------------------------------------------------
$ Phase definitions
$
 PHASE LIQUID:L % 1 1 !
 CONST LIQUID:L : SE SETE TE : !
$
$ Prototype gamma-Se (hP3, P3_121)
$
 PHASE HEXAGONAL_A8 % 1 1 !
 CONST HEXAGONAL_A8 : SE TE : !
$ ------------------------------------------------------------------------------
$ Defaults
$
 DEFINE-SYSTEM-DEFAULT ELEMENT 2 !
 DEFAULT-COM DEFINE_SYSTEM_ELEMENT VA !
 TYPE-DEF % SEQ * !
 TYPE-DEF A GES AMEND_PHASE_DESCRIPTION @ MAGNETIC -3 0.28 !
 TYPE-DEF B GES AMEND_PHASE_DESCRIPTION @ MAGNETIC -1 0.4 !
 FUNCTION ZERO      298.15  0;                                         6000 N !
 FUNCTION UN_ASS    298.15  0;                                         6000 N !
 FUNCTION R         298.15  +8.31451;                                  6000 N !
$ ------------------------------------------------------------------------------
$ Element data
$ ------------------------------------------------------------------------------
$ Se
$
 PAR  G(HEXAGONAL_A8,SE),,              +GHSERSE;                1000 N 91Din !
 PAR  G(LIQUID,SE),,                    +GLIQSE;                 1000 N 91Din !
$
 FUNCTION GHSERSE   298.15  -9376.371+174.205877*T-33.6527*T*LN(T)
       +0.02424314*T**2-1.5318461E-05*T**3+102249*T**(-1);
       494.00  Y  -37546.134+507.111538*T-81.2006585*T*LN(T)
       +0.037144892*T**2-5.611026E-06*T**3+2614263*T**(-1);
       800.00  Y  -12193.47+197.770166*T-35.1456*T*LN(T);
      1000.00  N !
 FUNCTION GLIQSE    298.15  +50533.347-1178.28824*T+194.107439*T*LN(T)
       -0.390268991*T**2+1.19219297E-04*T**3-2224398*T**(-1); 
       494.00  Y  -5228.304+183.72559*T-35.1456*T*LN(T);
      1000.00  N !
$ ------------------------------------------------------------------------------
$ Te
$
$ HEXAGONAL_A8 and LIQUID revised in unary 3.0
$
 PAR  G(HEXAGONAL_A8,TE),,              +GHSERTE;                2000 N 95Dav !
 PAR  G(LIQUID,TE),,                    +GLIQTE;                 2000 N 95Dav !
$
 FUNCTION GHSERTE   298.15  -10544.679+183.372894*T-35.6687*T*LN(T)
       +0.01583435*T**2-5.240417E-06*T**3+155015*T**(-1);
       722.66  Y  +9160.595-129.265373*T+13.004*T*LN(T)
       -0.0362361*T**2+5.006367E-06*T**3-1286810*T**(-1);
      1150.00  Y  -12781.349+174.901226*T-32.5596*T*LN(T);
      1600.00  N !
 FUNCTION GLIQTE    298.15  -17554.731+685.877639*T-126.318*T*LN(T)
       +0.2219435*T**2-9.42075E-05*T**3+827930*T**(-1);
       626.49  Y  -3165763.48+46756.357*T-7196.41*T*LN(T)
       +7.09775*T**2-0.00130692833*T**3+2.58051E+08*T**(-1);
       722.66  Y  +180326.959-1500.57909*T+202.743*T*LN(T)
       -0.142016*T**2+1.6129733E-05*T**3-24238450*T**(-1);
      1150.00  Y  +19110.036-26.1929273*T+GHSERTE;
      1600.00  N !
$ ------------------------------------------------------------------------------
$ Binary system
$
$ O. Fikar, J. Vrestal, A. Kroupa, S.-W. Chen, Calphad, 74, 102309(2021).
$
$ Checked against paper. Checked at 6000 K.
$
$ Associate liquid model with SeTe associates. This should definitely not be
$ needed! The liquid does have a strange H-mix, but with a max of -2.5 kJ/mol
$ it is bloody close to ideal. And then a -20*T term for an almost ideal
$ solid solution to match the liquid??? I don't bloody believe this.
$
$ I didn't think it was possible to do worse than 12Gie, but it was.
$
$ The Gibbs energy of the associate is missing in the paper, but it is in the
$ supplemetary tdb. Since Delta-G=0 for the associate, its concentration will
$ be low and Se-Te interactions should also be needed.
$
 PAR  G(LIQUID,SETE),,                  +GLIQSE+GLIQTE;,,             N 21Fik !
 PAR  L(LIQUID,SE,SETE;0),,             -7793.3-15.85*T;,,            N 21Fik !
 PAR  L(LIQUID,SETE,TE;0),,             -22861.8+6.79*T;,,            N 21Fik !
 PAR  L(LIQUID,SETE,TE;1),,             -20551.8+22.22*T;,,           N 21Fik !
$
 PAR  L(HEXAGONAL_A8,SE,TE;0),,         -914.1-20.81*T;,,             N 21Fik !
$ ------------------------------------------------------------------------------
$
 ASSESSED_SYSTEM
  SE-TE(TDB -* +LIQUID +HEXAGONAL_A8
  ;P3 TMM:300/1500 STP:.4/800/-2 STP:.4/800/2) !
$
$
 LIST-OF-REFERENCE
 NUMBER  SOURCE
  Null   'Unknown source'
  Same   'Same or similar interaction as in the corresponding stable phase'
  COST   'COST 507 database'
  91Din  'A.T. Dinsdale, Calphad, 15, 317-425(1991).'
  95Dav  'A.V. Davydov, M.H. Rand, B.B. Argent, Calphad, 19, 375-87(1995),
          SGTE unary database V.3.0, 1996; Te'
  97SUB  'SGTE Substance Database, version 1997'
  00SUB  'SGTE Substance Database, version 2000'
  21Fik  'O. Fikar, J. Vrestal, A. Kroupa, S.-W. Chen,
          Calphad, 74, 102309(2021); Se-Te'
!
