$
$ Database for Mn-N from C. Qiu and AFG (Included in LB Vol. 4)
$
$ C. Qiu, A. Fernandez Guillermet, Z. Metallkd., 84, 11-22(1993).
$
$ Dataset created 2010.07.01 by Bengt Hallstedt.
$ 2017.09.26: FE4N_L1 modified
$ 2021.01.30: Modified for use with GES6.
$
$ There are no strange features when the gas is not included.
$
$ MN6N5 appears to have a distorted NaCl structure. It should possibly be
$ modelled as FCC_A1.
$
$ Va added on the second sublattice of FE4N_L1 to be compatible with
$ Fe-N from 93Du. This adds a narrow solubility range for FE4N_L1 and
$ invariant equilibria on the Mn-rich side of FE4N_L1 increase by about 10 K.
$
$ ------------------------------------------------------------------------------
 TEMP-LIM 298.15 6000.00 !
$
$ELEMENT NAME  REF. STATE               ATOMIC MASS H298-H0    S298    !
$
 ELEMENT VA   VACUUM                      0.0          0.0      0.0    ! 
 ELEMENT MN   CBCC_A12                   54.9380    4995.696   32.2206 ! 
 ELEMENT N    1/2_MOLE_N2(G)             14.007     4335.0     95.751  ! 
$ ------------------------------------------------------------------------------
$ Species
$
 SPECIE  N2                                 N2 !
 SPECIE  N3                                 N3 !
$ ------------------------------------------------------------------------------
$ Phase definitions
$
 PHASE LIQUID:L % 1 1 !
 CONST LIQUID:L : MN N : !
$
$ Fcc (cF4, Fm-3m) and MeX (cF8, Fm-3m)
$
 PHASE FCC_A1 %A 2 1 1 !
 CONST FCC_A1 : MN : N VA% : !
$
$ Bcc (cI2, Im-3m)
$
 PHASE BCC_A2 %B 2 1 3 !
 CONST BCC_A2 : MN : N VA% : !
$
$ Hcp (hP2, P6_3/mmc) and Me2X (NiAs-type, hP4, P6_3/mmc, B8_1)
$
 PHASE HCP_A3 %A 2 1 0.5 !
 CONST HCP_A3 : MN : N VA% : !
$
$ Prototype alpha-Mn (cI58, I-43m)
$
 PHASE CBCC_A12 %A 2 1 1 !
 CONST CBCC_A12 : MN : N VA% : !
$
$ Prototype beta-Mn (cP20, P4_132)
$
 PHASE CUB_A13 % 2 1 1 !
 CONST CUB_A13 : MN : N VA% : !
$
$ Prototype Fe4N (cP5, Pm-3m, L'1)
$
 PHASE FE4N_L1 % 2 4 1 !
 CONST FE4N_L1 : MN : N% VA :!
$
$ Prototype Mn3N2 (tI10, I4/mmm)
$
 PHASE MN3N2 % 2 3 2 !
 CONST MN3N2 : MN : N :!
$
$ Prototype CoO (tI4, I4/mmm); distorted NaCl
$
 PHASE MN6N5 % 2 6 5 !
 CONST MN6N5 : MN : N :!
$
 PHASE GAS:G % 1 1 !
 CONST GAS:G : MN N N2 N3 : !
$
 PHASE N2GAS % 1 1 !
 CONST N2GAS : N2 : !
$ ------------------------------------------------------------------------------
$ Defaults
$
 DEFINE-SYSTEM-DEFAULT ELEMENT 2 !
 DEFAULT-COM DEFINE_SYSTEM_ELEMENT VA !
 DEFAULT-COM REJECT_PHASE N2GAS !
 TYPE-DEF % SEQ * !
 TYPE-DEF A GES AMEND_PHASE_DESCRIPTION @ MAGNETIC -3 0.28 !
 TYPE-DEF B GES AMEND_PHASE_DESCRIPTION @ MAGNETIC -1 0.4 !
 FUNCTION ZERO      298.15  0;                                         6000 N !
 FUNCTION UN_ASS    298.15  0;                                         6000 N !
 FUNCTION R         298.15  +8.31451;                                  6000 N !
 FUNCTION RTLNP     298.15  +8.31451*T*LN(1E-05*P);                    6000 N !
$ ------------------------------------------------------------------------------
$ Element data
$ ------------------------------------------------------------------------------
$ Mn
$
 PAR  G(CBCC_A12,MN:VA),,               +GHSERMN;                2000 N 91Din !
 PAR  TC(CBCC_A12,MN:VA),,               -285.00;                2000 N 91Din !
 PAR  BM(CBCC_A12,MN:VA),,                 -0.66;                2000 N 91Din !
 PAR  G(CUB_A13,MN:VA),,                +GCUBMN;                 2000 N 91Din !
 PAR  G(FCC_A1,MN:VA),,                 +GFCCMN;                 2000 N 91Din !
 PAR  TC(FCC_A1,MN:VA),,                -1620.00;                2000 N 91Din !
 PAR  BM(FCC_A1,MN:VA),,                   -1.86;                2000 N 91Din !
 PAR  G(BCC_A2,MN:VA),,                 +GBCCMN;                 2000 N 91Din !
 PAR  TC(BCC_A2,MN:VA),,                 -580.00;                2000 N 91Din !
 PAR  BM(BCC_A2,MN:VA),,                   -0.27;                2000 N 91Din !
 PAR  G(HCP_A3,MN:VA),,                 +GHCPMN;                 2000 N 91Din !
 PAR  TC(HCP_A3,MN:VA),,                -1620.00;                2000 N 91Din !
 PAR  BM(HCP_A3,MN:VA),,                   -1.86;                2000 N 91Din !
 PAR  G(LIQUID,MN),,                    +GLIQMN;                 2000 N 91Din !
$
 PAR  G(GAS,MN),,                       +F12439T+RTLNP;,,             N 97SUB !
$
 PAR  G(FE4N_L1,MN:VA),,                +4*GFCCMN+20000;,,           N 17Hal12 !
$
 FUNCTION GHSERMN   298.15  -8115.28+130.059*T-23.4582*T*LN(T)
       -0.00734768*T**2+69827*T**(-1);
      1519.00  Y  -28733.41+312.2648*T-48*T*LN(T)+1.656847E+30*T**(-9);
      2000.00  N !
 FUNCTION GCUBMN    298.15  -5800.4+135.995*T-24.8785*T*LN(T)
       -0.00583359*T**2+70269*T**(-1);
      1519.00  Y  +442.65-0.9715*T+GHSERMN+2.310723E+30*T**(-9);
      2000.00  N !
 FUNCTION GFCCMN    298.15  -3439.3+131.884*T-24.5177*T*LN(T)
       -0.006*T**2+69600*T**(-1);
      1519.00  Y  +2663.31-2.5984*T+GHSERMN+2.205113E+30*T**(-9);
      2000.00  N !
 FUNCTION GBCCMN    298.15  -3235.3+127.85*T-23.7*T*LN(T)
       -0.00744271*T**2+60000*T**(-1);
      1519.00  Y  +5544.58-4.5605*T+GHSERMN-3.91695E+29*T**(-9);
      2000.00  N !
 FUNCTION GHCPMN    298.15  -4439.3+133.007*T-24.5177*T*LN(T)
       -0.006*T**2+69600*T**(-1);
      1519.00  Y  +1663.31-1.4754*T+GHSERMN+2.205113E+30*T**(-9);
      2000.00  N !
 FUNCTION GLIQMN    298.15  +17859.91-12.6208*T+GHSERMN-4.41929E-21*T**7;
      1519.00  Y  -9993.9+299.036*T-48*T*LN(T);
      2000.00  N !
$ Mn(g)
 FUNCTION F12439T  298.15  +276164.054-34.4987547*T-20.786*T*LN(T);
      1575.00  Y  +275547.585-29.2480566*T-21.52064*T*LN(T)
       +3.819474E-04*T**2-3.66030333E-08*T**3+95180.95*T**(-1);
      2100.00  Y  +274521.741-16.3844926*T-23.35302*T*LN(T)
       +0.0013469965*T**2-1.18903067E-07*T**3;
      2400.00  N !
$ ------------------------------------------------------------------------------
$ N
$
$ There is a small change in G(GAS,N) from SGSUB 1992 to 1994
$ G(GAS,N2) has a competely different expression in SGSUB 1994 and 1997
$ compared to the unary database.
$ G(GAS,N3) is considerably changed from SGSUB 1992 to 1994.
$
 PAR  G(N2GAS,N2),,                     +2*GHSERNN+RTLNP;,,           N 91Din !
 PAR  G(LIQUID,N),,                     +GHSERNN+29950+59.02*T;,,     N 91Din !
$
 PAR  G(GAS,N),,                        +F12658T+RTLNP;,,             N 97SUB !
 PAR  G(GAS,N2),,                       +2*GHSERNN+RTLNP;,,           N 91Din !
 PAR  G(GAS,N3),,                       +F12909T+RTLNP;,,             N 97SUB !
$
 FUNCTION GHSERNN   298.15  -3750.675-9.45425*T-12.7819*T*LN(T)
       -0.00176686*T**2+2.681E-09*T**3-32374*T**(-1);
       950.00  Y  -7358.85+17.2003*T-16.3699*T*LN(T)
       -6.5107E-04*T**2+3.0097E-08*T**3+563070*T**(-1);
      3350.00  Y  -16392.8+50.26*T-20.4695*T*LN(T)
       +2.39754E-04*T**2-8.333E-09*T**3+4596375*T**(-1);
      6000.00  N !
$ N(g)
 FUNCTION F12658T   298.15  +466446.153-13.3752574*T-20.89393*T*LN(T)
       +8.45521E-05*T**2-1.0018685E-08*T**3+2788.7865*T**(-1);
      2950.00  Y  +481259.035-52.5441353*T-16.37613*T*LN(T)
       -2.283738E-04*T**2-2.78997167E-08*T**3-7559105*T**(-1);
      6000.00  N !
$ N2(g) from SGSUB 1997
 FUNCTION F12845T   298.15  -8000.12556-8.81620364*T-27.22332*T*LN(T)
       -0.0012599175*T**2-5.39381E-07*T**3-38326.695*T**(-1);
       800.00  Y  -10569.6463+2.77534156*T-28.42384*T*LN(T)
       -0.003189275*T**2+2.06638E-07*T**3+416969.05*T**(-1);
      2200.00  Y  -22468.6305+71.8176271*T-37.55014*T*LN(T)
       -6.158995E-06*T**2-4.22547E-09*T**3+3427512*T**(-1);
      6000.00  N !
$ N3(g)
 FUNCTION F12909T   298.15  +426260.222-44.8788468*T-24.40177*T*LN(T)
       -0.02510581*T**2+3.41313667E-06*T**3+61652.95*T**(-1);
       800.00  Y  +409926.892+144.323862*T-52.34995*T*LN(T)
       -0.0035522355*T**2+2.39819667E-07*T**3+1869491.5*T**(-1);
      2200.00  Y  +398090.062+216.588607*T-61.96494*T*LN(T)
       -5.55378E-05*T**2+1.47712917E-09*T**3+4654831*T**(-1);
      6000.00  N !
$ ------------------------------------------------------------------------------
$ Binary system
$
$ From C. Qiu and AFG (Included in LB Vol. 4)
$
$ C. Qiu, A. Fernandez Guillermet, Z. Metallkd., 84, 11-22(1993).
$
$ Checked against LB and paper. Checked at 6000 K.
$
$ There are no strange features when the gas is not included.
$
$ MN6N5 appears to have a distorted NaCl structure. It should possibly be
$ modelled as FCC_A1.
$
$ Va added on the second sublattice of FE4N_L1 to be compatible with
$ Fe-N from 93Du. This adds a narrow solubility range for FE4N_L1 and
$ invariant equilibria on the Mn-rich side of FE4N_L1 increase by about 10 K.
$
 PAR  L(LIQUID,MN,N;0),,                -142308+6.0759*T;,,           N 93Qiu !
 PAR  L(LIQUID,MN,N;1),,                +32906;,,                     N 93Qiu !
$
 PAR  G(BCC_A2,MN:N),,                  -55600+606.648*T
             -100.41*T*LN(T)+844897*T**(-1);,,                        N 93Qiu !
 PAR  L(BCC_A2,MN:N,VA;0),,             -185000;,,                    N 93Qiu !
$
 PAR  G(FCC_A1,MN:N),,                  -75940+292.226*T
             -50.294*T*LN(T)+265051*T**(-1);,,                        N 93Qiu !
 PAR  L(FCC_A1,MN:N,VA;0),,             -69698+11.5845*T;,,           N 93Qiu !
$
 PAR  G(HCP_A3,MN:N),,                  -60607+211.1804*T
             -37.7331*T*LN(T)+129442*T**(-1);,,                       N 93Qiu !
 PAR  L(HCP_A3,MN:N,VA;0),,             -7194-5.2075*T;,,             N 93Qiu !
 PAR  L(HCP_A3,MN:N,VA;1),,             -11810+6.9538*T;,,            N 93Qiu !
$
 PAR  G(CBCC_A12,MN:N),,                -53114+299.266*T
             -50.216*T*LN(T)+358309*T**(-1);,,                        N 93Qiu !
 PAR  L(CBCC_A12,MN:N,VA;0),,           -58869;,,                     N 93Qiu !
$
 PAR  G(CUB_A13,MN:N),,                 -67484+299.266*T
             -50.216*T*LN(T)+358309*T**(-1);,,                        N 93Qiu !
 PAR  L(CUB_A13,MN:N,VA;0),,            -58869;,,                     N 93Qiu !
$
 PAR  G(FE4N_L1,MN:N),,                 -155790+691.0638*T
             -126.9328*T*LN(T)+307417*T**(-1);,,                      N 93Qiu !
 PAR  G(MN3N2,MN:N),,                   -232807+714.166*T
             -125.6685*T*LN(T)+513949*T**(-1);,,                      N 93Qiu !
 PAR  G(MN6N5,MN:N),,                   -546880+1591.607*T
             -276.668*T*LN(T)+1297983*T**(-1);,,                      N 93Qiu !
$
$ metastable
$
$PAR  G(CEMENTITE_D011,MN:N),,          +3*GHSERMN+GHSERNN+40000;,,   N 99Lee !
$ ------------------------------------------------------------------------------
$
$
 LIST-OF-REFERENCE
 NUMBER  SOURCE
  Null   'Unknown source'
  91Din  'A.T. Dinsdale, Calphad, 15, 317-425(1991).'
  93Qiu  'C. Qiu, A. Fernandez Guillermet, Z. Metallkd., 84, 11-22(1993); Mn-N'
  97SUB  'SGTE Substance Database, version 1997'
  99Lee  'B.-J. Lee, unpublished, 1999'
  17Hal12 'B. Hallstedt, added parameters for FE4N_L1, 2017;
           Fe-N, Cr-Fe-N, Fe-Mn-N'
!
