$
$ Database for Al-Er from L. Xu et al. 2022.
$
$ L. Xu, X. Shi, D. Xia, D. Huang, H. Tang, Calphad, 79, 102482(2022).
$
$ Dataset created 2023.05.20 by Bengt Hallstedt.
$
$ Al3Er-L12 is found to be metastable. Instead the Al3Ho type structure is
$ the stable form of Al3Er.
$
$ ------------------------------------------------------------------------------
 TEMP-LIM 298.15 6000.00 !
$
$ELEMENT NAME  REF. STATE               ATOMIC MASS H298-H0    S298    !
$
 ELEMENT VA   VACUUM                      0.0          0.0      0.0    ! 
 ELEMENT AL   FCC_A1                     26.98154   4540.      28.30   ! 
 ELEMENT ER   HCP_A3                    167.26      7392.2912  73.17816! 
$ ------------------------------------------------------------------------------
$ Phase definitions
$
 PHASE LIQUID:L % 1 1 !
 CONST LIQUID:L : AL ER : !
$
$ Fcc (cF4, Fm-3m) and MeX (cF8, Fm-3m)
$
 PHASE FCC_A1 %A 2 1 1 !
 CONST FCC_A1 : AL% ER : VA : !
$
$ Bcc (cI2, Im-3m)
$
 PHASE BCC_A2 %B 2 1 3 !
 CONST BCC_A2 : AL ER : VA : !
$
$ Hcp (hP2, P6_3/mmc) and Me2X (NiAs-type, hP4, P6_3/mmc, B8_1)
$
 PHASE HCP_A3 %A 2 1 0.5 !
 CONST HCP_A3 : AL ER% : VA : !
$
$ Prototype Al3Ho (hR20, R-3m)
$
 PHASE AL3ER % 2 3 1 !
 CONST AL3ER : AL : ER : !
$
$ Prototype Cu2Mg (cF24, Fd-3m)
$
 PHASE AL2ER_C15 % 2 2 1 !
 CONST AL2ER_C15 : AL% ER : AL ER% : !
$
$ Prototype AlDy (oP16, Pbcm)
$
 PHASE ALER % 2 1 1 !
 CONST ALER : AL : ER : !
$
$ Prototype Al2Zr3 (tP20, P4_2/mnm)
$
 PHASE AL2ER3 % 2 2 3 !
 CONST AL2ER3 : AL : ER : !
$
$ Prototype Co2Si (oP12, Pnma)
$
 PHASE ALER2_C37 % 2 1 2 !
 CONST ALER2_C37 : AL : ER : !
$ ------------------------------------------------------------------------------
$ Defaults
$
 DEFINE-SYSTEM-DEFAULT ELEMENT 2 !
 DEFAULT-COM DEFINE_SYSTEM_ELEMENT VA !
 TYPE-DEF % SEQ * !
 TYPE-DEF A GES AMEND_PHASE_DESCRIPTION @ MAGNETIC -3 0.28 !
 TYPE-DEF B GES AMEND_PHASE_DESCRIPTION @ MAGNETIC -1 0.4 !
 FUNCTION ZERO      298.15  0;                                         6000 N !
 FUNCTION UN_ASS    298.15  0;                                         6000 N !
 FUNCTION R         298.15  +8.31451;                                  6000 N !
$ ------------------------------------------------------------------------------
$ Element data
$ ------------------------------------------------------------------------------
$ Al
$
$ BCT_A5 and DIAMOND_A4 added in unary 3.0
$
 PAR  G(FCC_A1,AL:VA),,                 +GHSERAL;                2900 N 91Din !
 PAR  G(BCC_A2,AL:VA),,                 +GHSERAL+10083-4.813*T;  2900 N 91Din !
 PAR  G(HCP_A3,AL:VA),,                 +GHSERAL+5481-1.8*T;     2900 N 91Din !
$PAR  G(CBCC_A12,AL:VA),,               +GHSERAL
$            +10083.4-4.813*T;                                   2900 N 91Din !
$PAR  G(CUB_A13,AL:VA),,                +GHSERAL
$            +10920.44-4.8116*T;                                 2900 N 91Din !
$PAR  G(BCT_A5,AL),,                    +GHSERAL+10083-4.813*T;  2900 N SGCOST !
$PAR  G(DIAMOND_A4,AL),,                +GHSERAL+30*T;           2900 N SGCOST !
 PAR  G(LIQUID,AL),,                    +GLIQAL;                 2900 N 91Din !
$
 PAR  G(AL2ER_C15,AL:AL),,              +3*GHSERAL+15000;,,           N REFLAV !
$
 FUNCTION GHSERAL   298.15  -7976.15+137.093038*T-24.3671976*T*LN(T)
       -0.001884662*T**2-8.77664E-07*T**3+74092*T**(-1);
       700.00  Y  -11276.24+223.048446*T-38.5844296*T*LN(T)
       +0.018531982*T**2 -5.764227E-06*T**3+74092*T**(-1);
       933.47  Y  -11278.361+188.684136*T-31.748192*T*LN(T)
       -1.230622E+28*T**(-9);
      2900.00  N !
 FUNCTION GLIQAL    298.15  +11005.045-11.84185*T+GHSERAL+7.9337E-20*T**7;
       933.47  Y  -795.991+177.430209*T-31.748192*T*LN(T);
      2900.00  N !
 FUNCTION GBCCAL    298.15  +GHSERAL+10083-4.813*T;                    2900 N !
$ ------------------------------------------------------------------------------
$ Er
$
$ BCC_A2 added in unary 4.4
$
$ FCC_A1 from 02Cac not included in unary (but it should be)
$
 PAR  G(HCP_A3,ER:VA),,                 +GHSERER;                3200 N 91Din !
 PAR  G(FCC_A1,ER:VA),,                 +GHSERER
             +1950-0.831451*T;                                   3200 N 02Cac !
 PAR  G(BCC_A2,ER:VA),,                 +GHSERER
             +4600-2.494353*T;                                   3200 N 00Nor1 !
 PAR  G(LIQUID,ER),,                    +GLIQER;                 3200 N 91Din !
$
 PAR  G(AL2ER_C15,ER:ER),,              +3*GHSERER+15000;,,           N REFLAV !
$
 FUNCTION GHSERER   298.15  -8489.136+116.698964*T-28.3846744*T*LN(T)
       +9.95792E-04*T**2-9.52557E-07*T**3+9581*T**(-1);
      1802.00  Y  -445688.206+2233.10212*T-298.135131*T*LN(T)
       +0.065950553*T**2-3.041405E-06*T**3+1.23973199E+08*T**(-1);
      3200.00  N !
 FUNCTION GLIQER    298.15  +19382.102-10.241846*T+GHSERER;
       500.00  Y  +17912.678+0.355564*T-12.0761776*T*LN(T)
       -0.014414687*T**2+1.316517E-06*T**3-528122*T**(-1);
      1802.00  Y  +747.131+187.623024*T-38.702*T*LN(T);
      3200.00  N !
$ ------------------------------------------------------------------------------
$ Binary system
$
$ L. Xu, X. Shi, D. Xia, D. Huang, H. Tang, Calphad, 79, 102482(2022).
$
$ Checked against paper and author's tdb. Checked at 6000 K.
$
$ Al3Er-L12 is found to be metastable. Instead the Al3Ho type structure is
$ the stable form of Al3Er.
$
 PAR  L(LIQUID,AL,ER;0),,               -128871.0165+10.0021*T;,,     N 22Xu !
 PAR  L(LIQUID,AL,ER;1),,               -61600.0012+27.7139*T;,,      N 22Xu !
 PAR  L(LIQUID,AL,ER;2),,               +19653.1058+0.4103*T;,,       N 22Xu !
$
 PAR  L(FCC_A1,AL,ER:VA;0),,            +UN_ASS;,,                    N !
 PAR  L(HCP_A3,AL,ER:VA;0),,            +UN_ASS;,,                    N !
$
 PAR  G(AL3ER,AL:ER),,                  +3*GHSERAL+GHSERER
             -170800+24.246*T;,,                                      N 22Xu !
$
 PAR  G(AL2ER_C15,AL:ER),,              -170230+354.7501*T
             -70.0816*T*LN(T)-0.008412*T**2+2.9436E-07*T**3
             +176440*T**(-1);,,                                       N 22Xu !
 PAR  G(AL2ER_C15,ER:AL),,              +2*GHSERER+GHSERAL
             +195000-40.338*T;,,                                      N 02Cac !
 PAR  L(AL2ER_C15,AL,ER:ER;0),,         +2000;,,                      N 22Xu !
 PAR  L(AL2ER_C15,AL:AL,ER;0),,         +2000;,,                      N 22Xu !
$
 PAR  G(ALER,AL:ER),,                   +GHSERAL+GHSERER
             -80000+3.5612*T;,,                                       N 22Xu !
 PAR  G(AL2ER3,AL:ER),,                 +2*GHSERAL+3*GHSERER
             -167500+3.5405*T;,,                                      N 22Xu !
 PAR  G(ALER2_C37,AL:ER),,              +GHSERAL+2*GHSERER
             -87000+2.5056*T;,,                                       N 22Xu !
$ ------------------------------------------------------------------------------
$
$
 LIST-OF-REFERENCE
 NUMBER  SOURCE
  Null   'Unknown source'
  Same   'Same or similar interaction as in the corresponding stable phase'
  REFLAV 'Laves phase convention: G(LAVES,X:X)=+3*GHSERXX+15000'
  COST   'COST 507 database'
  SGCOST 'COST 507 database, SGTE unary database V.3.0, 1996; Al, B, Nd, Ti, Zn'
  91Din  'A.T. Dinsdale, Calphad, 15, 317-425(1991).'
  00Nor1 'S. Norgren, J. Phase Equilib., 21, 148-56(2000),
          SGTE unary database V.4.4, 2001; Er, Ho'
  02Cac  'G. Cacciamani, A. Saccone, S. De Negri, R. Ferro,
          J. Phase Equilib., 23, 38-50(2002); Er, Al-Er'
  22Xu   'L. Xu, X. Shi, D. Xia, D. Huang, H. Tang,
          Calphad, 79, 102482(2022); Al-Er'
!
