$
$ Database for Fe-Mn from S. Bigdeli and M. Selleby 2019.
$
$ S. Bigdeli, M. Selleby, Calphad, 64, 185-95(2019).
$
$ Dataset created 2021.11.06 by Bengt Hallstedt.
$
$ This database cannot be used with GES6. It does not understand the THETA
$ identifier.
$
$ 3rd generation modelling. New magnetic models.
$
$ The dataset was created based on the tdb from the authors in the
$ supplemental material. It would not have been possible to construct the
$ present tdb from the information in the paper only.
$
$ Note! The elemental G-functions do not include the Einstein contribution.
$ This is included in the separate THETA functions.
$
$ ------------------------------------------------------------------------------
 TEMP-LIM 0.01 6000.00 !
$
$ELEMENT NAME  REF. STATE               ATOMIC MASS H298-H0    S298    !
$
 ELEMENT VA   VACUUM                      0.0          0.0      0.0    ! 
 ELEMENT FE   BCC_A2                     55.847     4489.0     27.2797 ! 
 ELEMENT MN   CBCC_A12                   54.9380    4995.696   32.2206 ! 
$ ------------------------------------------------------------------------------
$ Phase definitions
$
 PHASE LIQUID:L % 1 1 !
 CONST LIQUID:L : FE MN : !
$
$ Fcc (cF4, Fm-3m) and MeX (cF8, Fm-3m)
$
 PHASE FCC_A1 %A 2 1 1 !
 CONST FCC_A1 : FE% MN% : VA : !
$
$ Bcc (cI2, Im-3m)
$
 PHASE BCC_A2 %B 2 1 3 !
 CONST BCC_A2 : FE% MN% : VA : !
$
$ Hcp (hP2, P6_3/mmc) and Me2X (NiAs-type, hP4, P6_3/mmc, B8_1)
$
 PHASE HCP_A3 %A 2 1 0.5 !
 CONST HCP_A3 : FE MN : VA : !
$
$ Prototype alpha-Mn (cI58, I-43m)
$
 PHASE CBCC_A12 %A 2 1 1 !
 CONST CBCC_A12 : FE MN% : VA : !
$
$ Prototype beta-Mn (cP20, P4_132)
$
 PHASE CUB_A13 % 2 1 1 !
 CONST CUB_A13 : FE MN% : VA : !
$ ------------------------------------------------------------------------------
$ Defaults
$
 DEFINE-SYSTEM-DEFAULT ELEMENT 2 !
 DEFAULT-COM DEFINE_SYSTEM_ELEMENT VA !
 TYPE-DEF % SEQ * !
 TYPE-DEF A GES AMEND_PHASE_DESCRIPTION @ MAGNETIC 0.0 0.25 !
 TYPE-DEF B GES AMEND_PHASE_DESCRIPTION @ MAGNETIC 0.0 0.37 !
 FUNCTION ZERO      298.15  0;                                         6000 N !
 FUNCTION UN_ASS    298.15  0;                                         6000 N !
 FUNCTION R           0.01  +8.31451;                                  6000 N !
 FUNCTION TINV      298.15  +T**(-1);                                  6000 N !
 FUNCTION RTINV     298.15  +R**(-1)*TINV;                             6000 N !
$ ------------------------------------------------------------------------------
$ Element data
$ ------------------------------------------------------------------------------
$ Fe
$
 PAR  G(BCC_A2,FE:VA),,                 +GHSERFE;,,                   N 01Che !
 PAR  THETA(BCC_A2,FE:VA),,             +LN(309);,,                   N 01Che !
 PAR  TC(BCC_A2,FE:VA),,                +1043.00;,,                   N 91Din !
 PAR  NT(BCC_A2,FE:VA),,                -1043.00;,,                   N 91Din !
 PAR  BMAG(BCC_A2,FE:VA),,                  2.22;,,                   N 91Din !
 PAR  G(FCC_A1,FE:VA),,                 +GFCCFE;,,                    N 01Che !
 PAR  THETA(FCC_A1,FE:VA),,             +LN(309);,,                   N 01Che !
 PAR  TC(FCC_A1,FE:VA),,                  -67.00;,,                   N 19Big !
 PAR  NT(FCC_A1,FE:VA),,                  +67.00;,,                   N 19Big !
 PAR  BMAG(FCC_A1,FE:VA),,                  0.70;,,                   N 19Big !
 PAR  G(HCP_A3,FE:VA),,                 +GHCPFE;,,                    N 16Big !
 PAR  THETA(HCP_A3,FE:VA),,             +LN(281);,,                   N 16Big !
 PAR  NT(HCP_A3,FE:VA),,                 +100.00;,,                   N 16Big !
 PAR  BMAG(HCP_A3,FE:VA),,                  0.10;,,                   N 16Big !
 PAR  G(CBCC_A12,FE:VA),,               +GHSERFE+4745;,,              N 91Din !
 PAR  THETA(CBCC_A12,FE:VA),,           +LN(309);,,                   N 19Big !
 PAR  G(CUB_A13,FE:VA),,                +GHSERFE+3745;,,              N 91Din !
 PAR  THETA(CUB_A13,FE:VA),,            +LN(309);,,                   N 19Big !
 PAR  G(LIQUID,FE),,                    +GLIQFE;,,                    N 01Che !
 PAR  THETA(LIQUID,FE),,                +LN(245);,,                   N 01Che !
 PAR  GD(LIQUID,FE),,                   +42754.9478-7.624*T
             -1.08230446*T*LN(T);,,                                   N 01Che !
 PAR  TC(LIQUID,FE),,                    +200.00;,,                   N 01Che !
 PAR  NT(LIQUID,FE),,                    -200.00;,,                   N 01Che !
 PAR  BMAG(LIQUID,FE),,                     1.70;,,                   N 01Che !
$
 FUNCTION GHSERFE     0.01  +GGBCCL+8927.2831-9.7228331*T;
      1811.00  Y  +GGBCCH+8927.2831-9.7228331*T;
      6000.00  N !
 FUNCTION GFCCFE      0.01  +GGFCCL+249.14486-4.4119139*T;
      1811.00  Y  +GGFCCH+249.14486-4.4119139*T;
      6000.00  N !
 FUNCTION GHCPFE      0.01  +GGHCPL+66.7922465-0.79245744*T;
      1811.00  Y  +GGHCPH+66.7922465-0.79245744*T;
      6000.00  N !
 FUNCTION GLIQFE      0.01  +7103.20801-0.0019730116*T**2
       +1392.1182-8.2584018*T;
      6000.00  N !
$
 FUNCTION GGBCCL      0.01  -8410.26596-0.0032390815*T**2
       -3.3191338E-14*T**5;
      6000.00  N !
 FUNCTION GGBCCH      0.01  -33208.4173+165.40504*T-21.0474823*T*LN(T)
       -2.7818280E+18*T**(-5)+4.2811788E+37*T**(-11);
      6000.00  N !
 FUNCTION GGFCCL      0.01  -2615.00904-0.0027933375*T**2
       -2.1239087E-14*T**5+G2STFCC;
      6000.00  N !
 FUNCTION GGFCCH      0.01  -32389.5438+168.31394*T-20.9834791*T*LN(T)
      +9.2444598E+18*T**(-5)-1.4750509E+37*T**(-11)+G2STFCC;
      6000.00  N !
 FUNCTION GGHCPL      0.01  -3307.07993-0.00431797569*T**2
       -2.1239086E-14*T**5;
      6000.00  N !
 FUNCTION GGHCPH      0.01  -24924.6659+161.764208*T-21.0325858*T*LN(T)
       -4.71013343E+18*T**(-5);
      6000.00  N !
$
 FUNCTION G2STFCC1    0.01  +9023.52375-2.49522260*T;                  6000 N !
 FUNCTION G2STFCC2    0.01  -G2STFCC1*RTINV;                           6000 N !
 FUNCTION G2STFCC3    0.01  +1+EXP(G2STFCC2);                          6000 N !
 FUNCTION G2STFCC4    0.01  +LN(G2STFCC3);                             6000 N !
 FUNCTION G2STFCC     0.01  -R*T*G2STFCC4;                             6000 N !
$ ------------------------------------------------------------------------------
$ Mn
$
 PAR  G(CBCC_A12,MN:VA),,               +GHSERMN;,,                   N 15Big !
 PAR  THETA(CBCC_A12,MN:VA),,           +LN(287.6);,,                 N 15Big !
 PAR  TC(CBCC_A12,MN:VA),,                -95.00;,,                   N 91Din !
 PAR  NT(CBCC_A12,MN:VA),,                +95.00;,,                   N 91Din !
 PAR  BMAG(CBCC_A12,MN:VA),,                0.22;,,                   N 91Din !
 PAR  G(CUB_A13,MN:VA),,                +GCUBMN;,,                    N 15Big !
 PAR  THETA(CUB_A13,MN:VA),,            +LN(247.8);,,                 N 15Big !
 PAR  G(FCC_A1,MN:VA),,                 +GFCCMN;,,                    N 15Big !
 PAR  THETA(FCC_A1,MN:VA),,             +LN(257.5);,,                 N 15Big !
 PAR  TC(FCC_A1,MN:VA),,                 -540.00;,,                   N 91Din !
 PAR  NT(FCC_A1,MN:VA),,                 +540.00;,,                   N 91Din !
 PAR  BMAG(FCC_A1,MN:VA),,                  0.62;,,                   N 91Din !
 PAR  G(BCC_A2,MN:VA),,                 +GBCCMN;,,                    N 15Big !
 PAR  THETA(BCC_A2,MN:VA),,             +LN(265);,,                   N 15Big !
 PAR  TC(BCC_A2,MN:VA),,                 -580.00;,,                   N 91Din !
 PAR  NT(BCC_A2,MN:VA),,                 +580.00;,,                   N 91Din !
 PAR  BMAG(BCC_A2,MN:VA),,                  0.27;,,                   N 91Din !
 PAR  G(HCP_A3,MN:VA),,                 +GHCPMN;,,                    N 16Big !
 PAR  THETA(HCP_A3,MN:VA),,             +LN(438.5);,,                 N 16Big !
 PAR  G(LIQUID,MN),,                    +13256.8283
             -0.00175574940*T**2;,,                                   N 15Big !
 PAR  THETA(LIQUID,MN),,                +LN(119.5);,,                 N 15Big !
 PAR  GD(LIQUID,MN),,                   +50493.6966-8.314*T
             -1.07778322*T*LN(T);,,                                   N 15Big !
$
 FUNCTION GHSERMN     0.01  +GGMNCBCL+665.748761*MNCBCCB
       -8.31451*MNCBCCB*T;
      1519.00  Y  +GGMNCBCH+665.748761*MNCBCCB-8.31451*MNCBCCB*T;
      6000.00  N !
 FUNCTION GCUBMN      0.01  +GGMNCUBL;
      1519.00  Y  +GGMNCUBH;
      6000.00  N !
 FUNCTION GFCCMN      0.01  +GGMNFCCL+3784.25628*MNFCCB
       -8.31451*MNFCCB*T;
      1519.00  Y  +GGMNFCCH+3784.25628*MNFCCB-8.31451*MNFCCB*T;
      6000.00  N !
 FUNCTION GBCCMN      0.01  +GGMNBCCL+4245.28448*MNBCCB
       -8.31451*MNBCCB*T;
      1519.00  Y  +GGMNBCCH+4245.28448*MNBCCB-8.31451*MNBCCB*T;
      6000.00  N !
 FUNCTION GHCPMN      0.01  +GGMNHCPL;
      1519.00  Y  +GGMNHCPH;
      6000.00  N !
$
 FUNCTION GGMNCBCL    0.01  -8621.707-0.0054695069*T**2
       +3.6645644E-08*T**3-2.5888450E-14*T**5;
      6000.00  N !
 FUNCTION GGMNCBCH    0.01  -25954.3280+130.733410*T+20.1788630*T
       -20.1788630*T*LN(T)-7.41738730E+17*T**(-5)+3.57220000E+36*T**(-11);
      6000.00  N !
 FUNCTION MNCBCCB     0.01  +LN(1.22);                                 6000 N !
 FUNCTION GGMNCUBL    0.01  -6181.4708-0.0057218755*T**2
       +8.9632678E-12*T**3-1.9360399E-14*T**5;
      6000.00  N !
 FUNCTION GGMNCUBH    0.01  -24465.161+136.701980*T+21.0957190*T
       -21.0957190*T*LN(T)-3.96700000E+17*T**(-5)+2.9953E+36*T**(-11);
      6000.00  N !
 FUNCTION GGMNFCCL    0.01  -5356.3280-0.0044627084*T**2
       -3.7906096E-10*T**4+8.1018765E-14*T**5;
      6000.00  N !
 FUNCTION GGMNFCCH    0.01  -22440.434+135.25456*T+20.797951*T
       -20.797951*T*LN(T)-1.8964000E+18*T**(-5)+5.2080000E+36*T**(-11);
      6000.00  N !
 FUNCTION MNFCCB      0.01  +LN(1.62);                                 6000 N !
 FUNCTION GGMNBCCL    0.01  -4692.6774-0.0068464920*T**2
       -3.2311349E-15*T**5;
      6000.00  N !
 FUNCTION GGMNBCCH    0.01  -18620.432+127.31728*T+20.301009*T
       -20.301009*T*LN(T)-2.2035000E+18*T**(-5)+5.1886000E+36*T**(-11);
      6000.00  N !
 FUNCTION MNBCCB      0.01  +LN(1.27);                                 6000 N !
 FUNCTION GGMNHCPL    0.01  -9755.88935-0.00699764166*T**2
       +4.12888434E-15*T**5;
      6000.00  N !
 FUNCTION GGMNHCPH    0.01  -25379.581+133.19315*T+21.0957581*T
       -21.0957581*T*LN(T)-1.1043E+18*T**(-5)+3.3993E+36*T**(-11);
      6000.00  N !
$ ------------------------------------------------------------------------------
$ Binary system
$
$ S. Bigdeli, M. Selleby, Calphad, 64, 185-95(2019).
$
$ Checked against paper and author's tdb. Checked at 6000 K.
$
$ This database cannot be used with GES6. It does not understand the THETA
$ identifier.
$
$ 3rd generation modelling. New magnetic models.
$
$ The dataset was created based on the tdb from the authors in the
$ supplemental material. It would not have been possible to construct the
$ present tdb from the information in the paper only.
$
$ Note! The elemental G-functions do not include the Einstein contribution.
$ This is included in the separate THETA functions.
$
 PAR  L(LIQUID,FE,MN;0),,               -3235.6397+1.7*T;,,           N 19Big !
 PAR  L(LIQUID,FE,MN;1),,               +1238.0658;,,                 N 19Big !
$
 PAR  L(FCC_A1,FE,MN:VA;0),,            -6028.5622+4.4*T;,,           N 19Big !
 PAR  L(FCC_A1,FE,MN:VA;1),,            -6276.8602+4.1*T;,,           N 19Big !
 PAR  NT(FCC_A1,FE,MN:VA;0),,            +822.58149;,,                N 19Big !
 PAR  NT(FCC_A1,FE,MN:VA;1),,            +987.65039;,,                N 19Big !
 PAR  NT(FCC_A1,FE,MN:VA;2),,           -1459.9075;,,                 N 19Big !
 PAR  BMAG(FCC_A1,FE,MN:VA;0),,            +2.1;,,                    N 19Big !
 PAR  BMAG(FCC_A1,FE,MN:VA;1),,            +6.3;,,                    N 19Big !
 PAR  BMAG(FCC_A1,FE,MN:VA;2),,            +9.4;,,                    N 19Big !
$
 PAR  L(BCC_A2,FE,MN:VA;0),,            +3224.5301-0.54315679*T;,,    N 19Big !
 PAR  L(BCC_A2,FE,MN:VA;1),,            +623.35797+0.34024676*T;,,    N 19Big !
 PAR  TC(BCC_A2,FE,MN:VA;0),,            +703.58783;,,                N 19Big !
 PAR  NT(BCC_A2,FE,MN:VA;0),,            -703.58783;,,                N 19Big !
 PAR  BMAG(BCC_A2,FE,MN:VA;0),,            +1.0623787;,,              N 19Big !
$
 PAR  L(HCP_A3,FE,MN:VA;0),,            -7068.8014+16.551037*T;,,     N 19Big !
 PAR  L(HCP_A3,FE,MN:VA;1),,            -14337.849;,,                 N 19Big !
$
 PAR  L(CBCC_A12,FE,MN:VA;0),,          -7187.9245;,,                 N 19Big !
 PAR  NT(CBCC_A12,FE,MN:VA;0),,         -2353.1230;,,                 N 19Big !
 PAR  NT(CBCC_A12,FE,MN:VA;1),,         -4034.2934;,,                 N 19Big !
$
 PAR  L(CUB_A13,FE,MN:VA;0),,           -7460.4218+1.8*T;,,           N 19Big !
$ ------------------------------------------------------------------------------
$
 ASSESSED_SYSTEM
  FE-MN(TDB -* +LIQUID +BCC_A2 +FCC_A1 +CBCC_A12 +CUB_A13
  ;P3 TMM:300/2300 STP:.4/1300/2/-2) !
$
$
 LIST-OF-REFERENCE
 NUMBER  SOURCE
  Null   'Unknown source'
  REFLAV 'Laves phase convention: G(LAVES,X:X)=+3*GHSERXX+15000'
  91Din  'A.T. Dinsdale, Calphad, 15, 317-425(1991).'
  01Che  'Q. Chen, B. Sundman, J. Phase Equilib., 22, 631-44(2001); Fe'
  15Big  'S. Bigdeli, H. Mao, M. Selleby,
          Phys. Status Solidi B, 252, 2199-2208(2015); Mn'
  16Big  'S. Bigdeli, H. Ehtehsami, Q. Chen, H. Mao, P. Korzhavy, M. Selleby,
          Phys. Status Solidi B, 253, 1830-36(2016); Fe, Mn'
  19Big  'S. Bigdeli, M. Selleby, Calphad, 64, 185-95(2019); Fe-Mn'
!
