$
$ Database for Pb-Yb from M. Idbenali et al. 2009.
$
$ M. Idbenali, C. Servant, N. Selhaoui, L. Bouirden, Calphad, 33, 570-75(2009).
$
$ Dataset created 2018.12.25 by Bengt Hallstedt.
$ 2021.02.03: Modified for use with GES6.
$
$ PBYB_A2 is most certainly not A2, but possibly B2.
$
$ Liquid becomes stable below 300 K at about x(Yb)=0.75.
$
$ ------------------------------------------------------------------------------
 TEMP-LIM 298.15 6000.00 !
$
$ELEMENT NAME  REF. STATE               ATOMIC MASS H298-H0    S298    !
$
 ELEMENT VA   VACUUM                      0.0          0.0      0.0    ! 
 ELEMENT PB   FCC_A1                    207.2       6870.      64.80   ! 
 ELEMENT YB   FCC_A1                    173.04      6711.136   59.8312 ! 
$ ------------------------------------------------------------------------------
$ Species
$
 SPECIE  PBYB2                              PB1YB2 !
$ ------------------------------------------------------------------------------
$ Phase definitions
$
 PHASE LIQUID:L % 1 1 !
 CONST LIQUID:L : PB PBYB2 YB : !
$
$ Fcc (cF4, Fm-3m) and MeX (cF8, Fm-3m)
$
 PHASE FCC_A1 %A 2 1 1 !
 CONST FCC_A1 : PB% YB% : VA : !
$
$ Bcc (cI2, Im-3m)
$
 PHASE BCC_A2 %B 2 1 3 !
 CONST BCC_A2 : PB YB% : VA : !
$
$ Hcp (hP2, P6_3/mmc) and Me2X (NiAs-type, hP4, P6_3/mmc, B8_1)
$
 PHASE HCP_A3 %A 2 1 0.5 !
 CONST HCP_A3 : PB YB : VA : !
$
$ Prototype AuCu3 (cP4, Pm-3m)
$
 PHASE PB3YB_L12 % 2 3 1 !
 CONST PB3YB_L12 : PB : YB : !
$
$ Prototype AuCu (tP2, P4/mmm)
$
 PHASE PBYB_L10 % 2 1 1 !
 CONST PBYB_L10 : PB% YB : YB : !
$
$ Prototype W (cI2, Im-3m)
$
 PHASE PBYB_A2 % 2 1 1 !
 CONST PBYB_A2 : PB% YB : YB : !
$
$ Prototype Mn5Si3 (hP16, P6_3/mcm)
$
 PHASE PB3YB5_D88 % 2 3 5 !
 CONST PB3YB5_D88 : PB : YB : !
$
$ Prototype Co2Si ((oP12, Pnma)
$
 PHASE PBYB2_C37 % 2 1 2 !
 CONST PBYB2_C37 : PB : YB : !
$ ------------------------------------------------------------------------------
$ Defaults
$
 DEFINE-SYSTEM-DEFAULT ELEMENT 2 !
 DEFAULT-COM DEFINE_SYSTEM_ELEMENT VA !
 TYPE-DEF % SEQ * !
 TYPE-DEF A GES AMEND_PHASE_DESCRIPTION @ MAGNETIC -3 0.28 !
 TYPE-DEF B GES AMEND_PHASE_DESCRIPTION @ MAGNETIC -1 0.4 !
 FUNCTION ZERO      298.15  0;                                         6000 N !
 FUNCTION UN_ASS    298.15  0;                                         6000 N !
 FUNCTION R         298.15  +8.31451;                                  6000 N !
$ ------------------------------------------------------------------------------
$ Element data
$ ------------------------------------------------------------------------------
$ Pb
$
$ RHOMBOHEDRAL_A7 and TETRAGONAL_A6 added in unary 3.0
$ RHOMBOHEDRAL_A7, TETRAGONAL_A6 and TET_ALPHA1_A6 revised in unary 4.1
$ RHOMBO_A10 added in unary 5.0
$
 PAR  G(FCC_A1,PB:VA),,                 +GHSERPB;                2100 N 91Din !
 PAR  G(BCC_A2,PB:VA),,                 +GHSERPB+2400-1.1*T;     2100 N 91Din !
 PAR  G(HCP_A3,PB:VA),,                 +GHSERPB+300+T;          2100 N 91Din !
$PAR  G(BCT_A5,PB),,                    +GHSERPB+489+3.52*T;     2100 N 91Din !
$PAR  G(TETRAGONAL_A6,PB),,             +GHSERPB+4493.235;       2100 N 98Boa !
$PAR  G(TETRAGONAL_A6,PB),,             +GHSERPB+473.23+3.5531*T
$            -0.0396834*T*LN(T)+2.1489E-05*T**2;                 2100 N 96SGUN !
$PAR  G(TET_ALPHA1_A6,PB),,             +GHSERPB
$            +1903.3-2.0602*T;                                   2100 N 98Boa !
$PAR  G(TET_ALPHA1_A6,PB),,             +GHSERPB+183.2+0.45314*T
$            -0.0396834*T*LN(T)+2.149E-06*T**2;                  2100 N 91Din !
$PAR  G(RHOMBOHEDRAL_A7,PB),,           +GHSERPB+300+T;          2100 N 99SGUN !
$PAR  G(RHOMBOHEDRAL_A7,PB),,           +GHSERPB+4900+3.52*T;    2100 N 96SGUN !
$PAR  G(RHOMBO_A10,PB),,                +GHSERPB+10;             2100 N 09SGUN !
 PAR  G(LIQUID,PB),,                    +GLIQPB;                 2100 N 91Din !
$
 FUNCTION GHSERPB   298.15  -7650.085+101.700244*T-24.5242231*T*LN(T)
       -0.00365895*T**2-2.4395E-07*T**3;
       600.61  Y  -10531.095+154.243182*T-32.4913959*T*LN(T)
       +0.00154613*T**2+8.05448E+25*T**(-9);
      1200.00  Y  +4157.616+53.139072*T-18.9640637*T*LN(T)
       -0.002882943*T**2+9.8144E-08*T**3-2696755*T**(-1)+8.05448E+25*T**(-9);
      2100.00  N !
 FUNCTION GLIQPB    298.15  +4672.124-7.750683*T+GHSERPB-6.019E-19*T**7;
       600.61  Y  +4853.137-8.067136*T+GHSERPB-8.05448E+25*T**(-9);
      2100.00  N !
$ ------------------------------------------------------------------------------
$ Yb
$
$ HCP_A3 added in unary 5.0
$
 PAR  G(FCC_A1,YB:VA),,                 +GHSERYB;                2000 N 91Din !
 PAR  G(BCC_A2,YB:VA),,                 +GBCCYB;                 2000 N 91Din !
 PAR  G(HCP_A3,YB:VA),,                 +GHSERYB+5000;           2000 N 06Guo !
 PAR  G(LIQUID,YB),,                    +GLIQYB;                 2000 N 91Din !
$
 PAR  G(PBYB_L10,YB:YB),,               +2*GHSERYB+10000;,,           N 09Idb !
 PAR  G(PBYB_A2,YB:YB),,                +2*GHSERYB+10000;,,           N 09Idb !
$
 FUNCTION GHSERYB   298.15  -9370.941+189.327664*T-40.0791*T*LN(T)
       +0.04227115*T**2-2.2242E-05*T**3;
       553.00  Y  -8192.154+121.065655*T-26.7591*T*LN(T)-0.00256065*T**2;
      1033.00  Y  +16034.89-89.478241*T+2.7623966*T*LN(T)
       -0.017961331*T**2+1.421719E-06*T**3-3631462*T**(-1);
      2000.00  N !
 FUNCTION GBCCYB    298.15  -965.99-21.293677*T-3.8534432*T*LN(T)
       -0.030009694*T**2+4.743871E-06*T**3-334650*T**(-1);
      1033.00  Y  -13368.113+188.313864*T-36.1079*T*LN(T);
      1097.00  Y  -3911.847+113.174165*T-25.7402233*T*LN(T)
       -0.004743348*T**2+3.63044E-07*T**3-1553668*T**(-1);
      2000.00  N !
 FUNCTION GLIQYB    298.15  +7030.788-40.615571*T-1.8061816*T*LN(T)
       -0.03250938*T**2+5.136665E-06*T**3-370554*T**(-1);
      1033.00  Y  -6445.835+186.690398*T-36.7774*T*LN(T);
      2000.00  N !
 FUNCTION GHCPYB    298.15  +GHSERYB+5000;                             2000 N !
$ ------------------------------------------------------------------------------
$ Binary system
$
$ M. Idbenali, C. Servant, N. Selhaoui, L. Bouirden, Calphad, 33, 570-75(2009).
$
$ Checked against paper. Checked at 6000 K.
$
$ PBYB_A2 is most certainly not A2, but possibly B2.
$
$ Liquid becomes stable below 300 K at about x(Yb)=0.75.
$
 PAR  G(LIQUID,PBYB2),,                 +GLIQPB+2*GLIQYB
             -207606.771+93.70182*T;,,                                N 09Idb !
 PAR  L(LIQUID,PB,YB;0),,               -99046.4539-7.58962*T;,,      N 09Idb !
 PAR  L(LIQUID,PB,PBYB2;0),,            -4978.92351-131.29188*T;,,    N 09Idb !
 PAR  L(LIQUID,PBYB2,YB;0),,            -24616.4052+14.68614*T;,,     N 09Idb !
$
 PAR  L(FCC_A1,PB,YB:VA;0),,            -116698.561+3.96519*T;,,      N 09Idb !
 PAR  L(FCC_A1,PB,YB:VA;1),,            -1400+T;,,                    N 09Idb !
$
 PAR  L(BCC_A2,PB,YB:VA;0),,            -149553.158+28.513725*T;,,    N 09Idb !
 PAR  L(BCC_A2,PB,YB:VA;1),,            -14740.1227+1.5*T;,,          N 09Idb !
$
 PAR  G(PB3YB_L12,PB:YB),,              +4*GPB3YB;,,                  N 09Idb !
$
 PAR  G(PBYB_L10,PB:YB),,               +GHSERPB+GHSERYB
             -126285.034+16.29936*T;,,                                N 09Idb !
 PAR  L(PBYB_L10,PB,YB:YB;0),,          -88000+38*T;,,                N 09Idb !
$
 PAR  G(PBYB_A2,PB:YB),,                +GHSERPB+GHSERYB
             -126190.5766+16.1767*T;,,                                N 09Idb !
 PAR  L(PBYB_A2,PB,YB:YB;0),,           -49513.5082+11.78402*T;,,     N 09Idb !
$
 PAR  G(PB3YB5_D88,PB:YB),,             +3*GHSERPB+5*GHSERYB
             -544629.9472+121.21224*T;,,                              N 09Idb !
 PAR  G(PBYB2_C37,PB:YB),,              +3*GPBYB2;,,                  N 09Idb !
$
$ Metastable
$
 PAR  L(HCP_A3,PB,YB:VA;0),,            -116698.561+3.96519*T;,,      N Same !
 PAR  L(HCP_A3,PB,YB:VA;1),,            -1400+T;,,                    N Same !
$
 FUNCTION GPB3YB    298.15  -38628.9628+45.3525127*T-15.8254777*T*LN(T)
       -0.0115568711*T**2+2.36083385E-06*T**3-0.106845214*T**(-1);
      6000.00  N !
 FUNCTION GPBYB2    298.15  -64005.8791+15.2122638*T-9.45857772*T*LN(T)
       -0.0138979842*T**2+1.52854436E-06*T**3+112.576608*T**(-1);
      6000.00  N !
$ ------------------------------------------------------------------------------
$
$
 LIST-OF-REFERENCE
 NUMBER  SOURCE
  Null   'Unknown source'
  Same   'Same or similar interaction as in the corresponding stable phase'
  REFLAV 'Laves phase convention: G(LAVES,X:X)=+3*GHSERXX+15000'
  91Din  'A.T. Dinsdale, Calphad, 15, 317-425(1991).'
  96SGUN 'SGTE unary database V.3.0, 1996.'
  98Boa  'D. Boa, I. Ansara, Thermochim. Acta, 314, 79-86(1998),
          SGTE unary database V.4.1, 1999; In, Pb'
  99SGUN 'SGTE unary database V.4.1, 1999.'
  06Guo  'C. Guo, Z. Du, J. Alloys Compd., 422, 102-8(2006),
          SGTE unary database V.5.0, 2009; Yb'
  09Idb  'M. Idbenali, C. Servant, N. Selhaoui, L. Bouirden,
          Calphad, 33, 570-75(2009); Pb-Yb'
  09SGUN 'SGTE unary database V.5.0, 2009.'
!
