$
$ Database for Cu-Ir from J. Korb 2004 (included in LB Vol. 5)
$
$ J. Korb, unpublished work, GTT, 2004.
$
$ Dataset created 2011.01.06 by Bengt Hallstedt.
$ 2020.12.26: Modified for use with GES6.
$
$ The LB tables have been calculated using an incorrect expression for GHSERCU.
$
$ The only invariant (Liq + fcc + fcc) is 0.4 K lower than in LB, but
$ identical to the results from lb5-v2.tdb.
$
$ ------------------------------------------------------------------------------
 TEMP-LIM 298.15 6000.00 !
$
$ELEMENT NAME  REF. STATE               ATOMIC MASS H298-H0    S298    !
$
 ELEMENT VA   VACUUM                      0.0          0.0      0.0    ! 
 ELEMENT CU   FCC_A1                     63.546     5004.      33.15   !
 ELEMENT IR   FCC_A1                    192.22      5267.656   35.5054 ! 
$ ------------------------------------------------------------------------------
$ Phase definitions
$
 PHASE LIQUID:L % 1 1 !
 CONST LIQUID:L : CU IR : !
$
$ Fcc (cF4, Fm-3m) and MeX (cF8, Fm-3m)
$
 PHASE FCC_A1 %A 2 1 1 !
 CONST FCC_A1 : CU IR : VA : !
$
$ Bcc (cI2, Im-3m)
$
 PHASE BCC_A2 %B 2 1 3 !
 CONST BCC_A2 : CU IR : VA : !
$
$ Hcp (hP2, P6_3/mmc) and Me2X (NiAs-type, hP4, P6_3/mmc, B8_1)
$
 PHASE HCP_A3 %A 2 1 0.5 !
 CONST HCP_A3 : CU IR : VA : !
$ ------------------------------------------------------------------------------
$ Defaults
$
 DEFINE-SYSTEM-DEFAULT ELEMENT 2 !
 DEFAULT-COM DEFINE_SYSTEM_ELEMENT VA !
 TYPE-DEF % SEQ * !
 TYPE-DEF A GES AMEND_PHASE_DESCRIPTION @ MAGNETIC -3 0.28 !
 TYPE-DEF B GES AMEND_PHASE_DESCRIPTION @ MAGNETIC -1 0.4 !
 FUNCTION ZERO      298.15  0;                                         6000 N !
 FUNCTION UN_ASS    298.15  0;                                         6000 N !
 FUNCTION R         298.15  +8.31451;                                  6000 N !
$ ------------------------------------------------------------------------------
$ Element data
$ ------------------------------------------------------------------------------
$ Cu
$
 PAR  G(FCC_A1,CU:VA),,                 +GHSERCU;                3200 N 91Din !
 PAR  G(BCC_A2,CU:VA),,                 +GHSERCU+4017-1.255*T;   3200 N 91Din !
 PAR  G(HCP_A3,CU:VA),,                 +GHSERCU+600+0.2*T;      3200 N 91Din !
 PAR  G(LIQUID,CU),,                    +GLIQCU;                 3200 N 91Din !
$
 FUNCTION GHSERCU   298.15  -7770.458+130.485235*T-24.112392*T*LN(T)
       -0.00265684*T**2+1.29223E-07*T**3+52478*T**(-1);
      1357.77  Y  -13542.026+183.803828*T-31.38*T*LN(T)+3.64167E+29*T**(-9);
      3200.00  N !
 FUNCTION GLIQCU    298.15  +12964.735-9.511904*T+GHSERCU-5.8489E-21*T**7;
      1357.77  Y  -46.545+173.881484*T-31.38*T*LN(T);
      3200.00  N !
$ ------------------------------------------------------------------------------
$ Ir
$
 PAR  G(FCC_A1,IR:VA),,                 +GHSERIR;                4000 N 91Din !
 PAR  G(BCC_A2,IR:VA),,                 +GHSERIR+32000-6.9*T;    4000 N 91Din !
 PAR  G(HCP_A3,IR:VA),,                 +GHSERIR+4000-0.6*T;     4000 N 91Din !
 PAR  G(LIQUID,IR),,                    +GLIQIR;                 4000 N 91Din !
$
 FUNCTION GHSERIR   298.15  -6936.288+118.780119*T-22.7944*T*LN(T)
       -0.003091976*T**2-20083*T**(-1);
      1215.00  Y  -8123.73+140.066697*T-26.085*T*LN(T)-4.7969E-07*T**3;
      2719.00  Y  +290529.037-1258.35297*T+152.498874*T*LN(T)
       -0.047176402*T**2+1.844977E-06*T**3-92987250*T**(-1);
      4000.00  N !
 FUNCTION GLIQIR    298.15  +23455.244-6.312059*T+GHSERIR;
      1000.00  Y  +102217.789-587.632815*T+73.9517579*T*LN(T)
       -0.04638802*T**2+2.761831E-06*T**3-13382612*T**(-1);
      2719.00  Y  -38347.217+411.234043*T-59.418*T*LN(T);
      4000.00  N !
 FUNCTION GBCCIR    298.15  +GHSERIR+32000-6.9*T;                      4000 N !
$ ------------------------------------------------------------------------------
$ Binary system
$
$ From from J. Korb 2004 (included in LB Vol. 5)
$
$ J. Korb, unpublished work, GTT, 2004.
$
$ Checked against LB. Checked at 6000 K.
$
$ The LB tables have been calculated using an incorrect expression for GHSERCU.
$
$ The only invariant (Liq + fcc + fcc) is 0.4 K lower than in LB, but
$ identical to the results from lb5-v2.tdb.
$
 PAR  L(LIQUID,CU,IR;0),,               +11453.6+5.53147*T;,,         N 04Kor !
 PAR  L(LIQUID,CU,IR;1),,               +6406.24;,,                   N 04Kor !
$
 PAR  L(FCC_A1,CU,IR:VA;0),,            +36676;,,                     N 04Kor !
 PAR  L(FCC_A1,CU,IR:VA;1),,            -3599.12-1.68751*T;,,         N 04Kor !
$
$ Metastable
$
 PAR  L(BCC_A2,CU,IR:VA;0),,            +36676;,,                     N Same !
 PAR  L(BCC_A2,CU,IR:VA;1),,            -3599.12-1.68751*T;,,         N Same !
$
 PAR  L(HCP_A3,CU,IR:VA;0),,            +36676;,,                     N Same !
 PAR  L(HCP_A3,CU,IR:VA;1),,            -3599.12-1.68751*T;,,         N Same !
$ ------------------------------------------------------------------------------
$
 ASSESSED_SYSTEM
  CU-IR(TDB -* +LIQUID +FCC ;G5 C_S:FCC_A1/IR:VA MAJ:FCC_A1/CU:VA ;P3 *) !
$
$
 LIST-OF-REFERENCE
 NUMBER  SOURCE
  Null   'Unknown source'
  Same   'Same or similar interaction as in the corresponding stable phase'
  COST   'COST 507 database'
  91Din  'A.T. Dinsdale, Calphad, 15, 317-425(1991).'
  04Kor  'J. Korb, unpublished work, GTT, 2004; Cu-Ir'
!
