$
$ Database for Mg-H from K. Zeng et al. 1999.
$
$ K. Zeng, T. Klassen, W. Oelerich, R. Bormann,
$ Int. J. Hydrogen Energy, 24, 989-1004(1999).
$
$ Dataset created 2018.11.04 by Bengt Hallstedt.
$ 2021.01.24: Modified for use with GES6.
$
$ ------------------------------------------------------------------------------
 TEMP-LIM 298.15 6000.00 !
$
$ELEMENT NAME  REF. STATE               ATOMIC MASS H298-H0    S298    !
$
 ELEMENT VA   VACUUM                      0.0          0.0      0.0    ! 
 ELEMENT H    1/2_MOLE_H2(G)              1.0079    4234.      65.285  ! 
 ELEMENT MG   HCP_A3                     24.305     4998.      32.671  !
$ ------------------------------------------------------------------------------
$ Species
$
 SPECIE  H2                                 H2 !
 SPECIE  MG2                                MG2 !
 SPECIE  MGH                                MG1H1 !
$ ------------------------------------------------------------------------------
$ Phase definitions
$
 PHASE LIQUID:L % 1 1 !
 CONST LIQUID:L : H MG : !
$
$ Fcc (cF4, Fm-3m) and MeX (cF8, Fm-3m)
$
 PHASE FCC_A1 %A 2 1 1 !
 CONST FCC_A1 : MG : VA : !
$
$ Bcc (cI2, Im-3m)
$
 PHASE BCC_A2 %B 2 1 3 !
 CONST BCC_A2 : MG : VA : !
$
$ Hcp (hP2, P6_3/mmc)
$
 PHASE HCP_A3 %A 2 1 0.5 !
 CONST HCP_A3 : MG : H VA% : !
$
$ Prototype TiO2 (tP6, P4_2/mnm)
$
 PHASE MGH2_C4 % 2 1 2 !
 CONST MGH2_C4 : MG : H : !
$
 PHASE GAS:G % 1 1 !
 CONST GAS:G : H H2 MG MG2 MGH : !
$ ------------------------------------------------------------------------------
$ Defaults
$
 DEFINE-SYSTEM-DEFAULT ELEMENT 2 !
 DEFAULT-COM DEFINE_SYSTEM_ELEMENT VA !
 TYPE-DEF % SEQ * !
 TYPE-DEF A GES AMEND_PHASE_DESCRIPTION @ MAGNETIC -3 0.28 !
 TYPE-DEF B GES AMEND_PHASE_DESCRIPTION @ MAGNETIC -1 0.4 !
 FUNCTION ZERO      298.15  0;                                         6000 N !
 FUNCTION UN_ASS    298.15  0;                                         6000 N !
 FUNCTION R         298.15  +8.31451;                                  6000 N !
 FUNCTION RTLNP     298.15  +8.31451*T*LN(1E-05*P);                    6000 N !
$ ------------------------------------------------------------------------------
$ Element data
$ ------------------------------------------------------------------------------
$ H
$
$ H is not included in unary
$
$PAR  G(LIQUID,H),,                     +GHSERHH
$            +8035+25*T+2*T*LN(T);,,                                  N 06Qiu !
 PAR  G(LIQUID,H),,                     +GHSERHH
             +20946.25+35.31*T;,,                                     N 99Zen !
$
 PAR  G(GAS,H),,                        +F10383T+RTLNP;,,             N 97SUB !
 PAR  G(GAS,H2),,                       +GHSERH2+RTLNP;,,             N 97SUB !
$
$ H(g)
 FUNCTION F10383T   298.15  +211801.621+24.4989821*T-20.78611*T*LN(T);
      6000.00  N !
$ H2(g)
 FUNCTION GHSERH2   298.15  -9522.9741+78.5273879*T-31.35707*T*LN(T)
       +0.0027589925*T**2-7.46390667E-07*T**3+56582.3*T**(-1);
      1000.00  Y  +180.108664-15.6128256*T-17.84857*T*LN(T)
       -0.00584168*T**2+3.14618667E-07*T**3-1280036*T**(-1);
      2100.00  Y  -18840.1663+92.3120255*T-32.05082*T*LN(T)
       -0.0010728235*T**2+1.14281783E-08*T**3+3561002.5*T**(-1);
      6000.00  N !
 FUNCTION GHSERHH   298.15  +0.5*GHSERH2;                              6000 N !
$ ------------------------------------------------------------------------------
$ Mg
$
 PAR  G(FCC_A1,MG:VA),,                 +GHSERMG+2600-0.9*T;     3000 N 91Din !
 PAR  G(BCC_A2,MG:VA),,                 +GHSERMG+3100-2.1*T;     3000 N 91Din !
 PAR  G(HCP_A3,MG:VA),,                 +GHSERMG;                3000 N 91Din !
$PAR  G(CBCC_A12,MG:VA),,               +GHSERMG
$            +4602.4-3.011*T;                                    3000 N 91Din !
$PAR  G(CUB_A13,MG:VA),,                +GHSERMG+5000-3*T;       3000 N 91Din !
 PAR  G(LIQUID,MG),,                    +GLIQMG;                 3000 N 91Din !
$
 PAR  G(GAS,MG),,                       +F12309T+RTLNP;,,             N 97SUB !
 PAR  G(GAS,MG2),,                      +F12397T+RTLNP;,,             N 97SUB !
$
 FUNCTION GHSERMG   298.15  -8367.34+143.675547*T-26.1849782*T*LN(T)
       +4.858E-04*T**2-1.393669E-06*T**3+78950*T**(-1);
       923.00  Y  -14130.185+204.716215*T-34.3088*T*LN(T)+1.038192E+28*T**(-9);
      3000.00  N !
 FUNCTION GLIQMG    298.15  +8202.243-8.83693*T+GHSERMG-8.0176E-20*T**7;
       923.00  Y  -5439.869+195.324057*T-34.3088*T*LN(T);
      3000.00  N !
$ Mg(g)
 FUNCTION F12309T   298.15  +140825.883-8.26177982*T-20.96302*T*LN(T)
       +1.331861E-04*T**2-1.51554617E-08*T**3+5221.91*T**(-1);
      2900.00  Y  +141959.02+20.1923541*T-25.1271*T*LN(T)
       +.002179723*T**2-1.502275E-07*T**3-3744678*T**(-1);
      5400.00  Y  +458455.469-794.05688*T+70.54811*T*LN(T)
       -.010649025*T**2+1.716475E-07*T**3-1.996814E+08*T**(-1);
      9200.00  Y  -315972.848+423.179252*T-63.73726*T*LN(T)
       -2.847232E-04*T**2+2.15099667E-08*T**3+6.39436E+08*T**(-1);
     10000.00  N !
$ Mg2(g)
 FUNCTION F12397T   298.15  +281408.793-104.38489*T-20.63169*T*LN(T)
       -6.14869E-05*T**2+4.25457833E-09*T**3-156733.25*T**(-1);
      3000.00  N !
$ ------------------------------------------------------------------------------
$ Binary system
$
$ K. Zeng, T. Klassen, W. Oelerich, R. Bormann,
$ Int. J. Hydrogen Energy, 24, 989-1004(1999).
$
$ Checked against paper. Checked at 6000 K.
$
 PAR  L(LIQUID,H,MG;0),,                +ZERO;,,                      N 99Zen !
$
 PAR  G(HCP_A3,MG:H),,                  +GMGH2-1.5*GHSERHH
             +87394.9-122.339*T;,,                                    N 99Zen !
$
 PAR  G(MGH2_C4,MG:H),,                 +GMGH2;,,                     N 99Zen !
$
 PAR  G(GAS,MGH),,                      +F10477T+RTLNP;,,             N 97SUB !
$
 FUNCTION GMGH2     298.15  -108422.153+495.654655*T-75*T*LN(T)
       -3.6920685E-16*T**2+5.93903667E-20*T**3-1.7334725E-08*T**(-1);
      6000.00  N !
$ MgH(g)
 FUNCTION F10477T   298.15  +222569.756-36.554073*T-22.58717*T*LN(T)
       -0.010730575*T**2+1.38888383E-06*T**3-59388.15*T**(-1);
       900.00  Y  +221232.429-7.05242027*T-27.27345*T*LN(T)
       -0.0055594*T**2+4.51406667E-07*T**3-85719.85*T**(-1);
      2700.00  Y  +156550.558+328.491051*T-70.68939*T*LN(T)
       +0.00701029*T**2-2.16287E-07*T**3+17204330*T**(-1);
      5600.00  Y  +306536.767-77.3568*T-22.71366*T*LN(T)
       +2.732552E-04*T**2-4.08427167E-08*T**3-69522550*T**(-1);
      6000.00  N !
$ ------------------------------------------------------------------------------
$
$
 LIST-OF-REFERENCE
 NUMBER  SOURCE
  Null   'Unknown source'
  Same   'Same or similar interaction as in the corresponding stable phase'
  COST   'COST 507 database'
  91Din  'A.T. Dinsdale, Calphad, 15, 317-425(1991).'
  97SUB  'SGTE substance database, version 1997'
  99Zen  'K. Zeng, T. Klassen, W. Oelerich, R. Bormann,
          Int. J. Hydrogen Energy, 24, 989-1004(1999); H, Mg-H'
  06Qiu  'C. Qiu, S.M. Opalka, G.B. Olson, D.L. Anton,
          Int. J. Mater. Res., 97, 845-53(2006); H'
!
