$
$ Database for Co-Ta from C. Zhou et al. 2019.
$
$ C. Zhou, C. Guo, C. Li, Z. Du, Calphad, 66, 101649(2019).
$
$ Dataset created 2020.07.17 by Bengt Hallstedt.
$
$ Based on 19Wan. Composition and phase name of Co7Ta2 changed to Co3Ta.
$ C14 and C36 are modelled with 2 instead of 3 sublattices. Mu-phase with
$ a slightly simplified 1:4:2:6 integer model with no disordered contribution,
$ i.e not add-on.
$
$ Some mu-phase parameters have simply been left equal to zero. Replacing
$ them with proper lattice stabilities causes a minor shift of the congruent
$ melting temperature (+4 K) and mu+CoTa2 eutectic (+4 K).
$
$ ------------------------------------------------------------------------------
 TEMP-LIM 298.15 6000.00 !
$
$ELEMENT NAME  REF. STATE               ATOMIC MASS H298-H0    S298    !
$
 ELEMENT VA   VACUUM                      0.0          0.0      0.0    ! 
 ELEMENT CO   HCP_A3                     58.9332    4765.567   30.0400 ! 
 ELEMENT TA   BCC_A2                    180.9479    5681.872   41.4718 ! 
$ ------------------------------------------------------------------------------
$ Phase definitions
$
 PHASE LIQUID:L % 1 1 !
 CONST LIQUID:L : CO TA : !
$
$ Fcc (cF4, Fm-3m) and MeX (cF8, Fm-3m)
$
 PHASE FCC_A1 %A 2 1 1 !
 CONST FCC_A1 : CO% TA : VA : !
$
$ Disordered part of FCC_4SL, identical to FCC_A1
$
 PHASE A1_FCC %A 2 1 1 !
 CONST A1_FCC : CO% TA : VA : !
$
$ Prototype AuCu3 (cP4, Pm-3m)
$
 PHASE FCC_4SL:F %AY 5 0.25 0.25 0.25 0.25 1 !
 CONST FCC_4SL:F : CO% TA : CO% TA : CO% TA : CO TA% : VA :  !
$
$ Bcc (cI2, Im-3m)
$
 PHASE BCC_A2 %B 2 1 3 !
 CONST BCC_A2 : CO TA% : VA : !
$
$ Hcp (hP2, P6_3/mmc) and Me2X (NiAs-type, hP4, P6_3/mmc, B8_1)
$
 PHASE HCP_A3 %A 2 1 0.5 !
 CONST HCP_A3 : CO% TA : VA : !
$
$ Prototype BaPb3 (hR12, R-3m)
$
 PHASE CO3TA % 2 3 1 !
 CONST CO3TA : CO : CO TA% : !
$
$ Prototype MgZn2 (hP12, P6_3/mmc)
$
 PHASE CO2TA_C14 %A 2 2 1 !
 CONST CO2TA_C14 : CO% TA : CO TA% : !
$
$ Prototype Cu2Mg (cF24, Fd-3m)
$
 PHASE CO2TA_C15 %A 2 2 1 !
 CONST CO2TA_C15 : CO% TA : CO TA% : !
$
$ Prototype MgNi2 (hP24, P6_3/mmc)
$
 PHASE CO2TA_C36 %A 2 2 1 !
 CONST CO2TA_C36 : CO% TA : CO TA% : !
$
$ Prototype Fe7W6 (hR13, R-3m)
$
 PHASE MU_D85 % 4 1 4 2 6 !
 CONST MU_D85 : CO TA : TA : CO TA : CO TA : !
$
$ Prototype Al2Cu (tI12, I4/mcm)
$
 PHASE COTA2_C16 % 2 1 2 !
 CONST COTA2_C16 : CO% TA : CO TA% : !
$ ------------------------------------------------------------------------------
$ Defaults
$
 DEFINE-SYSTEM-DEFAULT ELEMENT 2 !
 DEFAULT-COM DEFINE_SYSTEM_ELEMENT VA !
 DEFAULT-COM REJECT_PHASE A1_FCC FCC_4SL !
 TYPE-DEF % SEQ * !
 TYPE-DEF A GES AMEND_PHASE_DESCRIPTION @ MAGNETIC -3 0.28 !
 TYPE-DEF B GES AMEND_PHASE_DESCRIPTION @ MAGNETIC -1 0.4 !
 TYPE-DEF Y GES AMEND_PHASE_DESCRIPTION FCC_4SL DIS_PART A1_FCC !
 FUNCTION ZERO      298.15  0;                                         6000 N !
 FUNCTION UN_ASS    298.15  0;                                         6000 N !
 FUNCTION R         298.15  +8.31451;                                  6000 N !
$ ------------------------------------------------------------------------------
$ Element data
$ ------------------------------------------------------------------------------
$ Co
$
 PAR  G(HCP_A3,CO:VA),,                 +GHSERCO;,,                   N 91Din !
 PAR  TC(HCP_A3,CO:VA),,                 1396.00;,,                   N 91Din !
 PAR  BM(HCP_A3,CO:VA),,                    1.35;,,                   N 91Din !
 PAR  G(FCC_A1,CO:VA),,                 +GHSERCO
             +427.591-0.615248*T;,,                                   N 91Din !
 PAR  TC(FCC_A1,CO:VA),,                 1396.00;,,                   N 91Din !
 PAR  BM(FCC_A1,CO:VA),,                    1.35;,,                   N 91Din !
 PAR  G(A1_FCC,CO:VA),,                 +GHSERCO
             +427.591-0.615248*T;,,                                   N 91Din !
 PAR  TC(A1_FCC,CO:VA),,                 1396.00;,,                   N 91Din !
 PAR  BM(A1_FCC,CO:VA),,                    1.35;,,                   N 91Din !
 PAR  G(BCC_A2,CO:VA),,                 +GHSERCO+2938-0.7138*T;,,     N 91Din !
 PAR  TC(BCC_A2,CO:VA),,                 1450.00;,,                   N 91Din !
 PAR  BM(BCC_A2,CO:VA),,                    1.35;,,                   N 91Din !
$PAR  G(CBCC_A12,CO:VA),,               +GHSERCO+4155;,,              N 91Din !
$PAR  G(CUB_A13,CO:VA),,                +GHSERCO+3155;,,              N 91Din !
 PAR  G(LIQUID,CO),,                    +GLIQCO;,,                    N 91Din !
$
 PAR  G(CO3TA,CO:CO),,                  +4*GHSERCO+20000;,,           N 19Zho !
 PAR  G(CO2TA_C14,CO:CO),,              +3*GHSERCO+53403.9;,,         N 19Wan !
 PAR  TC(CO2TA_C14,CO:CO),,              1400.00;,,                   N 19Wan !
$PAR  BM(CO2TA_C14,CO:CO),,                 1.71;,,                   N 19Wan !
 PAR  BM(CO2TA_C14,CO:CO),,                18.90;,,                   N 19Wan !
 PAR  G(CO2TA_C15,CO:CO),,              +3*GHSERCO+63136.8;,,         N 19Wan !
 PAR  TC(CO2TA_C15,CO:CO),,              1440.00;,,                   N 19Wan !
$PAR  BM(CO2TA_C15,CO:CO),,                 1.73;,,                   N 19Wan !
 PAR  BM(CO2TA_C15,CO:CO),,                19.35;,,                   N 19Wan !
 PAR  G(CO2TA_C36,CO:CO),,              +3*GHSERCO+57341.1;,,         N 19Wan !
 PAR  TC(CO2TA_C36,CO:CO),,              1420.00;,,                   N 19Wan !
$PAR  BM(CO2TA_C36,CO:CO),,                 1.72;,,                   N 19Wan !
 PAR  BM(CO2TA_C36,CO:CO),,                19.12;,,                   N 19Wan !
 PAR  G(COTA2_C16,CO:CO),,              +3*GHSERCO+32818.8;,,         N 19Zho !
$
 FUNCTION GHSERCO   298.15  +310.241+133.36601*T-25.0861*T*LN(T)
       -0.002654739*T**2-1.7348E-07*T**3+72527*T**(-1);
      1768.00  Y  -17197.666+253.28374*T-40.5*T*LN(T)+9.3488E+30*T**(-9);
      6000.00  N !
 FUNCTION GLIQCO    298.15  +15085.037-8.931932*T+GHSERCO-2.19801E-21*T**7;
      1768.00  Y  -846.61+243.599944*T-40.5*T*LN(T);
      6000.00  N !
 FUNCTION GBCCCO    298.15  +GHSERCO+2938-0.7138*T;                    6000 N !
 FUNCTION GFCCCO    298.15  +GHSERCO+427.591-0.615248*T;               6000 N !
$ ------------------------------------------------------------------------------
$ Ta
$
 PAR  G(BCC_A2,TA:VA),,                 +GHSERTA;,,                   N 91Din !
 PAR  G(FCC_A1,TA:VA),,                 +GHSERTA+16000+1.7*T;,,       N 91Din !
 PAR  G(A1_FCC,TA:VA),,                 +GHSERTA+16000+1.7*T;,,       N 91Din !
 PAR  G(HCP_A3,TA:VA),,                 +GHSERTA+12000+2.4*T;,,       N 91Din !
 PAR  G(LIQUID,TA),,                    +GLIQTA;,,                    N 91Din !
$
 PAR  G(CO2TA_C14,TA:TA),,              +3*GHSERTA+29010.9;,,         N 19Wan !
 PAR  G(CO2TA_C15,TA:TA),,              +3*GHSERTA+33496.5;,,         N 19Wan !
 PAR  G(CO2TA_C36,TA:TA),,              +3*GHSERTA+31456.5;,,         N 19Wan !
 PAR  G(COTA2_C16,TA:TA),,              +3*GHSERTA+152460;,,          N 19Zho !
 PAR  G(MU_D85,TA:TA:TA:TA),,           +7*GFCCTA+6*GHSERTA
             +221650;,,                                               N 19Zho !
$
 FUNCTION GHSERTA   298.15  -7285.889+119.139857*T-23.7592624*T*LN(T)
       -0.002623033*T**2+1.70109E-07*T**3-3293*T**(-1);
      1300.00  Y  -22389.955+243.88676*T-41.137088*T*LN(T)
       +0.006167572*T**2-6.55136E-07*T**3+2429586*T**(-1);
      2500.00  Y  +229382.886-722.59722*T+78.5244752*T*LN(T)
       -0.017983376*T**2+1.95033E-07*T**3-93813648*T**(-1);
      3290.00  Y  -1042384.01+2985.49125*T-362.159132*T*LN(T)
       +0.043117795*T**2-1.055148E-06*T**3+5.54714342E+08*T**(-1);
      6000.00  N !
 FUNCTION GLIQTA    298.15  +29160.975-7.578729*T+GHSERTA;
      1000.00  Y  +43884.339-61.981795*T+0.0279523*T*LN(T)
       -0.012330066*T**2+6.14599E-07*T**3-3523338*T**(-1);
      3290.00  Y  -6314.543+258.110873*T-41.84*T*LN(T);
      6000.00  N !
 FUNCTION GFCCTA    298.15  +GHSERTA+16000+1.7*T;                      6000 N !
$ ------------------------------------------------------------------------------
$ Binary system
$
$ C. Zhou, C. Guo, C. Li, Z. Du, Calphad, 66, 101649(2019).
$
$ Checked against paper and author's tdb. Checked at 6000 K.
$
$ Based on 19Wan. Composition and phase name of Co7Ta2 changed to Co3Ta.
$ C14 and C36 are modelled with 2 instead of 3 sublattices. Mu-phase with
$ a slightly simplified 1:4:2:6 integer model with no disordered contribution,
$ i.e not add-on.
$
$ Some mu-phase parameters have simply been left equal to zero. Replacing
$ them with proper lattice stabilities causes a minor shift of the congruent
$ melting temperature (+4 K) and mu+CoTa2 eutectic (+4 K).
$
 PAR  L(LIQUID,CO,TA;0),,               -134047.3+15.8937*T;,,        N 19Zho !
 PAR  L(LIQUID,CO,TA;1),,               -23192.7+8.224*T;,,           N 19Zho !
 PAR  L(LIQUID,CO,TA;2),,               +32489.9;,,                   N 19Zho !
$
 PAR  L(FCC_A1,CO,TA:VA;0),,            -79939.9;,,                   N 19Zho !
 PAR  TC(FCC_A1,CO,TA:VA;0),,           -2200;,,                      N 19Wan !
 PAR  TC(FCC_A1,CO,TA:VA;1),,            -804;,,                      N 19Wan !
 PAR  BM(FCC_A1,CO,TA:VA;0),,              +1.35;,,                   N 19Wan !
$
 PAR  L(A1_FCC,CO,TA:VA;0),,            -79939.9;,,                   N 19Zho !
 PAR  TC(A1_FCC,CO,TA:VA;0),,           -2200;,,                      N 19Wan !
 PAR  TC(A1_FCC,CO,TA:VA;1),,            -804;,,                      N 19Wan !
 PAR  BM(A1_FCC,CO,TA:VA;0),,              +1.35;,,                   N 19Wan !
$
 PAR  G(FCC_4SL,CO:CO:CO:TA:VA),,       +GFCO3TA;,,                   N 19Zho !
 PAR  G(FCC_4SL,CO:CO:TA:TA:VA),,       +GFCO2TA2;,,                  N 19Zho !
 PAR  G(FCC_4SL,CO:TA:TA:TA:VA),,       +GFCOTA3;,,                   N 19Zho !
$
 PAR  L(BCC_A2,CO,TA:VA;0),,            -33036.3-2.531*T;,,           N 19Zho !
 PAR  L(HCP_A3,CO,TA:VA;0),,            -47726.3;,,                   N 19Wan !
$
 PAR  G(CO3TA,CO:TA),,                  +3*GHSERCO+GHSERTA
             -101322.3+6.4062*T;,,                                    N 19Zho !
 PAR  L(CO3TA,CO:CO,TA;0),,             +7382.7;,,                    N 19Zho !
$
 PAR  G(CO2TA_C14,CO:TA),,              +2*GHSERCO+GHSERTA
             -77767.5-4.3074*T;,,                                     N 19Zho !
 PAR  G(CO2TA_C14,TA:CO),,              +2*GHSERTA+GHSERCO+223419;,,  N 19Wan !
 PAR  L(CO2TA_C14,CO,TA:TA;0),,         -33311.1;,,                   N 19Zho !
 PAR  L(CO2TA_C14,CO,TA:TA;1),,         -40071;,,                     N 19Zho !
$
 PAR  G(CO2TA_C15,CO:TA),,              +2*GHSERCO+GHSERTA
             -81231.6-2.6649*T;,,                                     N 19Zho !
 PAR  G(CO2TA_C15,TA:CO),,              +2*GHSERTA+GHSERCO+208296;,,  N 19Wan !
 PAR  L(CO2TA_C15,CO,TA:TA;0),,         -35464.8;,,                   N 19Zho !
 PAR  L(CO2TA_C15,CO:CO,TA;0),,         -84833.7;,,                   N 19Zho !
$
 PAR  G(CO2TA_C36,CO:TA),,              +2*GHSERCO+GHSERTA
             -79344.6-2.8275*T;,,                                     N 19Zho !
 PAR  G(CO2TA_C36,TA:CO),,              +2*GHSERTA+GHSERCO
             +213007.2;,,                                             N 19Wan !
 PAR  L(CO2TA_C36,CO:CO,TA;0),,         -84987.6;,,                   N 19Zho !
$
 PAR  G(MU_D85,CO:TA:CO:CO),,           +7*GFCCCO+4*GHSERTA+2*GBCCCO
             -261335.3;,,                                             N 19Zho !
 PAR  G(MU_D85,CO:TA:CO:TA),,           +GFCCCO+4*GHSERTA+2*GBCCCO
             +6*GFCCTA;,,                                             N Lin !
 PAR  G(MU_D85,CO:TA:TA:CO),,           +7*GFCCCO+6*GHSERTA
             -357413-18.7231*T;,,                                     N 19Zho !
 PAR  G(MU_D85,CO:TA:TA:TA),,           +GFCCCO+6*GHSERTA+6*GFCCTA;,, N Lin !
 PAR  G(MU_D85,TA:TA:CO:CO),,           +GFCCTA+4*GHSERTA+2*GBCCCO
             +6*GFCCCO-205136.8;,,                                    N 19Zho !
 PAR  G(MU_D85,TA:TA:CO:TA),,           +7*GFCCTA+4*GHSERTA
             +2*GBCCCO;,,                                             N Lin !
 PAR  G(MU_D85,TA:TA:TA:CO),,           +GFCCTA+6*GHSERTA+6*GFCCCO
             -392706-6.3104*T;,,                                      N 19Zho !
 PAR  L(MU_D85,CO:TA:CO,TA:CO;0),,      -45232.1;,,                   N 19Zho !
$
 PAR  G(COTA2_C16,CO:TA),,              +GHSERCO+2*GHSERTA
             -81972.4+3.944*T;,,                                      N 19Zho !
 PAR  G(COTA2_C16,TA:CO),,              +GHSERTA+2*GHSERCO
             +55851;,,                                                N 19Wan !
 PAR  L(COTA2_C16,CO,TA:TA;0),,         -94186.3;,,                   N 19Zho !
 PAR  L(COTA2_C16,CO:CO,TA;0),,         -99694.6;,,                   N 19Zho !
$
 FUNCTION U1FCOTA   298.15  -6163.2+3.0564*T;                          6000 N !
 FUNCTION GFCO3TA   298.15  +3*U1FCOTA;                                6000 N !
 FUNCTION GFCO2TA2  298.15  +4*U1FCOTA+25652.8+3.2*T;                  6000 N !
 FUNCTION GFCOTA3   298.15  +15000;                                    6000 N !
$ ------------------------------------------------------------------------------
$
 ASSESSED_SYSTEM
  CO-TA(TDB -* +LIQUID +BCC_A2 +FCC_A1 +HCP_A3 +CO3TA +COTA2_C16 +CO2TA_C14
  +CO2TA_C15 +CO2TA_C36 +DIS_MU +MU_D85 ;P3 TMM:500/3500 STP:.1/1600/-2) !
$
$
 LIST-OF-REFERENCE
 NUMBER  SOURCE
  Null   'Unknown source'
  Lin    'Linear combination of lattice stabilities'
  Same   'Same or similar interaction as in the corresponding stable phase'
  REFLAV 'Laves phase convention: G(LAVES,X:X)=+3*GHSERXX+15000'
  91Din  'A.T. Dinsdale, Calphad, 15, 317-425(1991).'
  19Wan  'P. Wang, J. Kossmann, U.R. Kattner, M. Palumbo, T. Hammerschmidt,
          G.B. Olson, Calphad, 64, 205-12(2019); Co-Ta'
  19Zho  'C. Zhou, C. Guo, C. Li, Z. Du, Calphad, 66, 101649(2019); Co-Ta'
!
