$
$ Database for Bi-Yb from J. Wang et al. 2015.
$
$ J. Wang, Y. Yuan, C. Li, C. Guo, Z. Du, B. Wu, Calphad, 51, 306-13(2015).
$
$ Dataset created 2018.05.01 by Bengt Hallstedt.
$ 2020.12.25: Modified for use with GES6.
$ 2023.02.24: Unary Bi changed from V4.4 to V5.0.
$
$ ------------------------------------------------------------------------------
 TEMP-LIM 298.15 6000.00 !
$
$ELEMENT NAME  REF. STATE               ATOMIC MASS H298-H0    S298    !
$
 ELEMENT VA   VACUUM                      0.0          0.0      0.0    ! 
 ELEMENT BI   RHOMBOHEDRAL_A7           208.98      6426.6     56.735  !
 ELEMENT YB   FCC_A1                    173.04      6711.136   59.8312 ! 
$ ------------------------------------------------------------------------------
$ Species
$
 SPECIE  BI3YB4                             BI3YB4 !
$ ------------------------------------------------------------------------------
$ Phase definitions
$
 PHASE LIQUID:L % 1 1 !
 CONST LIQUID:L : BI BI3YB4 YB : !
$
$ Fcc (cF4, Fm-3m) and MeX (cF8, Fm-3m)
$
 PHASE FCC_A1 %A 2 1 1 !
 CONST FCC_A1 : BI YB% : VA : !
$
$ Bcc (cI2, Im-3m)
$
 PHASE BCC_A2 %B 2 1 3 !
 CONST BCC_A2 : BI YB% : VA : !
$
$ Hcp (hP2, P6_3/mmc) and Me2X (NiAs-type, hP4, P6_3/mmc, B8_1)
$
 PHASE HCP_A3 %A 2 1 0.5 !
 CONST HCP_A3 : BI YB : VA: !
$
$ Prototype alpha-As (hR2, R-3m)
$
 PHASE RHOMBOHEDRAL_A7 % 1 1 !
 CONST RHOMBOHEDRAL_A7 : BI : !
$
$ Prototype Si2Zr (oC12, Cmcm)
$
 PHASE BI2YB_C49 % 2 2 1 !
 CONST BI2YB_C49 : BI : YB : !
$
$ Prototype Ge10Ho11 (tI84, I4/mmm)
$
 PHASE BI10YB11 % 2 10 11 !
 CONST BI10YB11 : BI : YB : !
$
$ Prototype Th3P4 (cI28, I-43d)
$
 PHASE BI3YB4_D73 % 2 3 4 !
 CONST BI3YB4_D73 : BI : YB : !
$
$ Prototype Mn5Si3 (hP16, P6_3/mcm) or Sb3Yb5 (oP32, Pnma)
$
 PHASE BI3YB5 % 2 3 5 !
 CONST BI3YB5 : BI : YB : !
$
$ Prototype La2Sb (tI12, I4/mmm)
$
 PHASE BIYB2 % 2 1 2 !
 CONST BIYB2 : BI : YB : !
$ ------------------------------------------------------------------------------
$ Defaults
$
 DEFINE-SYSTEM-DEFAULT ELEMENT 2 !
 DEFAULT-COM DEFINE_SYSTEM_ELEMENT VA !
 TYPE-DEF % SEQ * !
 TYPE-DEF A GES AMEND_PHASE_DESCRIPTION @ MAGNETIC -3 0.28 !
 TYPE-DEF B GES AMEND_PHASE_DESCRIPTION @ MAGNETIC -1 0.4 !
 FUNCTION ZERO      298.15  0;                                         6000 N !
 FUNCTION UN_ASS    298.15  0;                                         6000 N !
 FUNCTION R         298.15  +8.31451;                                  6000 N !
$ ------------------------------------------------------------------------------
$ Element data
$ ------------------------------------------------------------------------------
$ Bi
$
$ RHOMBOHEDRAL_A7 and LIQUID modified in unary 5.0
$ DIAMOND_A4 added in unary 5.0
$
 PAR  G(RHOMBOHEDRAL_A7,BI),,           +GHSERBI;                3000 N 09SGUN !
 PAR  G(FCC_A1,BI:VA),,                 +GHSERBI+9900-12.5*T;    3000 N 91Din !
 PAR  G(BCC_A2,BI:VA),,                 +GHSERBI+11297-13.9*T;   3000 N 91Din !
 PAR  G(HCP_A3,BI:VA),,                 +GHSERBI+9900-11.8*T;    3000 N 91Din !
$PAR  G(DIAMOND_A4,BI),,                +GHSERBI
$            +11296.8+9.253655*T;                                3000 N 88Che2 !
$PAR  G(BCT_A5,BI),,                    +GHSERBI+4184.07;        3000 N 91Din !
$PAR  G(TETRAGONAL_A6,BI),,             +GHSERBI+4184.07;        3000 N 91Din !
$PAR  G(TET_ALPHA1_A6,BI),,             +GHSERBI+4234;           3000 N 91Din !
 PAR  G(LIQUID,BI),,                    +GLIQBI;                 3000 N 09SGUN ! 
$
 FUNCTION GHSERBI   298.15  -7817.776+128.418925*T-28.4096529*T*LN(T)
       +0.012338888*T**2-8.381598E-6*T**3;
       544.55  Y  +29293.369-379.605174*T+49.678*T*LN(T)
       -0.0730245*T**2+1.3052833E-5*T**3-3544705*T**(-1)+1.66309E+25*T**(-9);
       800.00  Y  -11085.609+182.955328*T-36.041*T*LN(T)
       +7.4641E-3*T**2-1.05047E-6*T**3+5175*T**(-1)+1.66309E+25*T**(-9);
      1200.00  Y  -7580.864+124.770814*T-27.196*T*LN(T)+1.66309E+25*T**(-9);
      3000.00  N !
 FUNCTION GLIQBI    298.15  +11246.017-20.636399*T+GHSERBI-5.9608E-19*T**7;
       544.55  Y  +40629.667-400.415652*T+49.678*T*LN(T)
       -0.0730245*T**2+1.3052833E-5*T**3-3544705*T**(-1);
       800.00  Y  +250.689+162.14485*T-36.041*T*LN(T)
       +0.0074641*T**2-1.05047E-6*T**3+5175*T**(-1);
      1200.00  Y  +3755.434+103.960336*T-27.196*T*LN(T);
      3000.00 N !
$ ------------------------------------------------------------------------------
$ Yb
$
$ HCP_A3 added in unary 5.0
$
 PAR  G(FCC_A1,YB:VA),,                 +GHSERYB;                2000 N 91Din !
 PAR  G(BCC_A2,YB:VA),,                 +GBCCYB;                 2000 N 91Din !
 PAR  G(HCP_A3,YB:VA),,                 +GHSERYB+5000;           2000 N 06Guo !
 PAR  G(LIQUID,YB),,                    +GLIQYB;                 2000 N 91Din !
$
 FUNCTION GHSERYB   298.15  -9370.941+189.327664*T-40.0791*T*LN(T)
       +0.04227115*T**2-2.2242E-05*T**3;
       553.00  Y  -8192.154+121.065655*T-26.7591*T*LN(T)-0.00256065*T**2;
      1033.00  Y  +16034.89-89.478241*T+2.7623966*T*LN(T)
       -0.017961331*T**2+1.421719E-06*T**3-3631462*T**(-1);
      2000.00  N !
 FUNCTION GBCCYB    298.15  -965.99-21.293677*T-3.8534432*T*LN(T)
       -0.030009694*T**2+4.743871E-06*T**3-334650*T**(-1);
      1033.00  Y  -13368.113+188.313864*T-36.1079*T*LN(T);
      1097.00  Y  -3911.847+113.174165*T-25.7402233*T*LN(T)
       -0.004743348*T**2+3.63044E-07*T**3-1553668*T**(-1);
      2000.00  N !
 FUNCTION GLIQYB    298.15  +7030.788-40.615571*T-1.8061816*T*LN(T)
       -0.03250938*T**2+5.136665E-06*T**3-370554*T**(-1);
      1033.00  Y  -6445.835+186.690398*T-36.7774*T*LN(T);
      2000.00  N !
 FUNCTION GHCPYB    298.15  +GHSERYB+5000;                             2000 N !
$ ------------------------------------------------------------------------------
$ Binary system
$
$ J. Wang, Y. Yuan, C. Li, C. Guo, Z. Du, B. Wu, Calphad, 51, 306-13(2015).
$
$ Checked against paper and author's tdb. Checked at 6000 K.
$
 PAR  G(LIQUID,BI3YB4),,                +3*GLIQBI+4*GLIQYB
             -465153+8.8*T;,,                                         N 15Wan !
 PAR  L(LIQUID,BI,YB;0),,               -220000+0.6634*T;,,           N 15Wan !
 PAR  L(LIQUID,BI,YB;1),,               +2710.115-0.72*T;,,           N 15Wan !
 PAR  L(LIQUID,BI,YB;2),,               +38000+5.7663*T;,,            N 15Wan !
 PAR  L(LIQUID,BI,BI3YB4;0),,           -90497.9;,,                   N 15Wan !
 PAR  L(LIQUID,BI,BI3YB4;1),,           -178583-2.5*T;,,              N 15Wan !
 PAR  L(LIQUID,BI,BI3YB4;2),,           +33872.8;,,                   N 15Wan !
 PAR  L(LIQUID,BI3YB4,YB;0),,           +50000;,,                     N 15Wan !
$
 PAR  L(FCC_A1,BI,YB:VA;0),,            +UN_ASS;,,                    N !
 PAR  L(BCC_A2,BI,YB:VA;0),,            +UN_ASS;,,                    N !
$
 PAR  G(BI2YB_C49,BI:YB),,              +2*GHSERBI+GHSERYB
             -183991.494+7.77*T;,,                                    N 15Wan !
 PAR  G(BI10YB11,BI:YB),,               +10*GHSERBI+11*GHSERYB
             -1830898.629+124.53*T;,,                                 N 15Wan !
 PAR  G(BI3YB4_D73,BI:YB),,             +3*GHSERBI+4*GHSERYB
             -651436.485+52.255*T;,,                                  N 15Wan !
 PAR  G(BI3YB5,BI:YB),,                 +3*GHSERBI+5*GHSERYB
             -736476+87.36*T;,,                                       N 15Wan !
 PAR  G(BIYB2,BI:YB),,                  +GHSERBI+2*GHSERYB
             -251101.785+31.56*T;,,                                   N 15Wan !
$ ------------------------------------------------------------------------------
$
$
 LIST-OF-REFERENCE
 NUMBER  SOURCE
  Null   'Unknown source'
  Same   'Same or similar interaction as in the corresponding stable phase'
  COST   'COST 507 database'
  88Che2 'P.-Y. Chevalier, Thermochim. Acta, 132, 111-16(1988),
          SGTE unary database V.5.0, 2009; Bi' 
  91Din  'A.T. Dinsdale, Calphad, 15, 317-425(1991).'
  06Guo  'C. Guo, Z. Du, J. Alloys Compd., 422, 102-8(2006),
          SGTE unary database V.5.0, 2009; Yb'
  09SGUN 'SGTE unary database V.5.0, 2009.'
  15Wan  'J. Wang, Y. Yuan, C. Li, C. Guo, Z. Du, B. Wu,
          Calphad, 51, 306-13(2015); Bi-Yb'
!
