$
$ Database for Cd-Sr from C. Zhang et al. 2013.
$
$ C. Zhang, K. Cheng, W. Wang, X. Li, B. Hu, S. Liu, Y. Du,
$ Calphad, 42, 6-12(2013).
$
$ Dataset created 2018.05.06 by Bengt Hallstedt.
$ 2020.12.25: Modified for use with GES6.
$
$ ------------------------------------------------------------------------------
 TEMP-LIM 298.15 6000.00 !
$
$ELEMENT NAME  REF. STATE               ATOMIC MASS H298-H0    S298    !
$
 ELEMENT VA   VACUUM                      0.0          0.0      0.0    ! 
 ELEMENT CD   HCP_A3                    112.41      6247.      51.80   ! 
 ELEMENT SR   FCC_A1                     87.62      6568.      55.694  ! 
$ ------------------------------------------------------------------------------
$ Phase definitions
$
 PHASE LIQUID:L % 1 1 !
 CONST LIQUID:L : CD SR : !
$
$ Fcc (cF4, Fm-3m) and MeX (cF8, Fm-3m)
$
 PHASE FCC_A1 %A 2 1 1 !
 CONST FCC_A1 : CD SR% : VA : !
$
$ Bcc (cI2, Im-3m)
$
 PHASE BCC_A2 %B 2 1 3 !
 CONST BCC_A2 : CD SR% : VA : !
$
$ Hcp (hP2, P6_3/mmc) and Me2X (NiAs-type, hP4, P6_3/mmc, B8_1)
$
 PHASE HCP_A3 %A 2 1 0.5 !
 CONST HCP_A3 : CD% SR : VA : !
$
$ Prototype BaCd11 (tI48, I4_1/amd)
$
 PHASE CD11SR % 2 11 1 !
 CONST CD11SR : CD : SR : !
$
$ Prototype Cd6Y (cI184, Im-3)
$
 PHASE CD6SR % 2 6 1 !
 CONST CD6SR : CD : SR : !
$
$ Prototype Gd13Zn58 (hP142, P6_3/mmc)
$
 PHASE CD58SR13 % 2 58 13 !
 CONST CD58SR13 : CD : SR : !
$
$ Prototype Hg2K (oI12, Imma)
$
 PHASE CD2SR % 2 2 1 !
 CONST CD2SR : CD : SR : !
$
$ Prototype CsCl (cP2, Pm-3m)
$
 PHASE CDSR_B2 % 2 1 1 !
 CONST CDSR_B2 : CD : SR : !
$
$ Prototype Cr5B3 (tI32, I4/mcm)
$
 PHASE CD3SR5_D8L % 2 3 5 !
 CONST CD3SR5_D8L : CD : SR : !
$ ------------------------------------------------------------------------------
$ Defaults
$
 DEFINE-SYSTEM-DEFAULT ELEMENT 2 !
 DEFAULT-COM DEFINE_SYSTEM_ELEMENT VA !
 TYPE-DEF % SEQ * !
 TYPE-DEF A GES AMEND_PHASE_DESCRIPTION @ MAGNETIC -3 0.28 !
 TYPE-DEF B GES AMEND_PHASE_DESCRIPTION @ MAGNETIC -1 0.4 !
 FUNCTION ZERO      298.15  0;                                         6000 N !
 FUNCTION UN_ASS    298.15  0;                                         6000 N !
 FUNCTION R         298.15  +8.31451;                                  6000 N !
$ ------------------------------------------------------------------------------
$ Element data
$ ------------------------------------------------------------------------------
$ Cd
$
$ FCC_A1 and TETRAGONAL_A6 added in unary 3.0
$ BCT_A5 and RHOMBO_A10 added in unary 4.1
$ BCC_A2 added in unary 5.0
$
 PAR  G(HCP_A3,CD:VA),,                 +GHSERCD;                1600 N 91Din !
 PAR  G(FCC_A1,CD:VA),,                 +GHSERCD+892.3-0.92*T;   1600 N 93Zak !
 PAR  G(BCC_A2,CD:VA),,                 +GHSERCD+1000;           1600 N 04Che1 !
$PAR  G(TETRAGONAL_A6,CD),,             +GHSERCD+892.3-0.92*T;   1600 N 93Zak !
$PAR  G(BCT_A5,CD),,                    +GHSERCD+5000;           1600 N 95Yan !
$PAR  G(RHOMBO_A10,CD),,                +GHSERCD+800-0.62*T;     1600 N 95Yan !
 PAR  G(LIQUID,CD),,                    +GLIQCD;                 1600 N 91Din !
$
 FUNCTION GHSERCD   298.15  -7083.469+99.506198*T-22.0442408*T*LN(T)
       -0.006273908*T**2-6966*T**(-1);
       594.22  Y  -20064.971+256.812233*T-45.1611543*T*LN(T)
       +0.008832011*T**2-8.99604E-07*T**3+1241290*T**(-1);
      1500.00  Y  -9027.489+148.20548*T-29.7064*T*LN(T);
      1600.00  N !
 FUNCTION GLIQCD    298.15  +6128.444-10.296916*T+GHSERCD;
       400.00  Y  +21716.884-371.046869*T+53.1313898*T*LN(T)
       -0.115159917*T**2+2.8899781E-05*T**3-1271815*T**(-1);
       594.22  Y  -3252.303+138.251107*T-29.7064*T*LN(T);
      1500.00  Y  +5775.186-9.954373*T+GHSERCD;
      1600.00  N !
 FUNCTION GBCCCD    298.15  +GHSERCD+1000;                             6000 N !
$ ------------------------------------------------------------------------------
$ Sr
$
 PAR  G(FCC_A1,SR:VA),,                 +GHSERSR;                3000 N 91Din !
 PAR  G(BCC_A2,SR:VA),,                 +GBCCSR;                 3000 N 91Din !
 PAR  G(HCP_A3,SR:VA),,                 +GHSERSR+250+0.7*T;      3000 N 91Din !
 PAR  G(LIQUID,SR),,                    +GLIQSR;                 3000 N 91Din !
$
 FUNCTION GHSERSR   298.15  -7532.367+107.183879*T-23.905*T*LN(T)
       -0.00461225*T**2-1.67477E-07*T**3-2055*T**(-1);
       820.00  Y  -13380.102+153.196104*T-30.0905432*T*LN(T)
       -0.003251266*T**2+1.84189E-07*T**3+850134*T**(-1);
      3000.00  N !
 FUNCTION GBCCSR    298.15  -6779.234+116.583654*T-25.6708365*T*LN(T)
       -0.003126762*T**2+2.2965E-07*T**3+27649*T**(-1);
       820.00  Y  -6970.594+122.067301*T-26.57*T*LN(T)
       -0.0019493*T**2-1.7895E-08*T**3+16495*T**(-1);
      1050.00  Y  +8168.357+0.423037*T-9.7788593*T*LN(T)
       -0.009539908*T**2+5.20221E-07*T**3-2414794*T**(-1);
      3000.00  N !
 FUNCTION GLIQSR    298.15  +2194.997-10.118994*T-5.0668978*T*LN(T)
       -0.031840595*T**2+4.981237E-06*T**3-265559*T**(-1);
      1050.00  Y  -10855.29+213.406219*T-39.463*T*LN(T);
      3000.00  N !
$ ------------------------------------------------------------------------------
$ Binary system
$
$ C. Zhang, K. Cheng, W. Wang, X. Li, B. Hu, S. Liu, Y. Du,
$ Calphad, 42, 6-12(2013).
$
$ Checked against paper and author's tdb. Checked at 6000 K.
$
 PAR  L(LIQUID,CD,SR;0),,               -93391.13+20.583*T;,,         N 13Zha !
 PAR  L(LIQUID,CD,SR;1),,               -49338.66;,,                  N 13Zha !
 PAR  L(LIQUID,CD,SR;2),,               -24512.07;,,                  N 13Zha !
$
 PAR  L(FCC_A1,CD,SR:VA;0),,            +UN_ASS;,,                    N !
 PAR  L(BCC_A2,CD,SR:VA;0),,            +UN_ASS;,,                    N !
 PAR  L(HCP_A3,CD,SR:VA;0),,            +UN_ASS;,,                    N !
$
 PAR  G(CD11SR,CD:SR),,                 +11*GHSERCD+GHSERSR
             -198103.92+35.988*T;,,                                   N 13Zha !
 PAR  G(CD6SR,CD:SR),,                  +6*GHSERCD+GHSERSR
             -175463.26+37.856*T;,,                                   N 13Zha !
 PAR  G(CD58SR13,CD:SR),,               +58*GHSERCD+13*GHSERSR
             -1916816.82+290.603*T;,,                                 N 13Zha !
 PAR  G(CD2SR,CD:SR),,                  +2*GHSERCD+GHSERSR
             -101955.54+16.437*T;,,                                   N 13Zha !
 PAR  G(CDSR_B2,CD:SR),,                +GHSERCD+GHSERSR
             -59065.52+11.674*T;,,                                    N 13Zha !
 PAR  G(CD3SR5_D8L,CD:SR),,             +3*GHSERCD+5*GHSERSR
             -193562.88+54.592*T;,,                                   N 13Zha !
$ ------------------------------------------------------------------------------
$
$
 LIST-OF-REFERENCE
 NUMBER  SOURCE
  Null   'Unknown source'
  Same   'Same or similar interaction as in the corresponding stable phase'
  COST   'COST 507 database'
  91Din  'A.T. Dinsdale, Calphad, 15, 317-425(1991).'
  93Zak  'W. Zakulski, Z. Moser, K. Rzyman, H.L. Lukas, S.G. Fries,
          M. Sukiennik, R. Kaczmarczyk, R. Castanet,
          J. Phase Equilib., 14, 184-96(1993),
          SGTE unary database V.3.0, 1996; Cd'
  95Yan  'J. Yang, N.J. Silk, A. Watson, A.W. Bryant, T.G. Chart, B.B. Argent,
          Calphad, 19, 415-30(1995), SGTE unary database V.4.1, 1999; Cd, Hg'
  04Che1 'P.-Y. Chevalier, unpublished, Thermodata, 2004,
          SGTE unary database V.5.0, 2009; Cd'
  13Zha  'C. Zhang, K. Cheng, W. Wang, X. Li, B. Hu, S. Liu, Y. Du,
          Calphad, 42, 6-12(2013); Cd-Sr'
!
