$
$ Database for Ta-V from J. Pavlu et al. 2011
$
$ J. Pavlu, J. Vrestal, X.-Q. Chen, P. Rogl, Calphad, 35, 103-8(2011).
$
$ Dataset created 2017.07.15 by Bengt Hallstedt.
$ 2021.02.05: Modified for use with GES6.
$
$ Bcc and liquid interactions are kept from 04Dan.
$
$ ------------------------------------------------------------------------------
 TEMP-LIM 298.15 6000.00 !
$
$ELEMENT NAME  REF. STATE               ATOMIC MASS H298-H0    S298    !
$
 ELEMENT VA   VACUUM                      0.0          0.0      0.0    ! 
 ELEMENT TA   BCC_A2                    180.9479    5681.872   41.4718 ! 
 ELEMENT V    BCC_A2                     50.9415    4507.0     30.89   ! 
$ ------------------------------------------------------------------------------
$ Phase definitions
$
 PHASE LIQUID:L % 1 1 !
 CONST LIQUID:L : TA V : !
$
$ Fcc (cF4, Fm-3m) and MeX (cF8, Fm-3m)
$
 PHASE FCC_A1 %A 2 1 1 !
 CONST FCC_A1 : TA V : VA : !
$
$ Bcc (cI2, Im-3m)
$
 PHASE BCC_A2 %B 2 1 3 !
 CONST BCC_A2 : TA% V% : VA : !
$
$ Hcp (hP2, P6_3/mmc) and Me2X (NiAs-type, hP4, P6_3/mmc, B8_1)
$
 PHASE HCP_A3 %A 2 1 0.5 !
 CONST HCP_A3 : TA V : VA : !
$
$ Prototype MgZn2 (hP12, P6_3/mmc), high T
$
 PHASE C14_LAVES % 2 2 1 !
 CONST C14_LAVES : TA V% : TA% V : !
$
$ Prototype Cu2Mg (cF24, Fd-3m), low T
$
 PHASE C15_LAVES % 2 2 1 !
 CONST C15_LAVES : TA V% : TA% V : !
$ ------------------------------------------------------------------------------
$ Defaults
$
 DEFINE-SYSTEM-DEFAULT ELEMENT 2 !
 DEFAULT-COM DEFINE_SYSTEM_ELEMENT VA !
 TYPE-DEF % SEQ * !
 TYPE-DEF A GES AMEND_PHASE_DESCRIPTION @ MAGNETIC -3 0.28 !
 TYPE-DEF B GES AMEND_PHASE_DESCRIPTION @ MAGNETIC -1 0.4 !
 FUNCTION ZERO      298.15  0;                                         6000 N !
 FUNCTION UN_ASS    298.15  0;                                         6000 N !
 FUNCTION R         298.15  +8.31451;                                  6000 N !
$ ------------------------------------------------------------------------------
$ Element data
$ ------------------------------------------------------------------------------
$ Ta
$
 PAR  G(BCC_A2,TA:VA),,                 +GHSERTA;,,                   N 91Din !
 PAR  G(FCC_A1,TA:VA),,                 +GHSERTA+16000+1.7*T;,,       N 91Din !
 PAR  G(HCP_A3,TA:VA),,                 +GHSERTA+12000+2.4*T;,,       N 91Din !
 PAR  G(LIQUID,TA),,                    +GLIQTA;,,                    N 91Din !
$
 PAR  G(C14_LAVES,TA:TA),,              +3*GHSERTA+28038;,,           N 11Pav !
 PAR  G(C15_LAVES,TA:TA),,              +3*GHSERTA+32815;,,           N 11Pav !
$
 FUNCTION GHSERTA   298.15  -7285.889+119.139857*T-23.7592624*T*LN(T)
       -0.002623033*T**2+1.70109E-07*T**3-3293*T**(-1);
      1300.00  Y  -22389.955+243.88676*T-41.137088*T*LN(T)
       +0.006167572*T**2-6.55136E-07*T**3+2429586*T**(-1);
      2500.00  Y  +229382.886-722.59722*T+78.5244752*T*LN(T)
       -0.017983376*T**2+1.95033E-07*T**3-93813648*T**(-1);
      3290.00  Y  -1042384.01+2985.49125*T-362.159132*T*LN(T)
       +0.043117795*T**2-1.055148E-06*T**3+5.54714342E+08*T**(-1);
      6000.00  N !
 FUNCTION GLIQTA    298.15  +29160.975-7.578729*T+GHSERTA;
      1000.00  Y  +43884.339-61.981795*T+0.0279523*T*LN(T)
       -0.012330066*T**2+6.14599E-07*T**3-3523338*T**(-1);
      3290.00  Y  -6314.543+258.110873*T-41.84*T*LN(T);
      6000.00  N !
$ ------------------------------------------------------------------------------
$ V
$
 PAR  G(BCC_A2,V:VA),,                  +GHSERVV;                4000 N 91Din !
 PAR  G(FCC_A1,V:VA),,                  +GHSERVV+7500+1.7*T;     4000 N 91Din !
 PAR  G(HCP_A3,V:VA),,                  +GHSERVV+4000+2.4*T;     4000 N 91Din !
$PAR  G(CBCC_A12,V:VA),,                +GHSERVV+9000;           4000 N 91Din !
$PAR  G(CUB_A13,V:VA),,                 +GHSERVV+10000;          4000 N 91Din !
 PAR  G(LIQUID,V),,                     +GLIQVV;                 4000 N 91Din !
$
 PAR  G(C14_LAVES,V:V),,                +3*GHSERVV+29440;,,           N 11Pav !
 PAR  G(C15_LAVES,V:V),,                +3*GHSERVV+33703;,,           N 11Pav !
$
 FUNCTION GHSERVV   298.15  -7930.43+133.346053*T-24.134*T*LN(T)
       -0.003098*T**2+1.2175E-07*T**3+69460*T**(-1);
       790.00  Y  -7967.842+143.291093*T-25.9*T*LN(T)
       +6.25E-05*T**2-6.8E-07*T**3;
      2183.00  Y  -41689.864+321.140783*T-47.43*T*LN(T)+6.44389E+31*T**(-9);
      4000.00  N !
 FUNCTION GLIQVV    298.15  +20764.117-9.455552*T+GHSERVV-5.19136E-22*T**7;
      2183.00  Y  -19617.51+311.055983*T-47.43*T*LN(T);
      4000.00  N !
$ ------------------------------------------------------------------------------
$ Binary system
$
$ J. Pavlu, J. Vrestal, X.-Q. Chen, P. Rogl, Calphad, 35, 103-8(2011).
$
$ Bcc and liquid interactions are kept from 04Dan.
$
$ Checked against paper and authors tdb. Checked at 6000K.
$
 PAR  L(LIQUID,TA,V;0),,                -3707.72+0.285*T;,,           N 04Dan !
$
 PAR  L(BCC_A2,TA,V:VA;0),,             +5476.65;,,                   N 04Dan !
 PAR  L(BCC_A2,TA,V:VA;1),,             -16527.68;,,                  N 04Dan !
$
 PAR  G(C14_LAVES,TA:V),,               +2*GHSERTA+GHSERVV
             +140061;,,                                               N 11Pav !
 PAR  G(C14_LAVES,V:TA),,               +2*GHSERVV+GHSERTA
             -34199-1.57*T+1.57*T*LN(T);,,                            N 11Pav !
 PAR  L(C14_LAVES,TA,V:TA;0),,          +14800;,,                     N 11Pav !
 PAR  L(C14_LAVES,V:TA,V;0),,           -4200;,,                      N 11Pav !
$
 PAR  G(C15_LAVES,TA:V),,               +2*GHSERTA+GHSERVV
             +144335;,,                                               N 11Pav !
 PAR  G(C15_LAVES,V:TA),,               +2*GHSERVV+GHSERTA
             -30525+0.1782*T-0.19*T*LN(T)+0.0059*T**2;,,              N 11Pav !
 PAR  L(C15_LAVES,TA,V:TA;0),,          +1011;,,                      N 11Pav !
 PAR  L(C15_LAVES,V:TA,V;0),,           -6124;,,                      N 11Pav !
$
$ Metastable
$
 PAR  L(FCC_A1,TA,V:VA;0),,             +5476.65;,,                   N Same !
 PAR  L(FCC_A1,TA,V:VA;1),,             -16527.68;,,                  N Same !
$
 PAR  L(HCP_A3,TA,V:VA;0),,             +5476.65;,,                   N Same !
 PAR  L(HCP_A3,TA,V:VA;1),,             -16527.68;,,                  N Same !
$ ------------------------------------------------------------------------------
$
 ASSESSED_SYSTEM
   TA-V(TDB -* +LIQUID +BCC_A2 +C15_LAVES +C14_LAVES
   ;P3 TMM:300/3500 STP:.5/2000/2/-2) !
$
$
 LIST-OF-REFERENCE
 NUMBER  SOURCE
  Null   'Unknown source'
  Same   'Same or similar interaction as in the corresponding stable phase'
  REFLAV 'Laves phase convention: G(LAVES,X:X)=+3*GHSERXX+15000'
  COST   'COST 507 database'
  91Din  'A.T. Dinsdale, Calphad, 15, 317-425(1991).'
  04Dan  'C.A. Danon, C. Servant, J. Alloys Compd., 366, 191-200(2004); Ta-V'
  11Pav  'J. Pavlu, J. Vrestal, X.-Q. Chen, P. Rogl,
          Calphad, 35, 103-8(2011); Ta-V'
!
