$
$ Database for Mg-Zr from R. Arroyave et al. 2005.
$
$ R. Arroyave, D. Shin, Z.-K. Liu, Calphad, 29, 230-38(2005).
$
$ Dataset created 2018.02.25 by Bengt Hallstedt.
$ 2021.01.24: Modified for use with GES6.
$
$ The temperature dependencies are rather large.
$
$ ------------------------------------------------------------------------------
 TEMP-LIM 298.15 6000.00 !
$
$ELEMENT NAME  REF. STATE               ATOMIC MASS H298-H0    S298    !
$
 ELEMENT VA   VACUUM                      0.0          0.0      0.0    ! 
 ELEMENT MG   HCP_A3                     24.305     4998.      32.671  !
 ELEMENT ZR   HCP_A3                     91.22      5566.27    39.1809 ! 
$ ------------------------------------------------------------------------------
$ Phase definitions
$
 PHASE LIQUID:L % 1 1 !
 CONST LIQUID:L : MG ZR : !
$
$ Fcc (cF4, Fm-3m) and MeX (cF8, Fm-3m)
$
 PHASE FCC_A1 %A 2 1 1 !
 CONST FCC_A1 : MG ZR : VA : !
$
$ Bcc (cI2, Im-3m)
$
 PHASE BCC_A2 %B 2 1 3 !
 CONST BCC_A2 : MG ZR% : VA : !
$
$ Hcp (hP2, P6_3/mmc) and Me2X (NiAs-type, hP4, P6_3/mmc, B8_1)
$
 PHASE HCP_A3 %A 2 1 0.5 !
 CONST HCP_A3 : MG ZR : VA : !
$ ------------------------------------------------------------------------------
$ Defaults
$
 DEFINE-SYSTEM-DEFAULT ELEMENT 2 !
 DEFAULT-COM DEFINE_SYSTEM_ELEMENT VA !
 TYPE-DEF % SEQ * !
 TYPE-DEF A GES AMEND_PHASE_DESCRIPTION @ MAGNETIC -3 0.28 !
 TYPE-DEF B GES AMEND_PHASE_DESCRIPTION @ MAGNETIC -1 0.4 !
 FUNCTION ZERO      298.15  0;                                         6000 N !
 FUNCTION UN_ASS    298.15  0;                                         6000 N !
 FUNCTION R         298.15  +8.31451;                                  6000 N !
$ ------------------------------------------------------------------------------
$ Element data
$ ------------------------------------------------------------------------------
$ Mg
$
 PAR  G(FCC_A1,MG:VA),,                 +GHSERMG+2600-0.9*T;     3000 N 91Din !
 PAR  G(BCC_A2,MG:VA),,                 +GHSERMG+3100-2.1*T;     3000 N 91Din !
 PAR  G(HCP_A3,MG:VA),,                 +GHSERMG;                3000 N 91Din !
$PAR  G(CBCC_A12,MG:VA),,               +GHSERMG
$            +4602.4-3.011*T;                                    3000 N 91Din !
$PAR  G(CUB_A13,MG:VA),,                +GHSERMG+5000-3*T;       3000 N 91Din !
 PAR  G(LIQUID,MG),,                    +GLIQMG;                 3000 N 91Din !
$
 FUNCTION GHSERMG   298.15  -8367.34+143.675547*T-26.1849782*T*LN(T)
       +4.858E-04*T**2-1.393669E-06*T**3+78950*T**(-1);
       923.00  Y  -14130.185+204.716215*T-34.3088*T*LN(T)+1.038192E+28*T**(-9);
      3000.00  N !
 FUNCTION GLIQMG    298.15  +8202.243-8.83693*T+GHSERMG-8.0176E-20*T**7;
       923.00  Y  -5439.869+195.324057*T-34.3088*T*LN(T);
      3000.00  N !
$ ------------------------------------------------------------------------------
$ Zr
$
$ CUB_A13, CBCC_A12, ORTHORHOMBIC_A20 and TETRAGONAL_U added in unary 4.1
$
 PAR  G(HCP_A3,ZR:VA)           130.00  +GHSERZR;,,                   N 91Din !
 PAR  G(BCC_A2,ZR:VA)           130.00  +GBCCZR;,,                    N 91Din !
$PAR  G(OMEGA,ZR)               130.00  +GOMEZR;,,                    N 91Din !
 PAR  G(FCC_A1,ZR:VA)           130.00  +GHSERZR+7600-0.9*T;,,        N 91Din !
$PAR  G(CBCC_A12,ZR:VA)         130.00  +GHSERZR+4602.2;,,            N 99SGUN !
$PAR  G(CUB_A13,ZR:VA)          130.00  +GHSERZR+7531.2;,,            N 99SGUN !
$PAR  G(ORTHORHOMBIC_A20,ZR)    130.00  +GBCCZR+5000;,,               N 99SGUN !
$PAR  G(TETRAGONAL_U,ZR)        130.00  +GBCCZR+5000;,,               N 99SGUN !
 PAR  G(LIQUID,ZR)              130.00  +GLIQZR;,,                    N 91Din !
$
 FUNCTION GHSERZR   130.00  -7827.595+125.64905*T-24.1618*T*LN(T)
       -0.00437791*T**2+34971*T**(-1);
      2128.00  Y  -26085.921+262.724183*T-42.144*T*LN(T)-1.342896E+31*T**(-9);
      6000.00  N !
 FUNCTION GBCCZR    130.00  -525.539+124.9457*T-25.607406*T*LN(T)
       -3.40084E-04*T**2-9.729E-09*T**3+25233*T**(-1)-7.6143E-11*T**4;
      2128.00  Y  -4620.034+1.55998*T+GHSERZR+1.4103476E+32*T**(-9);
      6000.00  N !
 FUNCTION GOMEZR    130.00  -8878.082+144.432234*T-26.8556*T*LN(T)
       -0.002799446*T**2+38376*T**(-1);
      2128.00  Y  -3414.603+2.566675*T+GHSERZR+8.517346E+31*T**(-9);
      6000.00  N !
 FUNCTION GLIQZR    130.00  +18147.69-9.080812*T+GHSERZR+1.6275E-22*T**7;
      2128.00  Y  -8281.26+253.812609*T-42.144*T*LN(T);
      6000.00  N !
$ ------------------------------------------------------------------------------
$ Binary system
$
$ R. Arroyave, D. Shin, Z.-K. Liu, Calphad, 29, 230-38(2005).
$
$ Checked against paper. Checked at 6000K.
$
$ The temperature dependencies are rather large.
$
 PAR  L(LIQUID,MG,ZR;0),,               +4961+38.18*T;,,              N 05Arr !
$
 PAR  L(BCC_A2,MG,ZR:VA;0),,            +19512+31.816*T;,,            N 05Arr !
$
 PAR  L(HCP_A3,MG,ZR:VA;0),,            +30384+13.723*T;,,            N 05Arr !
 PAR  L(HCP_A3,MG,ZR:VA;1),,            +18589-25.175*T;,,            N 05Arr !
$
$ Metastable
$
 PAR  L(FCC_A1,MG,ZR:VA;0),,            +30384+13.723*T;,,            N Same !
 PAR  L(FCC_A1,MG,ZR:VA;1),,            +18589-25.175*T;,,            N Same !
$ ------------------------------------------------------------------------------
$
 ASSESSED_SYSTEM
  MG-ZR(TDB -* +LIQUID +HCP_A3 +BCC_A2 ;G5 C_S:HCP/MG:VA MAJ:HCP/ZR:VA
  C_S:LIQ/MG MAJ:LIQ/ZR MAJ:BCC/ZR:VA ;P3 TMM:300/2300 STP:.99/1750/2/-2) !
$
$
 LIST-OF-REFERENCE
 NUMBER  SOURCE
  Null   'Unknown source'
  Same   'Same or similar interaction as in the corresponding stable phase'
  REFLAV 'Laves phase convention: G(LAVES,X:X)=+3*GHSERXX+15000'
  COST   'COST 507 database'
  91Din  'A.T. Dinsdale, Calphad, 15, 317-425(1991).'
  99SGUN 'SGTE unary database V.4.1, 1999.'
  05Arr  'R. Arroyave, D. Shin, Z.-K. Liu, Calphad, 29, 230-38(2005); Mg-Zr'
!
