$
$ Database for Ag-W from M. Vijayakumar et al. 1988 (included in LB Vol. 5)
$
$ M. Vijayakumar, A.M. Sriramamurthy, S.V. Nagender Naidu,
$ Calphad, 12, 177-84(1988).
$
$ Dataset created 2011.04.22 by Bengt Hallstedt.
$ 2020.12.20: Modified for use with GES6.
$
$ ------------------------------------------------------------------------------
 TEMP-LIM 298.15 6000.00 !
$
$ELEMENT NAME  REF. STATE               ATOMIC MASS H298-H0    S298    !
$
 ELEMENT VA   VACUUM                      0.0          0.0      0.0    ! 
 ELEMENT AG   FCC_A1                    107.8682    5745.      42.55   ! 
 ELEMENT W    BCC_A2                    183.85      4970.0     32.6176 ! 
$ ------------------------------------------------------------------------------
$ Species
$
 SPECIE  AG2                                AG2 !
$ ------------------------------------------------------------------------------
$ Phase definitions
$
 PHASE LIQUID:L % 1 1 !
 CONST LIQUID:L : AG W : !
$
$ Fcc (cF4, Fm-3m) and MeX (cF8, Fm-3m)
$
 PHASE FCC_A1 %A 2 1 1 !
 CONST FCC_A1 : AG% W : VA : !
$
$ Bcc (cI2, Im-3m)
$
 PHASE BCC_A2 %B 2 1 3 !
 CONST BCC_A2 : AG W% : VA : !
$
$ Hcp (hP2, P6_3/mmc) and Me2X (NiAs-type, hP4, P6_3/mmc, B8_1)
$
 PHASE HCP_A3 %A 2 1 0.5 !
 CONST HCP_A3 : AG W : VA : !
$
 PHASE GAS:G % 1 1 !
 CONST GAS:G : AG AG2 W : !
$ ------------------------------------------------------------------------------
$ Defaults
$
 DEFINE-SYSTEM-DEFAULT ELEMENT 2 !
 DEFAULT-COM DEFINE_SYSTEM_ELEMENT VA !
 TYPE-DEF % SEQ * !
 TYPE-DEF A GES AMEND_PHASE_DESCRIPTION @ MAGNETIC -3 0.28 !
 TYPE-DEF B GES AMEND_PHASE_DESCRIPTION @ MAGNETIC -1 0.4 !
 FUNCTION ZERO      298.15  0;                                         6000 N !
 FUNCTION UN_ASS    298.15  0;                                         6000 N !
 FUNCTION R         298.15  +8.31451;                                  6000 N !
 FUNCTION RTLNP 298.15 R*T*LN(1E-5*P); 6000 N 0 !
$ ------------------------------------------------------------------------------
$ Element data
$ ------------------------------------------------------------------------------
$ Ag
$
$ CUB_A13 added in unary 3.0
$ CUB_A13 revised in unary 4.1
$ BCT_A5 added in unary 4.1
$
 PAR  G(FCC_A1,AG:VA),,                 +GHSERAG;                3000 N 91Din !
 PAR  G(HCP_A3,AG:VA),,                 +GHSERAG+300+0.3*T;      3000 N 91Din !
 PAR  G(BCC_A2,AG:VA),,                 +GHSERAG+3400-1.05*T;    3000 N 91Din !
$PAR  G(CUB_A13,AG:VA),,                +GHSERAG+3400-1.05*T;    3000 N 95Lim !
$PAR  G(CUB_A13,AG:VA),,                +GHSERAG
$            +3765.6-1.8826*T;                                   3000 N 96SGUN !
$PAR  G(BCT_A5,AG:VA),,                 +GHSERAG+4184.1;         3000 N 96Oh !
 PAR  G(LIQUID,AG),,                    +GLIQAG;                 3000 N 91Din !
$
 PAR  G(GAS,AG),,                       +FAG+RTLNP;,,                 N 94SUB !
 PAR  G(GAS,AG2),,                      +FAG2+RTLNP;,,                N 94SUB !
$
 FUNCTION GHSERAG   298.15  -7209.512+118.202013*T-23.8463314*T*LN(T)
       -0.001790585*T**2-3.98587E-07*T**3-12011*T**(-1);
      1234.93  Y  -15095.252+190.266404*T-33.472*T*LN(T)+1.411773E+29*T**(-9);
      3000.00  N !
 FUNCTION GLIQAG    298.15  +11025.076-8.89102*T+GHSERAG-1.033905E-20*T**7;
      1234.93  Y  -3587.111+180.964656*T-33.472*T*LN(T);
      3000.00  N !
$ Ag (g) :
 FUNCTION FAG       298.15  +278646.828-32.9952163*T-20.90237*T*LN(T)
       +7.014945E-05*T**2-6.05461833E-09*T**3+4031.7135*T**(-1);
      4100.00  Y  +243248.852+91.8458715*T-36.204*T*LN(T)
       +0.002972594*T**2-1.0817135E-07*T**3+15123625*T**(-1);
      8200.00  Y  +1054861.92-1266.75624*T+114.8787*T*LN(T)
       -0.00957561*T**2+8.79506333E-08*T**3-8.057185E+08*T**(-1);
     10000.00  N !
$ Ag2 (g) :
 FUNCTION FAG2      298.15   +396494.901-7.11759798*T-37.40575*T*LN(T)
       -3.6454985E-06*T**2+2.40071E-10*T**3+24860.28*T**(-1);
      3000.00  N !
$ ------------------------------------------------------------------------------
$ W
$
 PAR  G(BCC_A2,W:VA),,                  +GHSERWW;,,                   N 91Din !
 PAR  G(FCC_A1,W:VA),,                  +GHSERWW+19300+0.63*T;,,      N 91Din !
 PAR  G(HCP_A3,W:VA),,                  +GHSERWW+14750;,,             N 91Din !
 PAR  G(LIQUID,W),,                     +GLIQWW;,,                    N 91Din !
$
 PAR  G(GAS,W),,                        +FW+RTLNP;,,                  N 00SUB !
$
 FUNCTION GHSERWW   298.15  -7646.311+130.4*T-24.1*T*LN(T)
       -0.001936*T**2+2.07E-07*T**3+44500*T**(-1)-5.33E-11*T**4;
      3695.00  Y  -82868.801+389.362335*T-54*T*LN(T)+1.528621E+33*T**(-9);
      6000.00  N !
 FUNCTION GLIQWW    298.15  +52160.584-14.10999*T+GHSERWW-2.713468E-24*T**7;
      3695.00  Y  -30436.051+375.175*T-54*T*LN(T);
      6000.00  N !
 FUNCTION GFCCWW    298.15  +GHSERWW+19300+0.63*T;                     6000 N !
$ W (g) :
 FUNCTION FW        298.15  +848346-101.939*T-10.0688*T*LN(T)
       -0.00906525*T**2-3.91925E-06*T**3-166379*T**(-1);
       500.00  Y  +868905-461.887*T+47.144*T*LN(T)
       -0.0795862*T**2+1.23171E-05*T**3-1547170*T**(-1);
       900.00  Y  +769537+603.861*T-108.05*T*LN(T)
       +0.0281932*T**2-1.72977E-06*T**3+10384000*T**(-1);
      1400.00  Y  +804295+386.11*T-79.0932*T*LN(T)
       +0.0180592*T**2-1.12546E-06*T**3+2849180*T**(-1);
      2600.00  Y  +962472-318.212*T+10.3065*T*LN(T)
       -0.00464791*T**2-3.16584E-08*T**3-50175700*T**(-1);
      4400.00  Y  +1180690-1008.4*T+93.6762*T*LN(T)
       -0.018716*T**2+4.10974E-07*T**3-1.56528E+08*T**(-1);
      6800.00  Y  +3474.95+1265.96*T-163.869*T*LN(T)
       +0.0064269*T**2-5.11351E-08*T**3+8.56375E+08*T**(-1);
     10000.00  N !
$ ------------------------------------------------------------------------------
$ Binary system
$
$ From from M. Vijayakumar et al. 1988 (included in LB Vol. 5)
$
$ M. Vijayakumar, A.M. Sriramamurthy, S.V. Nagender Naidu,
$ Calphad, 12, 177-84(1988).
$
$ Checked against LB and paper. Checked at 6000 K.
$
 PAR  L(LIQUID,AG,W;0),,                +158500;,,                    N 88Vij !
 PAR  L(LIQUID,AG,W;1),,                -2500;,,                      N 88Vij !
$
 PAR  L(FCC_A1,AG,W:VA;0),,             +158500;,,                    N 05Hac !
 PAR  L(FCC_A1,AG,W:VA;1),,             -2500;,,                      N 05Hac !
$
 PAR  L(BCC_A2,AG,W:VA;0),,             +158500;,,                    N 05Hac !
 PAR  L(BCC_A2,AG,W:VA;1),,             -2500;,,                      N 05Hac !
$
$ Metastable
$
 PAR  L(HCP_A3,AG,W:VA;0),,             +158500;,,                    N Same !
 PAR  L(HCP_A3,AG,W:VA;1),,             -2500;,,                      N Same !
$ ------------------------------------------------------------------------------
$
 ASSESSED_SYSTEM
  AG-W(TDB -* +GAS +LIQUID +FCC_A1 +BCC_A2 ;G5 C_S:LIQUID/W MAJ:LIQUID/AG 
  ;P3 TMM:500/6000 STP:.2/1200/1) !
$
$
 LIST-OF-REFERENCE
 NUMBER  SOURCE
  Null   'Unknown source'
  Same   'Same or similar interaction as in the corresponding stable phase'
  COST   'COST 507 database'
  88Vij  'M. Vijayakumar, A.M. Sriramamurthy, S.V. Nagender Naidu,
          Calphad, 12, 177-84(1988); Ag-W'
  91Din  'A.T. Dinsdale, Calphad, 15, 317-425(1991).'
  94SUB  'SGTE Substance Database, version 1994'
  95Lim  'S.S. Lim, P.L. Rossiter, J.W. Tibballs, Calphad, 19, 131-41(1995),
          SGTE unary database V.4.1, 1999; Ag'
  96Oh   'C.-S. Oh, J.-H. Shim, B.-J. Lee, D.N. Lee,
          J. Alloys Compounds, 238, 155-66(1996),
          SGTE unary database V.4.1, 1999; Ag'
  96SGUN 'SGTE unary database V.3.0, 1996.'
  00SUB  'SGTE Substance Database, version 2000'
  05Hac  'K. Hack, unpublished, GTT, 2005; Ag-W'
!
