$
$ Database for Cd-Mg from X. Ren et al. 2012.
$
$ X. Ren, C. Li, C. Guo, Z.Du, Thermochim. Acta, 534, 1-8(2012).
$
$ Dataset created 2018.05.20 by Bengt Hallstedt.
$ 2020.12.25: Modified for use with GES6.
$
$ 4-SL model for hcp ordering. To my understanding option F cannot be used
$ because of different values for different reciprocal interactions.
$
$ ------------------------------------------------------------------------------
 TEMP-LIM 298.15 6000.00 !
$
$ELEMENT NAME  REF. STATE               ATOMIC MASS H298-H0    S298    !
$
 ELEMENT VA   VACUUM                      0.0          0.0      0.0    ! 
 ELEMENT CD   HCP_A3                    112.41      6247.      51.80   ! 
 ELEMENT MG   HCP_A3                     24.305     4998.      32.671  !
$ ------------------------------------------------------------------------------
$ Phase definitions
$
 PHASE LIQUID:L % 1 1 !
 CONST LIQUID:L : CD MG : !
$
$ Fcc (cF4, Fm-3m) and MeX (cF8, Fm-3m)
$
 PHASE FCC_A1 %A 2 1 1 !
 CONST FCC_A1 : CD MG : VA : !
$
$ Bcc (cI2, Im-3m)
$
 PHASE BCC_A2 %B 2 1 3 !
 CONST BCC_A2 : CD MG : VA : !
$
$ Hcp (hP2, P6_3/mmc) and Me2X (NiAs-type, hP4, P6_3/mmc, B8_1)
$
 PHASE HCP_A3 %A 2 1 0.5 !
 CONST HCP_A3 : CD MG : VA : !
$
$ Disordered part of HCP_4SL, identical to HCP_A3
$
 PHASE A3_HCP %A 2 1 0.5 !
 CONST A3_HCP : CD MG : VA : !
$
$ Prototype AuCd (B19, oP4, Pmma) and CdMg3 (D0_19, hP8, P6_3/mmc)
$
 PHASE HCP_4SL %AZ 5 0.25 0.25 0.25 0.25 0.5 !
 CONST HCP_4SL : CD MG : CD MG : CD MG : CD MG : VA : !
$ ------------------------------------------------------------------------------
$ Defaults
$
 DEFINE-SYSTEM-DEFAULT ELEMENT 2 !
 DEFAULT-COM DEFINE_SYSTEM_ELEMENT VA !
 DEFAULT-COM REJECT-PHASE HCP_A3 !
 TYPE-DEF % SEQ * !
 TYPE-DEF A GES AMEND_PHASE_DESCRIPTION @ MAGNETIC -3 0.28 !
 TYPE-DEF B GES AMEND_PHASE_DESCRIPTION @ MAGNETIC -1 0.4 !
 TYPE-DEF Z GES AMEND_PHASE_DESCRIPTION HCP_4SL DIS_PART A3_HCP !
 FUNCTION ZERO      298.15  0;                                         6000 N !
 FUNCTION UN_ASS    298.15  0;                                         6000 N !
 FUNCTION R         298.15  +8.31451;                                  6000 N !
$ ------------------------------------------------------------------------------
$ Element data
$ ------------------------------------------------------------------------------
$ Cd
$
$ FCC_A1 and TETRAGONAL_A6 added in unary 3.0
$ BCT_A5 and RHOMBO_A10 added in unary 4.1
$ BCC_A2 added in unary 5.0
$
$ FCC_A1 from 04Che2 and 10Che not included in unary
$
 PAR  G(HCP_A3,CD:VA),,                 +GHSERCD;                1600 N 91Din !
 PAR  G(A3_HCP,CD:VA),,                 +GHSERCD;                1600 N 91Din !
 PAR  G(FCC_A1,CD:VA),,                 +GHSERCD+892.3-0.92*T;   1600 N 93Zak !
$PAR  G(FCC_A1,CD:VA),,                 +GLIQCD-5300+9.5*T;      1600 N 04Che2 !
$PAR  G(FCC_A1,CD:VA),,                 +GHSERCD+5000;           1600 N 10Che !
 PAR  G(BCC_A2,CD:VA),,                 +GHSERCD+1000;           1600 N 04Che1 !
$PAR  G(TETRAGONAL_A6,CD),,             +GHSERCD+892.3-0.92*T;   1600 N 93Zak !
$PAR  G(BCT_A5,CD),,                    +GHSERCD+5000;           1600 N 95Yan !
$PAR  G(RHOMBO_A10,CD),,                +GHSERCD+800-0.62*T;     1600 N 95Yan !
 PAR  G(LIQUID,CD),,                    +GLIQCD;                 1600 N 91Din !
$
 FUNCTION GHSERCD   298.15  -7083.469+99.506198*T-22.0442408*T*LN(T)
       -0.006273908*T**2-6966*T**(-1);
       594.22  Y  -20064.971+256.812233*T-45.1611543*T*LN(T)
       +0.008832011*T**2-8.99604E-07*T**3+1241290*T**(-1);
      1500.00  Y  -9027.489+148.20548*T-29.7064*T*LN(T);
      1600.00  N !
 FUNCTION GLIQCD    298.15  +6128.444-10.296916*T+GHSERCD;
       400.00  Y  +21716.884-371.046869*T+53.1313898*T*LN(T)
       -0.115159917*T**2+2.8899781E-05*T**3-1271815*T**(-1);
       594.22  Y  -3252.303+138.251107*T-29.7064*T*LN(T);
      1500.00  Y  +5775.186-9.954373*T+GHSERCD;
      1600.00  N !
 FUNCTION GBCCCD    298.15  +GHSERCD+1000;                             6000 N !
$ ------------------------------------------------------------------------------
$ Mg
$
 PAR  G(HCP_A3,MG:VA),,                 +GHSERMG;                3000 N 91Din !
 PAR  G(A3_HCP,MG:VA),,                 +GHSERMG;                3000 N 91Din !
 PAR  G(FCC_A1,MG:VA),,                 +GHSERMG+2600-0.9*T;     3000 N 91Din !
 PAR  G(BCC_A2,MG:VA),,                 +GHSERMG+3100-2.1*T;     3000 N 91Din !
 PAR  G(LIQUID,MG),,                    +GLIQMG;                 3000 N 91Din !
$
 FUNCTION GHSERMG   298.15  -8367.34+143.675547*T-26.1849782*T*LN(T)
       +4.858E-04*T**2-1.393669E-06*T**3+78950*T**(-1);
       923.00  Y  -14130.185+204.716215*T-34.3088*T*LN(T)+1.038192E+28*T**(-9);
      3000.00  N !
 FUNCTION GLIQMG    298.15  +8202.243-8.83693*T+GHSERMG-8.0176E-20*T**7;
       923.00  Y  -5439.869+195.324057*T-34.3088*T*LN(T);
      3000.00  N !
$ ------------------------------------------------------------------------------
$ Binary system
$
$ X. Ren, C. Li, C. Guo, Z.Du, Thermochim. Acta, 534, 1-8(2012).
$
$ Checked against paper. Checked at 6000 K.
$
$ 4-SL model for hcp ordering. To my understanding option F cannot be used
$ because of different values for different reciprocal interactions.
$
 PAR  L(LIQUID,CD,MG;0),,               -22425.127+4.527*T;,,         N 12Ren !
 PAR  L(LIQUID,CD,MG;1),,               -441.119-0.059*T;,,           N 12Ren !
$
 PAR  L(HCP_A3,CD,MG:VA;0),,            -22110.062+6.624*T;,,         N 12Ren !
 PAR  L(HCP_A3,CD,MG:VA;1),,            +1619.529-4.844*T;,,          N 12Ren !
 PAR  L(HCP_A3,CD,MG:VA;2),,            +9185.106-12.09*T;,,          N 12Ren !
$
 PAR  L(A3_HCP,CD,MG:VA;0),,            -22110.062+6.624*T;,,         N 12Ren !
 PAR  L(A3_HCP,CD,MG:VA;1),,            +1619.529-4.844*T;,,          N 12Ren !
 PAR  L(A3_HCP,CD,MG:VA;2),,            +9185.106-12.09*T;,,          N 12Ren !
$
 PAR  G(HCP_4SL,CD:CD:CD:MG:VA),,       -5669.51+5.2*T
             -1.19*T*LN(T);,,                                         N 12Ren !
 PAR  G(HCP_4SL,CD:CD:MG:CD:VA),,       -5669.51+5.2*T
             -1.19*T*LN(T);,,                                         N 12Ren !
 PAR  G(HCP_4SL,CD:MG:CD:CD:VA),,       -5669.51+5.2*T
             -1.19*T*LN(T);,,                                         N 12Ren !
 PAR  G(HCP_4SL,MG:CD:CD:CD:VA),,       -5669.51+5.2*T
             -1.19*T*LN(T);,,                                         N 12Ren !
 PAR  G(HCP_4SL,CD:CD:MG:MG:VA),,       -10018.449+8.62*T
             -1.19*T*LN(T);,,                                         N 12Ren !
 PAR  G(HCP_4SL,CD:MG:CD:MG:VA),,       -10018.449+8.62*T
             -1.19*T*LN(T);,,                                         N 12Ren !
 PAR  G(HCP_4SL,CD:MG:MG:CD:VA),,       -10018.449+8.62*T
             -1.19*T*LN(T);,,                                         N 12Ren !
 PAR  G(HCP_4SL,MG:CD:CD:MG:VA),,       -10018.449+8.62*T
             -1.19*T*LN(T);,,                                         N 12Ren !
 PAR  G(HCP_4SL,MG:CD:MG:CD:VA),,       -10018.449+8.62*T
             -1.19*T*LN(T);,,                                         N 12Ren !
 PAR  G(HCP_4SL,MG:MG:CD:CD:VA),,       -10018.449+8.62*T
             -1.19*T*LN(T);,,                                         N 12Ren !
 PAR  G(HCP_4SL,CD:MG:MG:MG:VA),,       -6780+8.89*T-1.182*T*LN(T);,, N 12Ren !
 PAR  G(HCP_4SL,MG:CD:MG:MG:VA),,       -6780+8.89*T-1.182*T*LN(T);,, N 12Ren !
 PAR  G(HCP_4SL,MG:MG:CD:MG:VA),,       -6780+8.89*T-1.182*T*LN(T);,, N 12Ren !
 PAR  G(HCP_4SL,MG:MG:MG:CD:VA),,       -6780+8.89*T-1.182*T*LN(T);,, N 12Ren !
 PAR  L(HCP_4SL,CD,MG:*:*:*:VA;0),,     +450+1.49*T;,,                N 12Ren !
 PAR  L(HCP_4SL,*:CD,MG:*:*:VA;0),,     +450+1.49*T;,,                N 12Ren !
 PAR  L(HCP_4SL,*:*:CD,MG:*:VA;0),,     +450+1.49*T;,,                N 12Ren !
 PAR  L(HCP_4SL,*:*:*:CD,MG:VA;0),,     +450+1.49*T;,,                N 12Ren !
 PAR  L(HCP_4SL,CD,MG:CD,MG:CD:CD:VA;0),, -1200-5.4*T;,,              N 12Ren !
 PAR  L(HCP_4SL,CD,MG:CD:CD,MG:CD:VA;0),, -1200-5.4*T;,,              N 12Ren !
 PAR  L(HCP_4SL,CD,MG:CD:CD:CD,MG:VA;0),, -1200-5.4*T;,,              N 12Ren !
 PAR  L(HCP_4SL,CD:CD,MG:CD,MG:CD:VA;0),, -1200-5.4*T;,,              N 12Ren !
 PAR  L(HCP_4SL,CD:CD,MG:CD:CD,MG:VA;0),, -1200-5.4*T;,,              N 12Ren !
 PAR  L(HCP_4SL,CD:CD:CD,MG:CD,MG:VA;0),, -1200-5.4*T;,,              N 12Ren !
 PAR  L(HCP_4SL,CD,MG:CD,MG:CD:MG:VA;0),, -1234.22-2.93*T;,,          N 12Ren !
 PAR  L(HCP_4SL,CD,MG:CD,MG:MG:CD:VA;0),, -1234.22-2.93*T;,,          N 12Ren !
 PAR  L(HCP_4SL,CD,MG:CD:CD,MG:MG:VA;0),, -1234.22-2.93*T;,,          N 12Ren !
 PAR  L(HCP_4SL,CD,MG:MG:CD,MG:CD:VA;0),, -1234.22-2.93*T;,,          N 12Ren !
 PAR  L(HCP_4SL,CD,MG:CD:MG:CD,MG:VA;0),, -1234.22-2.93*T;,,          N 12Ren !
 PAR  L(HCP_4SL,CD,MG:MG:CD:CD,MG:VA;0),, -1234.22-2.93*T;,,          N 12Ren !
 PAR  L(HCP_4SL,CD:CD,MG:CD,MG:MG:VA;0),, -1234.22-2.93*T;,,          N 12Ren !
 PAR  L(HCP_4SL,MG:CD,MG:CD,MG:CD:VA;0),, -1234.22-2.93*T;,,          N 12Ren !
 PAR  L(HCP_4SL,CD:CD,MG:MG:CD,MG:VA;0),, -1234.22-2.93*T;,,          N 12Ren !
 PAR  L(HCP_4SL,MG:CD,MG:CD:CD,MG:VA;0),, -1234.22-2.93*T;,,          N 12Ren !
 PAR  L(HCP_4SL,CD:MG:CD,MG:CD,MG:VA;0),, -1234.22-2.93*T;,,          N 12Ren !
 PAR  L(HCP_4SL,MG:CD:CD,MG:CD,MG:VA;0),, -1234.22-2.93*T;,,          N 12Ren !
 PAR  L(HCP_4SL,CD,MG:CD,MG:MG:MG:VA;0),, +1513.791-4.53*T;,,         N 12Ren !
 PAR  L(HCP_4SL,CD,MG:MG:CD,MG:MG:VA;0),, +1513.791-4.53*T;,,         N 12Ren !
 PAR  L(HCP_4SL,CD,MG:MG:MG:CD,MG:VA;0),, +1513.791-4.53*T;,,         N 12Ren !
 PAR  L(HCP_4SL,MG:CD,MG:CD,MG:MG:VA;0),, +1513.791-4.53*T;,,         N 12Ren !
 PAR  L(HCP_4SL,MG:CD,MG:MG:CD,MG:VA;0),, +1513.791-4.53*T;,,         N 12Ren !
 PAR  L(HCP_4SL,MG:MG:CD,MG:CD,MG:VA;0),, +1513.791-4.53*T;,,         N 12Ren !
$
$ Metastable
$
 PAR  L(FCC_A1,CD,MG:VA;0),,            -22110.062+6.624*T;,,         N Same !
 PAR  L(FCC_A1,CD,MG:VA;1),,            +1619.529-4.844*T;,,          N Same !
 PAR  L(FCC_A1,CD,MG:VA;2),,            +9185.106-12.09*T;,,          N Same !
$
 PAR  L(BCC_A2,CD,MG:VA;0),,            -22110.062+6.624*T;,,         N Same !
 PAR  L(BCC_A2,CD,MG:VA;1),,            +1619.529-4.844*T;,,          N Same !
 PAR  L(BCC_A2,CD,MG:VA;2),,            +9185.106-12.09*T;,,          N Same !
$ ------------------------------------------------------------------------------
$
$
 LIST-OF-REFERENCE
 NUMBER  SOURCE
  Null   'Unknown source'
  Same   'Same or similar interaction as in the corresponding stable phase'
  COST   'COST 507 database'
  91Din  'A.T. Dinsdale, Calphad, 15, 317-425(1991).'
  93Zak  'W. Zakulski, Z. Moser, K. Rzyman, H.L. Lukas, S.G. Fries,
          M. Sukiennik, R. Kaczmarczyk, R. Castanet,
          J. Phase Equilib., 14, 184-96(1993),
          SGTE unary database V.3.0, 1996; Cd'
  95Yan  'J. Yang, N.J. Silk, A. Watson, A.W. Bryant, T.G. Chart, B.B. Argent,
          Calphad, 19, 415-30(1995), SGTE unary database V.4.1, 1999; Cd, Hg'
  04Che1 'P.-Y. Chevalier, unpublished, Thermodata, 2004,
          SGTE unary database V.5.0, 2009; Cd'
  04Che2 'P.-Y. Chevalier, unpublished, Thermodata, 2004; Cd'
  10Che  'X.M. Chen, L.B. Liu, L.G. Zhang, H. Bo, Z.P. Jin,
          Trans. Nonferrous Met. Soc. China, 20, 649-54(2010); Cd'
  12Ren  'X. Ren, C. Li, C. Guo, Z.Du, Thermochim. Acta, 534, 1-8(2012); Cd-Mg'
!
