$
$ Database for Gd-Mn from J. Wang et al. 2017.
$
$ J. Wang, S. Lin, M. Rong, G. Rao, H. Zhou,
$ J. Therm. Anal. Calorim., 128, 1009-18(2017).
$
$ Dataset created 2022.06.25 by Bengt Hallstedt.
$
$ Old data for Gd used. Changing to new Gd shifts the liquidus to lower
$ temperature on the Gd-rich side.
$
$ The fcc, bcc and hcp interactions are most probably too large.
$
$ Equilibria involving fcc-Mn differ by a few K since the Gd solubility in
$ fcc-Mn seems not to have been included in the calculation in the paper.
$
$ ------------------------------------------------------------------------------
 TEMP-LIM 298.15 6000.00 !
$
$ELEMENT NAME  REF. STATE               ATOMIC MASS H298-H0    S298    !
$
 ELEMENT VA   VACUUM                      0.0          0.0      0.0    ! 
 ELEMENT GD   HCP_A3                    157.25      9087.648   68.0894 ! 
 ELEMENT MN   CBCC_A12                   54.9380    4995.696   32.2206 ! 
$ ------------------------------------------------------------------------------
$ Phase definitions
$
 PHASE LIQUID:L % 1 1 !
 CONST LIQUID:L : GD MN : !
$
$ Fcc (cF4, Fm-3m) and MeX (cF8, Fm-3m)
$
 PHASE FCC_A1 %A 2 1 1 !
 CONST FCC_A1 : GD MN : VA : !
$
$ Bcc (cI2, Im-3m)
$
 PHASE BCC_A2 %B 2 1 3 !
 CONST BCC_A2 : GD MN : VA : !
$
$ Hcp (hP2, P6_3/mmc) and Me2X (NiAs-type, hP4, P6_3/mmc, B8_1)
$
 PHASE HCP_A3 %A 2 1 0.5 !
 CONST HCP_A3 : GD MN : VA : !
$
$ Prototype alpha-Mn (cI58, I-43m)
$
 PHASE CBCC_A12 %A 2 1 1 !
 CONST CBCC_A12 : MN : VA : !
$
$ Prototype beta-Mn (cP20, P4_132)
$
 PHASE CUB_A13 % 2 1 1 !
 CONST CUB_A13 : MN : VA : !
$
$ Prototype Cu2Mg (cF24, Fd-3m)
$
 PHASE GDMN2_C15 %A 2 1 2 !
 CONST GDMN2_C15 : GD : MN : !
$
$ Prototype Mn23Th6 (cF116, Fm-3m)
$
 PHASE GD6MN23_D8A %A 2 6 23 !
 CONST GD6MN23_D8A : GD : MN : !
$
$ Prototype Mn12Th (tI26, I4/mmm)
$
 PHASE GDMN12_D2B % 2 1 12 !
 CONST GDMN12_D2B : GD : MN : !
$ ------------------------------------------------------------------------------
$ Defaults
$
 DEFINE-SYSTEM-DEFAULT ELEMENT 2 !
 DEFAULT-COM DEFINE_SYSTEM_ELEMENT VA !
 TYPE-DEF % SEQ * !
 TYPE-DEF A GES AMEND_PHASE_DESCRIPTION @ MAGNETIC -3 0.28 !
 TYPE-DEF B GES AMEND_PHASE_DESCRIPTION @ MAGNETIC -1 0.4 !
 FUNCTION ZERO      298.15  0;                                         6000 N !
 FUNCTION UN_ASS    298.15  0;                                         6000 N !
 FUNCTION R         298.15  +8.31451;                                  6000 N !
$ ------------------------------------------------------------------------------
$ Element data
$ ------------------------------------------------------------------------------
$ Gd
$
$ Note! Old data for Gd.
$
$ FCC_A1 from 95Liu not included in unary
$
 PAR  G(HCP_A3,GD:VA)           200.00  +GHSERGD;                3600 N 91Din !
 PAR  TC(HCP_A3,GD:VA)          200.00    291.8;                 3600 N 91Din !
 PAR  BMAGN(HCP_A3,GD:VA)       200.00      3.0;                 3600 N 91Din !
 PAR  G(FCC_A1,GD:VA)           200.00  +GHSERGD+5000;           3600 N 95Liu !
 PAR  G(BCC_A2,GD:VA)           200.00  +GBCCGD;                 3600 N 91Din !
 PAR  G(LIQUID,GD)              200.00  +GLIQGD;                 3600 N 91Din !
$
 FUNCTION GHSERGD   200.00  -11600.525+151.111948*T-32.5013*T*LN(T)
       +0.00281265*T**2-1.081237E-06*T**3+421363*T**(-1);
      1300.00  Y  -8106.163+115.953605*T-27.459*T*LN(T)
       -2.76123E-04*T**2-7.37325E-07*T**3;
      1535.00  Y  -125618.511+711.994197*T-103.403757*T*LN(T)
       +0.015817949*T**2-6.72548E-07*T**3+30183452*T**(-1);
      3600.00  N !
 FUNCTION GBCCGD    200.00  +3572.085-2.304997*T+GHSERGD;  
      1000.00  Y  +86879.486-747.960507*T+95.1961984*T*LN(T)
       -0.072542756*T**2+7.116157E-06*T**3-12664161*T**(-1);
      1535.00  Y  -14097.626+192.503674*T-37.656*T*LN(T);
      1587.00  Y  -18620.027+217.622313*T-40.9284427*T*LN(T)
       +9.53751E-04*T**2-4.1967E-08*T**3+1107440*T**(-1);
      3600.00  N !
 FUNCTION GLIQGD    200.00  +13557.615-8.612727*T+GHSERGD;  
      1000.00  Y  +80721.646-609.764875*T+74.8351133*T*LN(T)
       -0.061538012*T**2+6.061728E-06*T**3-10325075*T**(-1);
      1535.00  Y  -3485.133+182.116258*T-37.1539*T*LN(T);
      3600.00  N !
$ ------------------------------------------------------------------------------
$ Mn
$
 PAR  G(CBCC_A12,MN:VA),,               +GHSERMN;                2000 N 91Din !
 PAR  TC(CBCC_A12,MN:VA),,               -285.00;                2000 N 91Din !
 PAR  BMAGN(CBCC_A12,MN:VA),,              -0.66;                2000 N 91Din !
 PAR  G(CUB_A13,MN:VA),,                +GCUBMN;                 2000 N 91Din !
 PAR  G(FCC_A1,MN:VA),,                 +GFCCMN;                 2000 N 91Din !
 PAR  TC(FCC_A1,MN:VA),,                -1620.00;                2000 N 91Din !
 PAR  BMAGN(FCC_A1,MN:VA),,                -1.86;                2000 N 91Din !
 PAR  G(BCC_A2,MN:VA),,                 +GBCCMN;                 2000 N 91Din !
 PAR  TC(BCC_A2,MN:VA),,                 -580.00;                2000 N 91Din !
 PAR  BMAGN(BCC_A2,MN:VA),,                -0.27;                2000 N 91Din !
 PAR  G(HCP_A3,MN:VA),,                 +GHCPMN;                 2000 N 91Din !
 PAR  TC(HCP_A3,MN:VA),,                -1620.00;                2000 N 91Din !
 PAR  BMAGN(HCP_A3,MN:VA),,                -1.86;                2000 N 91Din !
 PAR  G(LIQUID,MN),,                    +GLIQMN;                 2000 N 91Din !
$
 FUNCTION GHSERMN   298.15  -8115.28+130.059*T-23.4582*T*LN(T)
       -0.00734768*T**2+69827*T**(-1);
      1519.00  Y  -28733.41+312.2648*T-48*T*LN(T)+1.656847E+30*T**(-9);
      2000.00  N !
 FUNCTION GCUBMN    298.15  -5800.4+135.995*T-24.8785*T*LN(T)
       -0.00583359*T**2+70269*T**(-1);
      1519.00  Y  +442.65-0.9715*T+GHSERMN+2.310723E+30*T**(-9);
      2000.00  N !
 FUNCTION GFCCMN    298.15  -3439.3+131.884*T-24.5177*T*LN(T)
       -0.006*T**2+69600*T**(-1);
      1519.00  Y  +2663.31-2.5984*T+GHSERMN+2.205113E+30*T**(-9);
      2000.00  N !
 FUNCTION GBCCMN    298.15  -3235.3+127.85*T-23.7*T*LN(T)
       -0.00744271*T**2+60000*T**(-1);
      1519.00  Y  +5544.58-4.5605*T+GHSERMN-3.91695E+29*T**(-9);
      2000.00  N !
 FUNCTION GHCPMN    298.15  -4439.3+133.007*T-24.5177*T*LN(T)
       -0.006*T**2+69600*T**(-1);
      1519.00  Y  +1663.31-1.4754*T+GHSERMN+2.205113E+30*T**(-9);
      2000.00  N !
 FUNCTION GLIQMN    298.15  +17859.91-12.6208*T+GHSERMN-4.41929E-21*T**7;
      1519.00  Y  -9993.9+299.036*T-48*T*LN(T);
      2000.00  N !
$ ------------------------------------------------------------------------------
$ Binary system
$
$ J. Wang, S. Lin, M. Rong, G. Rao, H. Zhou,
$ J. Therm. Anal. Calorim., 128, 1009-18(2017).
$
$ Checked against paper. Checked at 6000 K.
$
$ Old data for Gd used. Changing to new Gd shifts the liquidus to lower
$ temperature on the Gd-rich side.
$
$ The fcc, bcc and hcp interactions are most probably too large.
$
$ Equilibria involving fcc-Mn differ by a few K since the Gd solubility in
$ fcc-Mn seems not to have been included in the calculation in the paper.
$
 PAR  L(LIQUID,GD,MN;0),,               -7436.63-1.71*T;,,            N 17Wan !
 PAR  L(LIQUID,GD,MN;1),,               +3493.31+0.547*T;,,           N 17Wan !
 PAR  L(LIQUID,GD,MN;2),,               +1711.81-3.451*T;,,           N 17Wan !
$
 PAR  L(FCC_A1,GD,MN:VA;0),,            +34000;,,                     N 17Wan !
 PAR  L(BCC_A2,GD,MN:VA;0),,            +50000;,,                     N 17Wan !
 PAR  L(HCP_A3,GD,MN:VA;0),,            +50000;,,                     N 17Wan !
$
 PAR  G(GDMN2_C15,GD:MN),,              +GGDMN2;,,                    N 17Wan !
 PAR  TC(GDMN2_C15,GD:MN),,               105.00;,,                   N 17Wan !
 PAR  BMAGN(GDMN2_C15,GD:MN),,              4.80;,,                   N 17Wan !
$
 PAR  G(GD6MN23_D8A,GD:MN),,            +6*GHSERGD+23*GHSERMN
             -75000-89.204*T;,,                                       N 17Wan !
 PAR  TC(GD6MN23_D8A,GD:MN),,             461.00;,,                   N 17Wan !
 PAR  BMAGN(GD6MN23_D8A,GD:MN),,           49.00;,,                   N 17Wan !
$
 PAR  G(GDMN12_D2B,GD:MN),,             +GHSERGD+12*GHSERMN
             -20000-14.233*T;,,                                       N 17Wan !
$
 FUNCTION GGDMN2      1.00  -26867.49-11.649*T+0.9*T*LN(T)-0.29*T**2;
       105.00  Y  +GHSERGD+2*GHSERMN-6900-2.544*T-2.5*T*LN(T)
       +0.007*T**2-450000*T**(-1);
      6000.00  N !
$ ------------------------------------------------------------------------------
$
 ASSESSED_SYSTEM
  GD-MN(TDB -* +LIQUID +FCC_A1 +BCC_A2 +HCP_A3 +CBCC_A12 +CUB_A13 +GDMN12_D2B
  +GD6MN23_D8A +GDMN2_C15 ;G5 C_S:BCC_A2/MN:VA MAJ:BCC_A2/GD:VA ;P3 *) !
$
$
 LIST-OF-REFERENCE
 NUMBER  SOURCE
  Null   'Unknown source'
  Same   'Same or similar interaction as in the corresponding stable phase'
  COST   'COST 507 database'
  REFLAV 'Laves phase convention: G(LAVES,X:X)=+3*GHSERXX+15000'
  91Din  'A.T. Dinsdale, Calphad, 15, 317-425(1991).'
  95Liu  'Z.-K. Liu, W. Zhang, B. Sundman,
          J. Alloys Compd., 226, 33-45(1995); Gd'
  17Wan  'J. Wang, S. Lin, M. Rong, G. Rao, H. Zhou,
          J. Therm. Anal. Calorim., 128, 1009-18(2017); Gd-Mn'
!
