$
$ Database for Fe-Np from M. Kurata 2010.
$
$ M. Kurata, IOP Conf. Ser.: Mater. Sci. Eng., 9, 012023(2019).
$
$ Dataset created 2019.08.31 by Bengt Hallstedt.
$ 2021.01.02: Modified for use with GES6.
$
$ ------------------------------------------------------------------------------
 TEMP-LIM 298.15 6000.00 !
$
$ELEMENT NAME  REF. STATE               ATOMIC MASS H298-H0    S298    !
$
 ELEMENT VA   VACUUM                      0.0          0.0      0.0    ! 
 ELEMENT FE   BCC_A2                     55.847     4489.0     27.2797 ! 
 ELEMENT NP   ORTHO_AC                  237.0482    6606.536   50.4590 ! 
$ ------------------------------------------------------------------------------
$ Phase definitions
$
 PHASE LIQUID:L % 1 1 !
 CONST LIQUID:L : FE NP : !
$
$ Fcc (cF4, Fm-3m) and MeX (cF8, Fm-3m), delta
$
 PHASE FCC_A1 %A 2 1 1 !
 CONST FCC_A1 : FE% NP : VA : !
$
$ Bcc (cI2, Im-3m), epsilon
$
 PHASE BCC_A2 %B 2 1 3 !
 CONST BCC_A2 : FE% NP% : VA : !
$
$ Hcp (hP2, P6_3/mmc) and Me2X (NiAs-type, hP4, P6_3/mmc, B8_1)
$
 PHASE HCP_A3 %A 2 1 0.5 !
 CONST HCP_A3 : FE NP : VA : !
$
$ Prototype alpha-Np (oP8, Pnma)
$
 PHASE ORTHO_AC % 1 1 !
 CONST ORTHO_AC : FE NP% : !
$
$ Prototype beta-Np (tP4, P4/nmm)
$
 PHASE TETRAG_AD % 1 1 !
 CONST TETRAG_AD : FE NP% : !
$
$ Prototype Cu2Mg (cF24, Fd-3m)
$
 PHASE FE2NP_C15 % 2 2 1 !
 CONST FE2NP_C15 : FE : NP : !
$
$ Prototype MnU6 (tI28, I4/mcm)
$
 PHASE FENP6_D2C % 2 1 6 !
 CONST FENP6_D2C : FE : NP : !
$ ------------------------------------------------------------------------------
$ Defaults
$
 DEFINE-SYSTEM-DEFAULT ELEMENT 2 !
 DEFAULT-COM DEFINE_SYSTEM_ELEMENT VA !
 TYPE-DEF % SEQ * !
 TYPE-DEF A GES AMEND_PHASE_DESCRIPTION @ MAGNETIC -3 0.28 !
 TYPE-DEF B GES AMEND_PHASE_DESCRIPTION @ MAGNETIC -1 0.4 !
 FUNCTION ZERO      298.15  0;                                         6000 N !
 FUNCTION UN_ASS    298.15  0;                                         6000 N !
 FUNCTION R         298.15  +8.31451;                                  6000 N !
$ ------------------------------------------------------------------------------
$ Element data
$ ------------------------------------------------------------------------------
$ Fe
$
$ ORTHORHOMBIC_A20 and TETRAGONAL_U added im unary 4.1
$
$ DHCP, TETRAGONAL_A6, ORTHORHOMBIC_A20, TETRAGONAL_U, ORTHO_AC, TETRAG_AD,
$ ALPHA_PU, BETA_PU and GAMMA_PU from 10Kur2 not included in unary
$
 PAR  G(BCC_A2,FE:VA),,                 +GHSERFE;,,                   N 91Din !
 PAR  TC(BCC_A2,FE:VA),,                 1043.00;,,                   N 91Din !
 PAR  BM(BCC_A2,FE:VA),,                    2.22;,,                   N 91Din !
 PAR  G(FCC_A1,FE:VA),,                 +GFCCFE;,,                    N 91Din !
 PAR  TC(FCC_A1,FE:VA),,                 -201.00;,,                   N 91Din !
 PAR  BM(FCC_A1,FE:VA),,                   -2.10;,,                   N 91Din !
 PAR  G(HCP_A3,FE:VA),,                 +GHCPFE;,,                    N 91Din !
$PAR  G(DHCP,FE),,                      +GFCCFE+10000;,,              N 10Kur2 !
$PAR  G(TETRAGONAL_A6,FE),,             +GFCCFE+10000;,,              N 10Kur2 !
$PAR  G(CBCC_A12,FE:VA),,               +GHSERFE+4745;,,              N 91Din !
$PAR  G(CUB_A13,FE:VA),,                +GHSERFE+3745;,,              N 91Din !
$PAR  G(ORTHORHOMBIC_A20,FE),,          +GHSERFE+5000;,,              N 99SGUN !
$PAR  G(ORTHORHOMBIC_A20,FE),,          +GFCCFE+10000;,,              N 10Kur2 !
$PAR  G(TETRAGONAL_U,FE),,              +GHSERFE+5000;,,              N 99SGUN !
$PAR  G(TETRAGONAL_U,FE),,              +GFCCFE+10000;,,              N 10Kur2 !
 PAR  G(ORTHO_AC,FE),,                  +GFCCFE+10000;,,              N 10Kur2 !
 PAR  G(TETRAG_AD,FE),,                 +GFCCFE+10000;,,              N 10Kur2 !
$PAR  G(ALPHA_PU,FE),,                  +GFCCFE+10000;,,              N 10Kur2 !
$PAR  G(BETA_PU,FE),,                   +GFCCFE+10000;,,              N 10Kur2 !
$PAR  G(GAMMA_PU,FE),,                  +GFCCFE+10000;,,              N 10Kur2 !
 PAR  G(LIQUID,FE),,                    +GLIQFE;,,                    N 91Din !
$
 FUNCTION GHSERFE   298.15  +1225.7+124.134*T-23.5143*T*LN(T)
       -0.00439752*T**2-5.8927E-08*T**3+77359*T**(-1);
      1811.00  Y  -25383.581+299.31255*T-46*T*LN(T)+2.29603E+31*T**(-9);
      6000.00  N !
 FUNCTION GFCCFE    298.15  -1462.4+8.282*T-1.15*T*LN(T)
       +6.4E-04*T**2+GHSERFE;
      1811.00  Y  -1713.815+0.940009*T+GHSERFE+4.9251E+30*T**(-9);
      6000.00  N !
 FUNCTION GHCPFE    298.15  -3705.78+12.591*T-1.15*T*LN(T)
       +6.4E-04*T**2+GHSERFE;
      1811.00  Y  -3957.195+5.249009*T+GHSERFE+4.9251E+30*T**(-9);
      6000.00  N !
 FUNCTION GLIQFE    298.15  +12040.17-6.55843*T+GHSERFE-3.67516E-21*T**7;
      1811.00  Y  -10838.83+291.302*T-46*T*LN(T);
      6000.00  N !
$ ------------------------------------------------------------------------------
$ Np
$
$ FCC_A1, HCP_A3, DHCP, TETRAGONAL_A6, ALPHA_PU, BETA_PU, GAMMA_PU,
$ ORTHORHOMBIC_A20 and TETRAGONAL_U not included in unary
$ HCP_A3 from 14Xio not in unary
$
 PAR  G(ORTHO_AC,NP),,                  +GHSERNP;                4000 N 91Din !
 PAR  G(TETRAG_AD,NP),,                 +GTETNP;                 4000 N 91Din !
 PAR  G(BCC_A2,NP:VA),,                 +GBCCNP;                 4000 N 91Din !
 PAR  G(FCC_A1,NP:VA),,                 +GBCCNP+5000;            4000 N 10Kur2 !
 PAR  G(HCP_A3,NP:VA),,                 +GBCCNP+5000;            4000 N 10Kur2 !
$PAR  G(HCP_A3,NP:VA),,                 +GHSERNP+19000;          4000 N 14Xio !
$PAR  G(DHCP,NP),,                      +GBCCNP+5000;            4000 N 10Kur2 !
$PAR  G(TETRAGONAL_A6,NP),,             +GBCCNP+5000;            4000 N 10Kur2 !
$PAR  G(ALPHA_PU,NP),,                  +GHSERNP+187.2;          4000 N 10Kur2 !
$PAR  G(BETA_PU,NP),,                   +GTETNP+80.8;            4000 N 10Kur2 !
$PAR  G(GAMMA_PU,NP),,                  +GTETNP+2000;            4000 N 10Kur2 !
$PAR  G(ORTHORHOMBIC_A20,NP),,          +GTETNP+792;             4000 N 10Kur2 !
$PAR  G(TETRAGONAL_U,NP),,              +GTETNP+792;             4000 N 10Kur2 !
 PAR  G(LIQUID,NP),,                    +GLIQNP;                 4000 N 91Din !
$
 FUNCTION GHSERNP   298.15  +241.888-57.531347*T+4.0543*T*LN(T)
       -0.04127725*T**2-402857*T**(-1);
       553.00  Y  -57015.112+664.27337*T-102.523*T*LN(T)
       +0.0284592*T**2-2.483917E-06*T**3+4796910*T**(-1);
      1799.00  Y  -12092.736+255.780866*T-45.3964*T*LN(T);
      4000.00  N !
 FUNCTION GTETNP    298.15  -10157.32+183.829213*T-34.11*T*LN(T)
       -0.0161186*T**2+4.98465E-06*T**3+532825*T**(-1);
       555.00  Y  -7873.688+207.01896*T-39.33*T*LN(T);
       856.00  Y  +19027.98-46.64846*T-3.4265*T*LN(T)
       -0.01921045*T**2+1.52726E-06*T**3-3564640*T**(-1);
      1999.00  Y  -3978.084+0.926171*T+GHSERNP;
      4000.00  N !
 FUNCTION GBCCNP    298.15  -3224.664+174.911817*T-35.177*T*LN(T)
       -0.00251865*T**2+5.14743E-07*T**3+302225*T**(-1);
       856.00  Y  -2366.486+180.807719*T-36.401*T*LN(T);
       917.00  Y  +50882.281-297.324358*T+30.7734*T*LN(T)
       -0.0343483*T**2+2.707217E-06*T**3-7500100*T**(-1);
      1999.00  Y  -2786.95-1.007779*T+GHSERNP;
      4000.00  N !
 FUNCTION GLIQNP    298.15  -4627.18+160.024959*T-31.229*T*LN(T)
       -0.0163885*T**2+2.941883E-06*T**3+439915*T**(-1);
       917.00  Y  -7415.255+247.671446*T-45.3964*T*LN(T);
      4000.00  N !
$ ------------------------------------------------------------------------------
$ Binary system
$
$ M. Kurata, IOP Conf. Ser.: Mater. Sci. Eng., 9, 012023(2019).
$
$ Checked against paper. Checked at 6000 K.
$
 PAR  L(LIQUID,FE,NP;0),,               -27946+16.436*T;,,            N 10Kur2 !
 PAR  L(LIQUID,FE,NP;1),,               -6112.2;,,                    N 10Kur2 !
 PAR  L(LIQUID,FE,NP;2),,               +795.17;,,                    N 10Kur2 !
$
 PAR  L(FCC_A1,FE,NP:VA;0),,            +10231;,,                     N 10Kur2 !
 PAR  L(FCC_A1,FE,NP:VA;1),,            +9000;,,                      N 10Kur2 !
$
 PAR  L(BCC_A2,FE,NP:VA;0),,            +15300;,,                     N 10Kur2 !
 PAR  L(BCC_A2,FE,NP:VA;1),,            +9000;,,                      N 10Kur2 !
$
 PAR  L(ORTHO_AC,FE,NP;0),,             +10000;,,                     N 10Kur2 !
 PAR  L(TETRAG_AD,FE,NP;0),,            +10000;,,                     N 10Kur2 !
$
 PAR  G(FE2NP_C15,FE:NP),,              +2*GLIQFE+GLIQNP
             -65210+25.188*T;,,                                       N 10Kur2 !
 PAR  G(FENP6_D2C,FE:NP),,              +GLIQFE+6*GLIQNP
             -107457+98.308*T;,,                                      N 10Kur2 !
$
$ Metastable
$
 PAR  L(HCP_A3,FE,NP:VA;0),,            +30000;,,                     N 10Kur2 !
$ ------------------------------------------------------------------------------
$
$
 LIST-OF-REFERENCE
 NUMBER  SOURCE
  Null   'Unknown source'
  COST   'COST 507 database'
  91Din  'A.T. Dinsdale, Calphad, 15, 317-425(1991).'
  99SGUN 'SGTE unary database V.4.1, 1999.'
  10Kur2 'M. Kurata, IOP Conf. Ser.: Mater. Sci. Eng., 9, 012023(2010);
          Fe, Np, Fe-Np'
  14Xio  'W. Xiong, W. Xie, D. Morgan,
          J. Nuclear Mater., 452, 569-77(2014); Np, Zr'
!
