$
$ Database for Sm-W from N. Krishnamurthy et al. 2000.
$
$ N. Krishnamurthy, T. Kundu, A. Awasthi, S.P. Garg,
$ Z. Metallkd., 91, 234-40(2000).
$
$ Dataset created 2025.02.11 by Bengt Hallstedt.
$
$ The liquid interaction was refitted to approximately match measured
$ liquid solubilities. The discrepancy probably originates from differences
$ in elemental W.
$
$ The solid interactions were set to 1.5 times the liquid interaction. This
$ should be revised when there are data.
$
$ ------------------------------------------------------------------------------
 TEMP-LIM 298.15 6000.00 !
$
$ELEMENT NAME  REF. STATE               ATOMIC MASS H298-H0    S298    !
$
 ELEMENT VA   VACUUM                      0.0          0.0      0.0    ! 
 ELEMENT SM   RHOMB_C19                 150.36      7573.04    69.4962 ! 
 ELEMENT W    BCC_A2                    183.85      4970.0     32.6176 ! 
$ ------------------------------------------------------------------------------
$ Phase definitions
$
 PHASE LIQUID:L % 1 1 !
 CONST LIQUID:L : SM W : !
$
$ Fcc (cF4, Fm-3m) and MeX (cF8, Fm-3m)
$
 PHASE FCC_A1 %A 2 1 1 !
 CONST FCC_A1 : W : VA : !
$
$ Bcc (cI2, Im-3m)
$
 PHASE BCC_A2 %B 2 1 3 !
 CONST BCC_A2 : SM W : VA : !
$
$ Hcp (hP2, P6_3/mmc) and Me2X (NiAs-type, hP4, P6_3/mmc, B8_1)
$
 PHASE HCP_A3 % 2 1 0.5 !
 CONST HCP_A3 : SM% W : VA : !
$
$ Prototype alpha-Sm (hR9, R-3m)
$
 PHASE RHOMB_C19 % 1 1 !
 CONST RHOMB_C19 : SM : !
$ ------------------------------------------------------------------------------
$ Defaults
$
 DEFINE-SYSTEM-DEFAULT ELEMENT 2 !
 DEFAULT-COM DEFINE_SYSTEM_ELEMENT VA !
 TYPE-DEF % SEQ * !
 TYPE-DEF A GES AMEND_PHASE_DESCRIPTION @ MAGNETIC -3 0.28 !
 TYPE-DEF B GES AMEND_PHASE_DESCRIPTION @ MAGNETIC -1 0.4 !
 FUNCTION ZERO      298.15  0;                                         6000 N !
 FUNCTION UN_ASS    298.15  0;                                         6000 N !
 FUNCTION R         298.15  +8.31451;                                  6000 N !
$ ------------------------------------------------------------------------------
$ Element data
$ ------------------------------------------------------------------------------
$ Sm
$
$ HCP_A3 added in unary 4.4
$ HCP_A3 modified in unary 5.0
$
 PAR  G(RHOMB_C19,SM),,                 +GHSERSM;                2100 N 91Din !
 PAR  G(BCC_A2,SM:VA),,                 +GBCCSM;                 2100 N 91Din !
 PAR  G(HCP_A3,SM:VA),,                 +GHSERSM
             +69.977-0.069491*T;                                 2100 N 98Su2 !
 PAR  G(LIQUID,SM),,                    +GLIQSM;                 2100 N 91Din !
$
 FUNCTION GHSERSM   298.15  -3872.013-32.10748*T-1.6485*T*LN(T)
       -0.050254*T**2+1.010345E-05*T**3-82168*T**(-1);
       700.00  Y  -50078.215+627.869894*T-102.665*T*LN(T)
       +0.0474522*T**2-7.538383E-06*T**3+3861770*T**(-1);
      1190.00  Y  +289719.819-2744.50976*T+381.41982*T*LN(T)
       -0.254986338*T**2+2.7512152E-05*T**3-40102102*T**(-1);
      1345.00  Y  -23056.079+282.194375*T-50.208*T*LN(T);
      2100.00  N !
 FUNCTION GBCCSM    298.15  -4368.72+55.972523*T-16.9298494*T*LN(T)
       -0.025446016*T**2+3.579527E-06*T**3+94209*T**(-1);
      1190.00  Y  -15957.862+253.121044*T-46.9445*T*LN(T);
      1345.00  Y  +111191.653-624.680805*T+71.6856914*T*LN(T)
       -0.047314968*T**2+3.329865E-06*T**3-24870276*T**(-1);
      2100.00  N !
 FUNCTION GLIQSM    298.15  +3468.783+20.117456*T-11.6968284*T*LN(T)
       -0.032418177*T**2+4.544272E-06*T**3+23528*T**(-1);
      1190.00  Y  -11728.229+273.487076*T-50.208*T*LN(T);
      2100.00  N !
$ ------------------------------------------------------------------------------
$ W
$
 PAR  G(BCC_A2,W:VA),,                  +GHSERWW;,,                   N 91Din !
 PAR  G(FCC_A1,W:VA),,                  +GHSERWW+19300+0.63*T;,,      N 91Din !
 PAR  G(HCP_A3,W:VA),,                  +GHSERWW+14750;,,             N 91Din !
 PAR  G(LIQUID,W),,                     +GLIQWW;,,                    N 91Din !
$
 FUNCTION GHSERWW   298.15  -7646.311+130.4*T-24.1*T*LN(T)
       -0.001936*T**2+2.07E-07*T**3+44500*T**(-1)-5.33E-11*T**4;
      3695.00  Y  -82868.801+389.362335*T-54*T*LN(T)+1.528621E+33*T**(-9);
      6000.00  N !
 FUNCTION GLIQWW    298.15  +52160.584-14.10999*T+GHSERWW-2.713468E-24*T**7;
      3695.00  Y  -30436.051+375.175*T-54*T*LN(T);
      6000.00  N !
 FUNCTION GFCCWW    298.15  +GHSERWW+19300+0.63*T;                     6000 N !
$ ------------------------------------------------------------------------------
$ Binary system
$
$ N. Krishnamurthy, T. Kundu, A. Awasthi, S.P. Garg,
$ Z. Metallkd., 91, 234-40(2000).
$
$ Checked against paper. Checked at 6000 K.
$
$ The liquid interaction was refitted to approximately match measured
$ liquid solubilities. The discrepancy probably originates from differences
$ in elemental W.
$
$ The solid interactions were set to 1.5 times the liquid interaction. This
$ should be revised when there are data.
$
$PAR  L(LIQUID,SM,W;0),,                +124700;,,                    N 00Kri !
 PAR  L(LIQUID,SM,W;0),,                +115000;,,                    N 00Kri !
$
 PAR  L(BCC_A2,SM,W:VA;0),,             +172000;,,                    N 25Hal !
 PAR  L(HCP_A3,SM,W:VA;0),,             +172000;,,                    N 25Hal !
$ ------------------------------------------------------------------------------
$
$
 LIST-OF-REFERENCE
 NUMBER  SOURCE
  Null   'Unknown source'
  Same   'Same or similar interaction as in the corresponding stable phase'
  REFLAV 'Laves phase convention: G(LAVES,X:X)=+3*GHSERXX+15000'
  91Din  'A.T. Dinsdale, Calphad, 15, 317-425(1991).'
  98Su2  'X. Su, W. Zhang, Z. Du, J. Alloys Compd., 278, 182-84(1998)
          SGTE unary database V.4.4, 2001; Sm'
  00Kri  'N. Krishnamurthy, T. Kundu, A. Awasthi, S.P. Garg,
          Z. Metallkd., 91, 234-40(2000); Sm-W'
  25Hal  'B. Hallstedt, dummy solid interaction, 2025; Sm-W'
!
