$
$ Database for Os-Pt from J.-M. Joubert et al. 2021.
$
$ J.-M. Joubert, J.-C. Crivello, K.V. Yusenko, Calphad, 74, 102311(2021).
$
$ Dataset created 2024.03.20 by Bengt Hallstedt.
$
$ Most of the paper is about high-pressure modelling of the system. This
$ dataset only includes the ambient pressure model.
$
$ ------------------------------------------------------------------------------
 TEMP-LIM 298.15 6000.00 !
$
$ELEMENT NAME  REF. STATE               ATOMIC MASS H298-H0    S298    !
$
 ELEMENT VA   VACUUM                      0.0          0.0      0.0    ! 
 ELEMENT OS   HCP_A3                    190.20         0.      32.6352 ! 
 ELEMENT PT   FCC_A1                    195.08      5723.712   41.6308 !
$ ------------------------------------------------------------------------------
$ Phase definitions
$
 PHASE LIQUID:L % 1 1 !
 CONST LIQUID:L : OS PT : !
$
$ Fcc (cF4, Fm-3m) and MeX (cF8, Fm-3m)
$
 PHASE FCC_A1 %A 2 1 1 !
 CONST FCC_A1 : OS PT% : VA : !
$
$ Bcc (cI2, Im-3m)
$
 PHASE BCC_A2 %B 2 1 3 !
 CONST BCC_A2 : OS PT : VA : !
$
$ Hcp (hP2, P6_3/mmc) and Me2X (NiAs-type, hP4, P6_3/mmc, B8_1)
$
 PHASE HCP_A3 % 2 1 0.5 !
 CONST HCP_A3 : OS% PT : VA : !
$ ------------------------------------------------------------------------------
$ Defaults
$
 DEFINE-SYSTEM-DEFAULT ELEMENT 2 !
 DEFAULT-COM DEFINE_SYSTEM_ELEMENT VA !
 TYPE-DEF % SEQ * !
 TYPE-DEF A GES AMEND_PHASE_DESCRIPTION @ MAGNETIC -3 0.28 !
 TYPE-DEF B GES AMEND_PHASE_DESCRIPTION @ MAGNETIC -1 0.4 !
 FUNCTION ZERO      298.15  0;                                         6000 N !
 FUNCTION UN_ASS    298.15  0;                                         6000 N !
 FUNCTION R         298.15  +8.31451;                                  6000 N !
$ ------------------------------------------------------------------------------
$ Element data
$ ------------------------------------------------------------------------------
$ Os
$
$ BCC_A2 revised in unary 4.4
$
 PAR  G(HCP_A3,OS:VA),,                 +GHSEROS;                5500 N 91Din !
 PAR  G(FCC_A1,OS:VA),,                 +GHSEROS+13000-2.5*T;    5500 N 91Din !
 PAR  G(BCC_A2,OS:VA),,                 +GHSEROS+27500-4.4*T;    5500 N 01SGUN !
$PAR  G(BCC_A2,OS:VA),,                 +GHSEROS+43500-9*T;      5500 N 91Din !
 PAR  G(LIQUID,OS),,                    +GLIQOS;                 5500 N 91Din !
$
 FUNCTION GHSEROS   298.15  -7196.978+126.369531*T-23.5710242*T*LN(T)
       -0.00190427*T**2;
      3306.00  Y  +644910.07-1935.2137*T+224.998034*T*LN(T)
       -0.042489827*T**2+1.173861E-06*T**3-3.12569031E+08*T**(-1);
      5500.00  N !
 FUNCTION GLIQOS    298.15  +36460.17-8.473743*T+GHSEROS;
      1000.00  Y  +68715.318-198.324341*T+19.9382156*T*LN(T)
       -0.020464464*T**2+1.014279E-06*T**3-6237261*T**(-1);
      3306.00  Y  -15903.192+336.874526*T-50*T*LN(T);
      5500.00  N !
$ ------------------------------------------------------------------------------
$ Pt
$
 PAR  G(FCC_A1,PT:VA),,                 +GHSERPT;                4000 N 91Din !
 PAR  G(BCC_A2,PT:VA),,                 +GHSERPT+15000-2.4*T;    4000 N 91Din !
 PAR  G(HCP_A3,PT:VA),,                 +GHSERPT+2500+0.1*T;     4000 N 91Din !
 PAR  G(LIQUID,PT),,                    +GLIQPT;                 4000 N 91Din !
$
 FUNCTION GHSERPT   298.15  -7595.631+124.388275*T-24.5526*T*LN(T)
       -0.00248297*T**2-2.0138E-08*T**3+7974*T**(-1);
      1300.00  Y  -9253.174+161.529615*T-30.2527*T*LN(T)
       +0.002321665*T**2-6.56946E-07*T**3-272106*T**(-1);
      2041.50  Y  -222048.216+1019.35892*T-136.192996*T*LN(T)
       +0.020454938*T**2-7.59259E-07*T**3+71539020*T**(-1);
      4000.00  N !
 FUNCTION GLIQPT    298.15  +20114.016-9.275183*T+GHSERPT;
       600.00  Y  +19023.491+32.94182*T-12.3403769*T*LN(T)
       -0.011551507*T**2+9.31516E-07*T**3-601426*T**(-1);
      2041.50  Y  +1404.468+205.858962*T-36.5*T*LN(T);
      4000.00  N !
 FUNCTION GBCCPT    298.15  +GHSERPT+15000-2.4*T;                      6000 N !
$ ------------------------------------------------------------------------------
$ Binary system
$
$ J.-M. Joubert, J.-C. Crivello, K.V. Yusenko, Calphad, 74, 102311(2021).
$
$ Checked against paper. Checked at 6000 K.
$
$ Most of the paper is about high-pressure modelling of the system. This
$ dataset only includes the ambient pressure model.
$
 PAR  L(LIQUID,OS,PT;0),,               +24344;,,                     N 21Jou !
$
 PAR  L(FCC_A1,OS,PT:VA;0),,            +22965+1.8241*T;,,            N 21Jou !
 PAR  L(FCC_A1,OS,PT:VA;1),,            -11715+6.39*T;,,              N 21Jou !
$
 PAR  L(HCP_A3,OS,PT:VA;0),,            +52174;,,                     N 21Jou !
 PAR  L(HCP_A3,OS,PT:VA;1),,            -10343;,,                     N 21Jou !
$
$ Metastable
$
 PAR  L(BCC_A2,OS,PT:VA;0),,            +22965+1.8241*T;,,            N Same !
 PAR  L(BCC_A2,OS,PT:VA;1),,            -11715+6.39*T;,,              N Same !
$ ------------------------------------------------------------------------------
$
$
 LIST-OF-REFERENCE
 NUMBER  SOURCE
  Null   'Unknown source'
  Same   'Same or similar interaction as in the corresponding stable phase'
  91Din  'A.T. Dinsdale, Calphad, 15, 317-425(1991).'
  01SGUN 'SGTE unary database V.4.4, 2001.'
  21Jou  'J.-M. Joubert, J.-C. Crivello, K.V. Yusenko,
          Calphad, 74, 102311(2021); Os-Pt'
!
