$
$ Database for Mo-Ru from J. Liu et al. 2021.
$
$ J. Liu, C. Zhou, H. Wang, Calphad, 72, 102239(2021).
$
$ Dataset created 2021.05.01 by Bengt Hallstedt.
$
$ The dataset includes 10:4:16 and 10:20 models for sigma.
$
$ The subregular terms for liquid and hcp are not convincing. The sigma
$ modelling is also not convincing.
$
$ ------------------------------------------------------------------------------
 TEMP-LIM 298.15 6000.00 !
$
$ELEMENT NAME  REF. STATE               ATOMIC MASS H298-H0    S298    !
$
 ELEMENT VA   VACUUM                      0.0          0.0      0.0    ! 
 ELEMENT MO   BCC_A2                     95.94      4589.0     28.56   ! 
 ELEMENT RU   HCP_A3                    101.07      4602.4     28.6144 ! 
$ ------------------------------------------------------------------------------
$ Phase definitions
$
 PHASE LIQUID:L % 1 1 !
 CONST LIQUID:L : MO RU : !
$
$ Fcc (cF4, Fm-3m) and MeX (cF8, Fm-3m)
$
 PHASE FCC_A1 %A 2 1 1 !
 CONST FCC_A1 : MO RU : VA : !
$
$ Bcc (cI2, Im-3m)
$
 PHASE BCC_A2 %B 2 1 3 !
 CONST BCC_A2 : MO% RU : VA : !
$
$ Hcp (hP2, P6_3/mmc) and Me2X (NiAs-type, hP4, P6_3/mmc, B8_1)
$
 PHASE HCP_A3 %A 2 1 0.5 !
 CONST HCP_A3 : MO RU% : VA : !
$
$ Prototype CrFe (tP30, P4_2/mnm)
$
 PHASE SIGMA_D8B % 3 10 4 16 !
 CONST SIGMA_D8B : MO RU : MO RU : MO RU : !
$
$ Prototype CrFe (tP30, P4_2/mnm), alternative sigma model
$
 PHASE SIGMA_ALT % 2 10 20 !
 CONST SIGMA_ALT : MO RU : MO RU : !
$ ------------------------------------------------------------------------------
$ Defaults
$
 DEFINE-SYSTEM-DEFAULT ELEMENT 2 !
 DEFAULT-COM DEFINE_SYSTEM_ELEMENT VA !
 DEFAULT-COM REJECT_PHASE SIGMA_ALT !
 TYPE-DEF % SEQ * !
 TYPE-DEF A GES AMEND_PHASE_DESCRIPTION @ MAGNETIC -3 0.28 !
 TYPE-DEF B GES AMEND_PHASE_DESCRIPTION @ MAGNETIC -1 0.4 !
 FUNCTION ZERO      298.15  0;                                         6000 N !
 FUNCTION UN_ASS    298.15  0;                                         6000 N !
 FUNCTION R         298.15  +8.31451;                                  6000 N !
$ ------------------------------------------------------------------------------
$ Element data
$ ------------------------------------------------------------------------------
$ Mo
$
 PAR  G(BCC_A2,MO:VA),,                 +GHSERMO;                5000 N 91Din !
 PAR  G(FCC_A1,MO:VA),,                 +GHSERMO+15200+0.63*T;   5000 N 91Din !
 PAR  G(HCP_A3,MO:VA),,                 +GHSERMO+11550;          5000 N 91Din !
 PAR  G(LIQUID,MO),,                    +GLIQMO;                 5000 N 91Din !
$
 PAR  G(SIGMA_D8B,MO:MO:MO),,           +30*GHSERMO+150000;,,         N 21Liu !
 PAR  G(SIGMA_ALT,MO:MO),,              +30*GHSERMO+150000;,,         N 21Liu !
$
 FUNCTION GHSERMO   298.15  -7746.302+131.9197*T-23.56414*T*LN(T)
       -0.003443396*T**2+5.66283E-07*T**3+65812*T**(-1)-1.30927E-10*T**4;
      2896.00  Y  -30556.41+283.559746*T-42.63829*T*LN(T)-4.849315E+33*T**(-9);
      5000.00  N !
 FUNCTION GLIQMO    298.15  +41831.347-14.694912*T+GHSERMO+4.24519E-22*T**7;
      2896.00  Y  +3538.963+271.6697*T-42.63829*T*LN(T);
      5000.00  N !
 FUNCTION GFCCMO    298.15  +GHSERMO+15200+0.63*T;                     6000 N !
$ ------------------------------------------------------------------------------
$ Ru
$
$ BCC_A2 revised in unary 4.4
$
 PAR  G(HCP_A3,RU:VA),,                 +GHSERRU;                4500 N 91Din !
 PAR  G(FCC_A1,RU:VA),,                 +GHSERRU+12500-2.4*T;    4500 N 91Din !
 PAR  G(BCC_A2,RU:VA),,                 +GHSERRU+21500-5.05*T;   4500 N 01SGUN !
 PAR  G(LIQUID,RU),,                    +GLIQRU;                 4500 N 91Din !
$
 PAR  G(SIGMA_D8B,RU:RU:RU),,           +30*GHSERRU+150000;,,         N 21Liu !
 PAR  G(SIGMA_ALT,RU:RU),,              +30*GHSERRU+150000;,,         N 21Liu !
$
 FUNCTION GHSERRU   298.15  -7561.873+127.866233*T-22.9143287*T*LN(T)
       -0.004062566*T**2+1.7641E-07*T**3+56377*T**(-1);
      1500.00  Y  -59448.103+489.516214*T-72.3241219*T*LN(T)
       +0.018726245*T**2-1.952433E-06*T**3+11063885*T**(-1);
      2607.00  Y  -38588773+168610.517*T-21329.705*T*LN(T)
       +5.221639*T**2-2.40245985E-04*T**3+1.30829926E+10*T**(-1);
      2740.00  Y  -55768.304+364.482314*T-51.8816*T*LN(T);
      4500.00  N !
 FUNCTION GLIQRU    298.15  +27480.616-8.398748*T+GHSERRU;
       800.00  Y  +50827.232-179.818561*T+19.539341*T*LN(T)
       -0.026524167*T**2+1.667839E-06*T**3-3861125*T**(-1);
      2607.00  Y  -17161.807+349.673561*T-51.8816*T*LN(T);
      4500.00  N !
 FUNCTION GFCCRU    298.15  +GHSERRU+12500-2.4*T;                      4500 N !
 FUNCTION GBCCRU    298.15  +GHSERRU+26500-6.2*T;                      4500 N !
$ ------------------------------------------------------------------------------
$ Binary system
$
$ J. Liu, C. Zhou, H. Wang, Calphad, 72, 102239(2021).
$
$ Checked against paper and author's tdb. Checked at 6000 K.
$
$ The dataset includes 10:4:16 and 10:20 models for sigma.
$
$ The subregular terms for liquid and hcp are not convincing. The sigma
$ modelling is also not convincing.
$
 PAR  L(LIQUID,MO,RU;0),,               -43128.7+2.1431*T;,,          N 21Liu !
 PAR  L(LIQUID,MO,RU;1),,               +26981.8-16.7629*T;,,         N 21Liu !
$
 PAR  L(BCC_A2,MO,RU:VA;0),,            +16848.4-18.1155*T;,,         N 21Liu !
$
 PAR  L(HCP_A3,MO,RU:VA;0),,            -21849-5.7128*T;,,            N 21Liu !
 PAR  L(HCP_A3,MO,RU:VA;1),,            +100053.1-43.8907*T;,,        N 21Liu !
$
 PAR  G(SIGMA_D8B,MO:MO:RU),,           +14*GHSERMO+16*GHSERRU
             +150000;,,                                               N 21Liu !
 PAR  G(SIGMA_D8B,MO:RU:MO),,           +26*GHSERMO+4*GHSERRU
             +150000;,,                                               N 21Liu !
 PAR  G(SIGMA_D8B,MO:RU:RU),,           +10*GHSERMO+20*GHSERRU;,,     N 21Liu !
 PAR  G(SIGMA_D8B,RU:MO:MO),,           +20*GHSERMO+10*GHSERRU
             +53388.9-178.3556*T;,,                                   N 21Liu !
 PAR  G(SIGMA_D8B,RU:MO:RU),,           +4*GHSERMO+26*GHSERRU
             +150000;,,                                               N 21Liu !
 PAR  G(SIGMA_D8B,RU:RU:MO),,           +16*GHSERMO+14*GHSERRU
             +150000;,,                                               N 21Liu !
 PAR  L(SIGMA_D8B,RU:MO:MO,RU;0),,      -393318.9+78.3499*T;,,        N 21Liu !
 PAR  L(SIGMA_D8B,MO,RU:MO:MO;0),,      +727136.1-235.895*T;,,        N 21Liu !
$
 PAR  G(SIGMA_ALT,MO:RU),,              +10*GHSERMO+20*GHSERRU;,,     N 21Liu !
 PAR  G(SIGMA_ALT,RU:MO),,              +10*GHSERRU+20*GHSERMO
             +53388.9-181.8556*T;,,                                   N 21Liu !
 PAR  L(SIGMA_ALT,MO,RU:MO;0),,         +727136.1-235.895*T;,,        N 21Liu !
 PAR  L(SIGMA_ALT,RU:MO,RU;0),,         -448122.1+227.6747*T;,,       N 21Liu !
$
$ Metastable
$
 PAR  L(FCC_A1,MO,RU:VA;0),,            -21849-5.7128*T;,,            N Same !
 PAR  L(FCC_A1,MO,RU:VA;1),,            +100053.1-43.8907*T;,,        N Same !
$ ------------------------------------------------------------------------------
$
$
 LIST-OF-REFERENCE
 NUMBER  SOURCE
  Null   'Unknown source'
  Lin    'Linear combination of lattice stabilities'
  Same   'Same or similar interaction as in the corresponding stable phase'
  REFLAV 'Laves phase convention: G(LAVES,X:X)=+3*GHSERXX+15000'
  91Din  'A.T. Dinsdale, Calphad, 15, 317-425(1991).'
  01SGUN 'SGTE unary database V.4.4, 2001.'
  21Liu  'J. Liu, C. Zhou, H. Wang, Calphad, 72, 102239(2021); Mo-Ru'
!
