$
$ Database for Pb-Y from V. Vassiliev et al. 1993.
$
$ V. Vassiliev, M. Gambino, J.P. Bros, G. Borzone, G. Cacciamani, R. Ferro,
$ J. Phase Equilib., 14, 142-49(1993).
$
$ Dataset created 2018.12.25 by Bengt Hallstedt.
$ 2021.02.03: Modified for use with GES6.
$
$ The liquid interaction is quite ugly.
$
$ The bcc and hcp interactions were sanitized, otherwise bcc or hcp is stable
$ for Pb-rich compositions.
$
$ There are large differences in invariant equilibria. (The use of new data
$ for Y only causes minor changes).
$
$ There is an inverse miscibility gap with a minimum at 2174 K and x(Y)=0.83.
$
$ ------------------------------------------------------------------------------
 TEMP-LIM 298.15 6000.00 !
$
$ELEMENT NAME  REF. STATE               ATOMIC MASS H298-H0    S298    !
$
 ELEMENT VA   VACUUM                      0.0          0.0      0.0    ! 
 ELEMENT PB   FCC_A1                    207.2       6870.      64.80   ! 
 ELEMENT Y    HCP_A3                     88.9059    5983.457   44.7875 ! 
$ ------------------------------------------------------------------------------
$ Phase definitions
$
 PHASE LIQUID:L % 1 1 !
 CONST LIQUID:L : PB Y : !
$
$ Fcc (cF4, Fm-3m) and MeX (cF8, Fm-3m)
$
 PHASE FCC_A1 %A 2 1 1 !
 CONST FCC_A1 : PB% Y : VA : !
$
$ Bcc (cI2, Im-3m)
$
 PHASE BCC_A2 %B 2 1 3 !
 CONST BCC_A2 : PB Y% : VA : !
$
$ Hcp (hP2, P6_3/mmc) and Me2X (NiAs-type, hP4, P6_3/mmc, B8_1)
$
 PHASE HCP_A3 %A 2 1 0.5 !
 CONST HCP_A3 : PB Y% : VA : !
$
$ Prototype AuCu3 (cP4, Pm-3m)
$
 PHASE PB3Y_L12 % 2 3 1 !
 CONST PB3Y_L12 : PB : Y : !
$
$ Prototype Si2Zr (oC12, Cmcm)
$
 PHASE PB2Y_C49 % 2 2 1 !
 CONST PB2Y_C49 : PB : Y : !
$
$ Prototype Gd5Si4 (oP36, Pnma)
$
 PHASE PB4Y5 % 2 4 5 !
 CONST PB4Y5 : PB : Y : !
$
$ Prototype Mn5Si3 (hP16, P6_3/mcm)
$
 PHASE PB3Y5_D88 % 2 3 5 !
 CONST PB3Y5_D88 : PB : Y : !
$ ------------------------------------------------------------------------------
$ Defaults
$
 DEFINE-SYSTEM-DEFAULT ELEMENT 2 !
 DEFAULT-COM DEFINE_SYSTEM_ELEMENT VA !
 TYPE-DEF % SEQ * !
 TYPE-DEF A GES AMEND_PHASE_DESCRIPTION @ MAGNETIC -3 0.28 !
 TYPE-DEF B GES AMEND_PHASE_DESCRIPTION @ MAGNETIC -1 0.4 !
 FUNCTION ZERO      298.15  0;                                         6000 N !
 FUNCTION UN_ASS    298.15  0;                                         6000 N !
 FUNCTION R         298.15  +8.31451;                                  6000 N !
$ ------------------------------------------------------------------------------
$ Element data
$ ------------------------------------------------------------------------------
$ Pb
$
$ RHOMBOHEDRAL_A7 and TETRAGONAL_A6 added in unary 3.0
$ RHOMBOHEDRAL_A7, TETRAGONAL_A6 and TET_ALPHA1_A6 revised in unary 4.1
$ RHOMBO_A10 added in unary 5.0
$
 PAR  G(FCC_A1,PB:VA),,                 +GHSERPB;                2100 N 91Din !
 PAR  G(BCC_A2,PB:VA),,                 +GHSERPB+2400-1.1*T;     2100 N 91Din !
 PAR  G(HCP_A3,PB:VA),,                 +GHSERPB+300+T;          2100 N 91Din !
$PAR  G(BCT_A5,PB),,                    +GHSERPB+489+3.52*T;     2100 N 91Din !
$PAR  G(TETRAGONAL_A6,PB),,             +GHSERPB+4493.235;       2100 N 98Boa !
$PAR  G(TETRAGONAL_A6,PB),,             +GHSERPB+473.23+3.5531*T
$            -0.0396834*T*LN(T)+2.1489E-05*T**2;                 2100 N 96SGUN !
$PAR  G(TET_ALPHA1_A6,PB),,             +GHSERPB
$            +1903.3-2.0602*T;                                   2100 N 98Boa !
$PAR  G(TET_ALPHA1_A6,PB),,             +GHSERPB+183.2+0.45314*T
$            -0.0396834*T*LN(T)+2.149E-06*T**2;                  2100 N 91Din !
$PAR  G(RHOMBOHEDRAL_A7,PB),,           +GHSERPB+300+T;          2100 N 99SGUN !
$PAR  G(RHOMBOHEDRAL_A7,PB),,           +GHSERPB+4900+3.52*T;    2100 N 96SGUN !
$PAR  G(RHOMBO_A10,PB),,                +GHSERPB+10;             2100 N 09SGUN !
 PAR  G(LIQUID,PB),,                    +GLIQPB;                 2100 N 91Din !
$
 FUNCTION GHSERPB   298.15  -7650.085+101.700244*T-24.5242231*T*LN(T)
       -0.00365895*T**2-2.4395E-07*T**3;
       600.61  Y  -10531.095+154.243182*T-32.4913959*T*LN(T)
       +0.00154613*T**2+8.05448E+25*T**(-9);
      1200.00  Y  +4157.616+53.139072*T-18.9640637*T*LN(T)
       -0.002882943*T**2+9.8144E-08*T**3-2696755*T**(-1)+8.05448E+25*T**(-9);
      2100.00  N !
 FUNCTION GLIQPB    298.15  +4672.124-7.750683*T+GHSERPB-6.019E-19*T**7;
       600.61  Y  +4853.137-8.067136*T+GHSERPB-8.05448E+25*T**(-9);
      2100.00  N !
$ ------------------------------------------------------------------------------
$ Y
$
$ HCP_A3, BCC_A2 and LIQUID revised in unary 3.0
$ FCC_A1 added in unary 4.1
$
 PAR  G(HCP_A3,Y:VA)            100.00  +GHSERYY;                3700 N 95She3 !
 PAR  G(BCC_A2,Y:VA)            100.00  +GBCCYY;                 3700 N 95She3 !
 PAR  G(FCC_A1,Y:VA)            100.00  +GHSERYY+6000;           3700 N Frie2 !
 PAR  G(LIQUID,Y)               100.00  +GLIQYY;                 3700 N 95She3 !
$
 FUNCTION GHSERYY   100.00  -8011.09379+128.572856*T-25.6656992*T*LN(T)
       -0.00175716414*T**2-4.17561786E-07*T**3+26911.509*T**(-1);
      1000.00  Y  -7179.74574+114.497104*T-23.4941827*T*LN(T)
       -0.0038211802*T**2-8.2534534E-08*T**3;
      1795.15  Y  -67480.7761+382.124727*T-56.9527111*T*LN(T)
       +0.00231774379*T**2-7.22513088E-08*T**3+18077162.6*T**(-1);
      3700.00  N !
 FUNCTION GBCCYY    100.00  -833.658863+123.667346*T-25.5832578*T*LN(T)
       -0.00237175965*T**2+9.10372497E-09*T**3+27340.0687*T**(-1);
      1000.00  Y  -1297.79829+134.528352*T-27.3038477*T*LN(T)
       -5.41757644E-04*T**2-3.05012175E-07*T**3;
      1795.15  Y  +15389.4975+0.981325399*T-8.88296647*T*LN(T)
       -0.00904576576*T**2+4.02944768E-07*T**3-2542575.96*T**(-1);
      3700.00  N !
 FUNCTION GLIQYY    100.00  +2098.50738+119.41873*T-24.6467508*T*LN(T)
       -0.00347023463*T**2-8.12981167E-07*T**3+23713.7332*T**(-1);
      1000.00  Y  +7386.44846+19.4520171*T-9.0681627*T*LN(T)
       -0.0189533369*T**2+1.7595327E-06*T**3;
      1795.15  Y  -12976.5957+257.400783*T-43.0952*T*LN(T);
      3700.00  N !
$ ------------------------------------------------------------------------------
$ Binary system
$
$ V. Vassiliev, M. Gambino, J.P. Bros, G. Borzone, G. Cacciamani, R. Ferro,
$ J. Phase Equilib., 14, 142-49(1993).
$
$ Checked against paper. Checked at 6000 K.
$
$ The liquid interaction is quite ugly.
$
$ The bcc and hcp interactions were sanitized, otherwise bcc or hcp is stable
$ for Pb-rich compositions.
$
$ There are large differences in invariant equilibria. (The use of new data
$ for Y only causes minor changes).
$
$ There is an inverse miscibility gap with a minimum at 2174 K and x(Y)=0.83.
$
 PAR  L(LIQUID,PB,Y;0),,                -150182.06-29.33181*T;,,      N 93Vas !
 PAR  L(LIQUID,PB,Y;1),,                +210403.45-145.74304*T;,,     N 93Vas !
 PAR  L(LIQUID,PB,Y;2),,                +31178.47+23.06968*T;,,       N 93Vas !
 PAR  L(LIQUID,PB,Y;3),,                -122574.7+88.16693*T;,,       N 93Vas !
 PAR  L(LIQUID,PB,Y;4),,                -20888.22+5.05025*T;,,        N 93Vas !
$
 PAR  L(FCC_A1,PB,Y:VA;0),,             +UN_ASS;,,                    N !
 PAR  L(BCC_A2,PB,Y:VA;0),,             -124000;,,                    N 18Hal !
$ Original interaction below
$PAR  L(BCC_A2,PB,Y:VA;0),,             -197864.56+41.98164*T;,,      N 93Vas !
 PAR  L(HCP_A3,PB,Y:VA;0),,             -126911.22+8.84375*T;,,       N 18Hal !
 PAR  L(HCP_A3,PB,Y:VA;1),,             +10000;,,                     N 18Hal !
$ Original interaction below
$PAR  L(HCP_A3,PB,Y:VA;0),,             -136911.22+8.84375*T;,,       N 93Vas !
$
 PAR  G(PB3Y_L12,PB:Y),,                +3*GHSERPB+GHSERYY
             -112162.16-71.9946*T+6.835128*T*LN(T);,,                 N 93Vas !
 PAR  G(PB2Y_C49,PB:Y),,                +2*GHSERPB+GHSERYY
             -109134.6-62.04264*T+5.658891*T*LN(T);,,                 N 93Vas !
 PAR  G(PB4Y5,PB:Y),,                   +4*GHSERPB+5*GHSERYY
             -536646.78-135.9918*T+15.301467*T*LN(T);,,               N 93Vas !
 PAR  G(PB3Y5_D88,PB:Y),,               +3*GHSERPB+5*GHSERYY
             -532512.56-73.124*T+13.6*T*LN(T);,,                      N 93Vas !
$ ------------------------------------------------------------------------------
$
$
 LIST-OF-REFERENCE
 NUMBER  SOURCE
  Null   'Unknown source'
  Same   'Same or similar interaction as in the corresponding stable phase'
  REFLAV 'Laves phase convention: G(LAVES,X:X)=+3*GHSERXX+15000'
  Frie2  'Suzana Fries and Leo Lukas, unpublished,
          SGTE unary database V.4.1, 1999; Y'
  91Din  'A.T. Dinsdale, Calphad, 15, 317-425(1991).'
  93Vas  'V. Vassiliev, M. Gambino, J.P. Bros, G. Borzone, G. Cacciamani,
          R. Ferro, J. Phase Equilib., 14, 142-49(1993); Pb-Y'
  95She3 'H. Shen, W. Zhang, G. Liu, R. Wang, Z. Du, Report F-95-03,
          University of Science and Technology, Beijing, May 1995,
          SGTE unary database V.3.0, 1996; Y'
  96SGUN 'SGTE unary database V.3.0, 1996.'
  98Boa  'D. Boa, I. Ansara, Thermochim. Acta, 314, 79-86(1998),
          SGTE unary database V.4.1, 1999; In, Pb'
  99SGUN 'SGTE unary database V.4.1, 1999.'
  09SGUN 'SGTE unary database V.5.0, 2009.'
  18Hal  'B. Hallstedt, sanitized bcc and hcp interactions, 2018; Pb-Y'
!
