$
$ Database for Pr-W from N. Krishnamurthy et al. 2000.
$
$ N. Krishnamurthy, T. Kundu, A. Awasthi, S.P. Garg,
$ Z. Metallkd., 91, 234-40(2000).
$
$ Dataset created 2025.02.11 by Bengt Hallstedt.
$
$ The liquid interaction was refitted to approximately match measured
$ liquid solubilities. The discrepancy probably originates from differences
$ in elemental W.
$
$ The solid interactions were set to 1.5 times the liquid interaction. This
$ should be revised when there are data.
$
$ ------------------------------------------------------------------------------
 TEMP-LIM 298.15 6000.00 !
$
$ELEMENT NAME  REF. STATE               ATOMIC MASS H298-H0    S298    !
$
 ELEMENT VA   VACUUM                      0.0          0.0      0.0    ! 
 ELEMENT PR   DHCP                      140.9077    7418.232   73.9313 ! 
 ELEMENT W    BCC_A2                    183.85      4970.0     32.6176 ! 
$ ------------------------------------------------------------------------------
$ Phase definitions
$
 PHASE LIQUID:L % 1 1 !
 CONST LIQUID:L : PR W : !
$
$ Fcc (cF4, Fm-3m) and MeX (cF8, Fm-3m)
$
 PHASE FCC_A1 %A 2 1 1 !
 CONST FCC_A1 : W : VA : !
$
$ Bcc (cI2, Im-3m)
$
 PHASE BCC_A2 %B 2 1 3 !
 CONST BCC_A2 : PR W : VA : !
$
$ Hcp (hP2, P6_3/mmc) and Me2X (NiAs-type, hP4, P6_3/mmc, B8_1)
$
 PHASE HCP_A3 % 2 1 0.5 !
 CONST HCP_A3 : W : VA : !
$
$ Prototype alpha-La (hP4, P6_3/mmc)
$
 PHASE DHCP % 1 1 !
 CONST DHCP : PR : !
$ ------------------------------------------------------------------------------
$ Defaults
$
 DEFINE-SYSTEM-DEFAULT ELEMENT 2 !
 DEFAULT-COM DEFINE_SYSTEM_ELEMENT VA !
 TYPE-DEF % SEQ * !
 TYPE-DEF A GES AMEND_PHASE_DESCRIPTION @ MAGNETIC -3 0.28 !
 TYPE-DEF B GES AMEND_PHASE_DESCRIPTION @ MAGNETIC -1 0.4 !
 FUNCTION ZERO      298.15  0;                                         6000 N !
 FUNCTION UN_ASS    298.15  0;                                         6000 N !
 FUNCTION R         298.15  +8.31451;                                  6000 N !
$ ------------------------------------------------------------------------------
$ Element data
$ ------------------------------------------------------------------------------
$ Pr
$
 PAR  G(DHCP,PR),,                      +GHSERPR;                3800 N 91Din !
 PAR  G(BCC_A2,PR:VA),,                 +GBCCPR;                 3800 N 91Din !
 PAR  G(LIQUID,PR),,                    +GLIQPR;                 3800 N 91Din !
$
 FUNCTION GHSERPR   298.15  -18803.379+356.587384*T-68.9176*T*LN(T)
       +0.072929*T**2-2.5184333E-05*T**3+507385*T**(-1);
       500.00  Y  -7246.848+82.427384*T-22.8909*T*LN(T)
       -0.00497126*T**2-1.22951E-06*T**3;
       800.00  Y  +95411.023-1073.55111*T+146.764*T*LN(T)
       -0.1288205*T**2+1.5592233E-05*T**3-11588800*T**(-1);
      1068.00  Y  -481663.131+4234.33311*T-606.120311*T*LN(T)
       +0.305181506*T**2-3.0994702E-05*T**3+70926840*T**(-1);
      1204.00  Y  -20014.678+227.685155*T-42.9697*T*LN(T);
      3800.00  N !
 FUNCTION GBCCPR    298.15  -2863.651+28.274853*T-13.7470527*T*LN(T)
       -0.02284377*T**2+3.542468E-06*T**3-87486*T**(-1);
      1068.00  Y  -11985.919+188.657121*T-38.451*T*LN(T);
      1204.00  Y  +953.224+100.826281*T-26.6824313*T*LN(T)
       -0.004106833*T**2+1.76214E-07*T**3-2473024*T**(-1);
      3800.00  N !
 FUNCTION GLIQPR    298.15  +3848.961-29.099465*T-4.7344931*T*LN(T)
       -0.035119723*T**2+5.427467E-06*T**3-207406*T**(-1);
      1068.00  Y  -10539.574+219.508805*T-42.9697*T*LN(T);
      3800.00  N !
$ ------------------------------------------------------------------------------
$ W
$
 PAR  G(BCC_A2,W:VA),,                  +GHSERWW;,,                   N 91Din !
 PAR  G(FCC_A1,W:VA),,                  +GHSERWW+19300+0.63*T;,,      N 91Din !
 PAR  G(HCP_A3,W:VA),,                  +GHSERWW+14750;,,             N 91Din !
 PAR  G(LIQUID,W),,                     +GLIQWW;,,                    N 91Din !
$
 FUNCTION GHSERWW   298.15  -7646.311+130.4*T-24.1*T*LN(T)
       -0.001936*T**2+2.07E-07*T**3+44500*T**(-1)-5.33E-11*T**4;
      3695.00  Y  -82868.801+389.362335*T-54*T*LN(T)+1.528621E+33*T**(-9);
      6000.00  N !
 FUNCTION GLIQWW    298.15  +52160.584-14.10999*T+GHSERWW-2.713468E-24*T**7;
      3695.00  Y  -30436.051+375.175*T-54*T*LN(T);
      6000.00  N !
 FUNCTION GFCCWW    298.15  +GHSERWW+19300+0.63*T;                     6000 N !
$ ------------------------------------------------------------------------------
$ Binary system
$
$ N. Krishnamurthy, T. Kundu, A. Awasthi, S.P. Garg,
$ Z. Metallkd., 91, 234-40(2000).
$
$ Checked against paper. Checked at 6000 K.
$
$ The liquid interaction was refitted to approximately match measured
$ liquid solubilities. The discrepancy probably originates from differences
$ in elemental W.
$
$ The solid interactions were set to 1.5 times the liquid interaction. This
$ should be revised when there are data.
$
$PAR  L(LIQUID,PR,W;0),,                +119200;,,                    N 00Kri !
 PAR  L(LIQUID,PR,W;0),,                +113000;,,                    N 00Kri !
$
 PAR  L(BCC_A2,PR,W:VA;0),,             +170000;,,                    N 25Hal !
$ ------------------------------------------------------------------------------
$
$
 LIST-OF-REFERENCE
 NUMBER  SOURCE
  Null   'Unknown source'
  Same   'Same or similar interaction as in the corresponding stable phase'
  REFLAV 'Laves phase convention: G(LAVES,X:X)=+3*GHSERXX+15000'
  91Din  'A.T. Dinsdale, Calphad, 15, 317-425(1991).'
  00Kri  'N. Krishnamurthy, T. Kundu, A. Awasthi, S.P. Garg,
          Z. Metallkd., 91, 234-40(2000); Pr-W'
  25Hal  'B. Hallstedt, dummy solid interaction, 2025; Pr-W'
!
