$
$ Database for Co-W from J. Sato et al. 2005.
$
$ J. Sato, K. Oikawa, R. Kainuma, K. Ishida,
$ Mater. Trans. (JIM), 46, 1199-1207(2005).
$
$ Dataset created 2020.07.26 by Bengt Hallstedt.
$
$ ------------------------------------------------------------------------------
 TEMP-LIM 298.15 6000.00 !
$
$ELEMENT NAME  REF. STATE               ATOMIC MASS H298-H0    S298    !
$
 ELEMENT VA   VACUUM                      0.0          0.0      0.0    ! 
 ELEMENT CO   HCP_A3                     58.9332    4765.567   30.0400 ! 
 ELEMENT W    BCC_A2                    183.85      4970.0     32.6176 ! 
$ ------------------------------------------------------------------------------
$ Phase definitions
$
 PHASE LIQUID:L % 1 1 !
 CONST LIQUID:L : CO W : !
$
$ Fcc (cF4, Fm-3m) and MeX (cF8, Fm-3m)
$
 PHASE FCC_A1 %A 2 1 1 !
 CONST FCC_A1 : CO% W : VA : !
$
$ Bcc (cI2, Im-3m)
$
 PHASE BCC_A2 %B 2 1 3 !
 CONST BCC_A2 : CO W% : VA : !
$
$ Hcp (hP2, P6_3/mmc) and Me2X (NiAs-type, hP4, P6_3/mmc, B8_1)
$
 PHASE HCP_A3 %A 2 1 0.5 !
 CONST HCP_A3 : CO% W : VA : !
$
$ Prototype CdMg3 (hP8, P6_3/mmc)
$
 PHASE CO3W_D019 % 2 3 1 !
 CONST CO3W_D019 : CO : W : !
$
$ Prototype Fe7W6 (hR13, R-3m)
$
 PHASE MU_D85 % 3 7 2 4 !
 CONST MU_D85 : CO W : W : CO W : !
$ ------------------------------------------------------------------------------
$ Defaults
$
 DEFINE-SYSTEM-DEFAULT ELEMENT 2 !
 DEFAULT-COM DEFINE_SYSTEM_ELEMENT VA !
 TYPE-DEF % SEQ * !
 TYPE-DEF A GES AMEND_PHASE_DESCRIPTION @ MAGNETIC -3 0.28 !
 TYPE-DEF B GES AMEND_PHASE_DESCRIPTION @ MAGNETIC -1 0.4 !
 FUNCTION ZERO      298.15  0;                                         6000 N !
 FUNCTION UN_ASS    298.15  0;                                         6000 N !
 FUNCTION R         298.15  +8.31451;                                  6000 N !
$ ------------------------------------------------------------------------------
$ Element data
$ ------------------------------------------------------------------------------
$ Co
$
 PAR  G(HCP_A3,CO:VA),,                 +GHSERCO;,,                   N 91Din !
 PAR  TC(HCP_A3,CO:VA),,                 1396.00;,,                   N 91Din !
 PAR  BM(HCP_A3,CO:VA),,                    1.35;,,                   N 91Din !
 PAR  G(FCC_A1,CO:VA),,                 +GHSERCO
             +427.591-0.615248*T;,,                                   N 91Din !
 PAR  TC(FCC_A1,CO:VA),,                 1396.00;,,                   N 91Din !
 PAR  BM(FCC_A1,CO:VA),,                    1.35;,,                   N 91Din !
 PAR  G(BCC_A2,CO:VA),,                 +GHSERCO+2938-0.7138*T;,,     N 91Din !
 PAR  TC(BCC_A2,CO:VA),,                 1450.00;,,                   N 91Din !
 PAR  BM(BCC_A2,CO:VA),,                    1.35;,,                   N 91Din !
$PAR  G(CBCC_A12,CO:VA),,               +GHSERCO+4155;,,              N 91Din !
$PAR  G(CUB_A13,CO:VA),,                +GHSERCO+3155;,,              N 91Din !
 PAR  G(LIQUID,CO),,                    +GLIQCO;,,                    N 91Din !
$
 FUNCTION GHSERCO   298.15  +310.241+133.36601*T-25.0861*T*LN(T)
       -0.002654739*T**2-1.7348E-07*T**3+72527*T**(-1);
      1768.00  Y  -17197.666+253.28374*T-40.5*T*LN(T)+9.3488E+30*T**(-9);
      6000.00  N !
 FUNCTION GLIQCO    298.15  +15085.037-8.931932*T+GHSERCO-2.19801E-21*T**7;
      1768.00  Y  -846.61+243.599944*T-40.5*T*LN(T);
      6000.00  N !
 FUNCTION GFCCCO    298.15  +GHSERCO+427.59-0.615248*T;                6000 N !
 FUNCTION GBCCCO    298.15  +GHSERCO+2938-0.7138*T;                    6000 N !
$ ------------------------------------------------------------------------------
$ W
$
 PAR  G(BCC_A2,W:VA),,                  +GHSERWW;,,                   N 91Din !
 PAR  G(FCC_A1,W:VA),,                  +GHSERWW+19300+0.63*T;,,      N 91Din !
 PAR  G(HCP_A3,W:VA),,                  +GHSERWW+14750;,,             N 91Din !
 PAR  G(LIQUID,W),,                     +GLIQWW;,,                    N 91Din !
$
 PAR  G(MU_D85,W:W:W),,                 +7*GFCCWW+6*GHSERWW+65000;,,  N 05Sat !
$
 FUNCTION GHSERWW   298.15  -7646.311+130.4*T-24.1*T*LN(T)
       -0.001936*T**2+2.07E-07*T**3+44500*T**(-1)-5.33E-11*T**4;
      3695.00  Y  -82868.801+389.362335*T-54*T*LN(T)+1.528621E+33*T**(-9);
      6000.00  N !
 FUNCTION GLIQWW    298.15  +52160.584-14.10999*T+GHSERWW-2.713468E-24*T**7;
      3695.00  Y  -30436.051+375.175*T-54*T*LN(T);
      6000.00  N !
 FUNCTION GFCCWW    298.15  +GHSERWW+19300+0.63*T;                     6000 N !
$ ------------------------------------------------------------------------------
$ Binary system
$
$ J. Sato, K. Oikawa, R. Kainuma, K. Ishida,
$ Mater. Trans. (JIM), 46, 1199-1207(2005).
$
$ Checked against paper. Checked at 6000 K.
$
 PAR  L(LIQUID,CO,W;0),,                -18385.568+2.5858*T;,,        N 05Sat !
 PAR  L(LIQUID,CO,W;1),,                -25165.674+3.8756*T;,,        N 05Sat !
 PAR  L(LIQUID,CO,W;2),,                +41820.097-12.8623*T;,,       N 05Sat !
$
 PAR  L(FCC_A1,CO,W:VA;0),,             -15626.162+8.1126*T;,,        N 05Sat !
 PAR  L(FCC_A1,CO,W:VA;1),,             +1571.6936-5.9654*T;,,        N 05Sat !
 PAR  L(FCC_A1,CO,W:VA;2),,             -9909.8886+3.1244*T;,,        N 05Sat !
 PAR  TC(FCC_A1,CO,W:VA;0),,            -3520.31;,,                   N 05Sat !
 PAR  TC(FCC_A1,CO,W:VA;1),,            -4796.20;,,                   N 05Sat !
 PAR  TC(FCC_A1,CO,W:VA;2),,             -813.657;,,                  N 05Sat !
 PAR  TC(FCC_A1,CO,W:VA;3),,            +5699.827;,,                  N 05Sat !
 PAR  BM(FCC_A1,CO,W:VA;0),,               -2.92662;,,                N 05Sat !
 PAR  BM(FCC_A1,CO,W:VA;1),,               -4.76958;,,                N 05Sat !
 PAR  BM(FCC_A1,CO,W:VA;2),,               -4.54864;,,                N 05Sat !
 PAR  BM(FCC_A1,CO,W:VA;3),,              +10.14396;,,                N 05Sat !
$
 PAR  L(BCC_A2,CO,W:VA;0),,             +45663.27-4.6772*T;,,         N 05Sat !
 PAR  L(BCC_A2,CO,W:VA;1),,             -15241.606;,,                 N 05Sat !
 PAR  TC(BCC_A2,CO,W:VA;0),,            -3379;,,                      N 89Fer1 !
 PAR  BM(BCC_A2,CO,W:VA;0),,               -3.146;,,                  N 89Fer1 !
$
 PAR  L(HCP_A3,CO,W:VA;0),,             -17817.537+12.4569*T;,,       N 05Sat !
 PAR  L(HCP_A3,CO,W:VA;1),,             +5639.8548-9.5239*T;,,        N 05Sat !
 PAR  L(HCP_A3,CO,W:VA;2),,             -2285.7125-1.4073*T;,,        N 05Sat !
 PAR  TC(HCP_A3,CO,W:VA;0),,            -3159.19;,,                   N 05Sat !
 PAR  TC(HCP_A3,CO,W:VA;1),,            -4023.37;,,                   N 05Sat !
 PAR  TC(HCP_A3,CO,W:VA;2),,             +200.523;,,                  N 05Sat !
 PAR  TC(HCP_A3,CO,W:VA;3),,            +5538.65;,,                   N 05Sat !
 PAR  BM(HCP_A3,CO,W:VA;0),,               -2.92662;,,                N 05Sat !
 PAR  BM(HCP_A3,CO,W:VA;1),,               -4.76958;,,                N 05Sat !
 PAR  BM(HCP_A3,CO,W:VA;2),,               -4.54864;,,                N 05Sat !
 PAR  BM(HCP_A3,CO,W:VA;3),,              +10.14396;,,                N 05Sat !
$
 PAR  G(CO3W_D019,CO:W),,               +3*GHSERCO+GHSERWW
             -31976.631+10.9409*T;,,                                  N 05Sat !
$
 PAR  G(MU_D85,CO:W:CO),,               +7*GFCCCO+2*GHSERWW+4*GBCCCO
             +477746.37-123.2822*T;,,                                 N 05Sat !
 PAR  G(MU_D85,CO:W:W),,                +7*GFCCCO+6*GHSERWW
             -96587.924+27.8406*T;,,                                  N 05Sat !
 PAR  G(MU_D85,W:W:CO),,                +7*GFCCWW+2*GHSERWW+4*GBCCCO
             +639334.294-151.1228*T;,,                                N 05Sat !
 PAR  L(MU_D85,CO,W:W:CO;0),,           -1220.0009+24.5951*T;,,       N 05Sat !
 PAR  L(MU_D85,CO,W:W:W;0),,            -1220.0009+24.5951*T;,,       N 05Sat !
 PAR  L(MU_D85,CO:W:CO,W;0),,           -323795.62-2.6221*T;,,        N 05Sat !
 PAR  L(MU_D85,W:W:CO,W;0),,            -323795.62-2.6221*T;,,        N 05Sat !
$ ------------------------------------------------------------------------------
$
 ASSESSED_SYSTEM
  CO-W(TDB -* +LIQ +HCP_A3 +FCC_A1 +BCC_A2 +MU_D85 +CO3W_D019
  ;G5 MAJ:HCP_A3/CO:VA MAJ:BCC_A2/W:VA ;P3 TMM:300/4000 STP:.8/3000/-2) !
$
$
 LIST-OF-REFERENCE
 NUMBER  SOURCE
  Null   'Unknown source'
  Same   'Same or similar interaction as in the corresponding stable phase'
  REFLAV 'Laves phase convention: G(LAVES,X:X)=+3*GHSERXX+15000'
  89Fer1 'A. Fernandez Guillermet, Metall. Trans. A, 20A, 935-56(1989); Co-W'
  91Din  'A.T. Dinsdale, Calphad, 15, 317-425(1991).'
  05Sat  'J. Sato, K. Oikawa, R. Kainuma, K. Ishida,
          Mater. Trans. (JIM), 46, 1199-1207(2005); Co-W'
!
