$
$ Database for Ni-Sm from X. Su et al. 1998
$
$ X. Su, W. Zhang, Z. Du, J. Alloys Compd., 278, 182-84(1998).
$
$ Dataset created 2018.01.20 by Bengt Hallstedt.
$ 2021.02.02: Modified for use with GES6.
$
$ No fcc, bcc or hcp interactions included in the paper.
$
$ A slight Ni solubility in hcp-Sm shifts the rhomb-Sm/hcp-Sm equilibrium from
$ 1007 K to 995 K.
$
$ There is an inverse miscibility gap with a minimum at 4193 K and x(Sm)=0.18.
$
$ ------------------------------------------------------------------------------
 TEMP-LIM 298.15 6000.00 !
$
$ELEMENT NAME  REF. STATE               ATOMIC MASS H298-H0    S298    !
$
 ELEMENT VA   VACUUM                      0.0          0.0      0.0    ! 
 ELEMENT NI   FCC_A1                     58.69      4787.0     29.7955 ! 
 ELEMENT SM   RHOMB_C19                 150.36      7573.04    69.4962 ! 
$ ------------------------------------------------------------------------------
$ Phase definitions
$
 PHASE LIQUID:L % 1 1 !
 CONST LIQUID:L : NI SM : !
$
$ Fcc (cF4, Fm-3m) and MeX (cF8, Fm-3m)
$
 PHASE FCC_A1 %A 2 1 1 !
 CONST FCC_A1 : NI : VA : !
$
$ Bcc (cI2, Im-3m)
$
 PHASE BCC_A2 %B 2 1 3 !
 CONST BCC_A2 : NI SM% : VA : !
$
$ Hcp (hP2, P6_3/mmc) and Me2X (NiAs-type, hP4, P6_3/mmc, B8_1)
$
 PHASE HCP_A3 % 2 1 0.5 !
 CONST HCP_A3 : NI SM% : VA : !
$
$ Prototype alpha-Sm (hR9, R-3m)
$
 PHASE RHOMB_C19 % 1 1 !
 CONST RHOMB_C19 : SM : !
$
$ Prototype Ni17Th2 (hP38, P6_3/mmc)
$
 PHASE NI17SM2 % 2 17 2 !
 CONST NI17SM2 : NI : SM : !
$
$ Prototype CaCu5 (hP6, P6/mmm)
$
 PHASE NI5SM_D2D % 2 5 1 !
 CONST NI5SM_D2D : NI : SM : !
$
$ Pearson (hR72, R-3m) and/or (hP96, P6_3/mmc)
$
 PHASE NI19SM5 % 2 19 5 !
 CONST NI19SM5 : NI : SM : !
$
$ Prototype Co7Gd2 (hR18, R-3m, low T) and Ce2Ni7 (hP36, P6_3/mmc, high T)
$
 PHASE NI7SM2 % 2 7 2 !
 CONST NI7SM2 : NI : SM : !
$
$ Prototype Ni3Pu (hR12, R-3m)
$
 PHASE NI3SM % 2 3 1 !
 CONST NI3SM : NI : SM : !
$
$ Prototype Cu2Mg (cF24, Fd-3m)
$
 PHASE NI2SM_C15 % 2 2 1 !
 CONST NI2SM_C15 : NI : SM : !
$
$ Prototype CrB (oC8, Cmcm)
$
 PHASE NISM_B33 % 2 1 1 !
 CONST NISM_B33 : NI : SM : !
$
$ Prototype Fe3C (oP16, Pnma)
$
 PHASE NISM3_D011 % 2 1 3 !
 CONST NISM3_D011 : NI : SM : !
$ ------------------------------------------------------------------------------
$ Defaults
$
 DEFINE-SYSTEM-DEFAULT ELEMENT 2 !
 DEFAULT-COM DEFINE_SYSTEM_ELEMENT VA !
 TYPE-DEF % SEQ * !
 TYPE-DEF A GES AMEND_PHASE_DESCRIPTION @ MAGNETIC -3 0.28 !
 TYPE-DEF B GES AMEND_PHASE_DESCRIPTION @ MAGNETIC -1 0.4 !
 FUNCTION ZERO      298.15  0;                                         6000 N !
 FUNCTION UN_ASS    298.15  0;                                         6000 N !
 FUNCTION R         298.15  +8.31451;                                  6000 N !
$ ------------------------------------------------------------------------------
$ Element data
$ ------------------------------------------------------------------------------
$ Ni
$
$ FCC_A1 and LIQUID modified in unary 5.0 (slight change in upper T interval)
$ BCT_A5 added in unary 5.0
$
 PAR  G(FCC_A1,NI:VA),,                 +GHSERNI;                3000 N 91Din !
 PAR  TC(FCC_A1,NI:VA),,                  633.00;                3000 N 91Din !
 PAR  BM(FCC_A1,NI:VA),,                    0.52;                3000 N 91Din !
 PAR  G(BCC_A2,NI:VA),,                 +GHSERNI
             +8715.084-3.556*T;                                  3000 N 91Din !
 PAR  TC(BCC_A2,NI:VA),,                  575.00;                3000 N 91Din !
 PAR  BM(BCC_A2,NI:VA),,                    0.85;                3000 N 91Din !
 PAR  G(HCP_A3,NI:VA),,                 +GHSERNI+1046+1.255*T;   3000 N 91Din !
 PAR  TC(HCP_A3,NI:VA),,                  633.00;                3000 N 91Din !
 PAR  BM(HCP_A3,NI:VA),,                    0.52;                3000 N 91Din !
$PAR  G(BCT_A5,NI),,                    +GHSERNI+10023-4.556*T;  3000 N 99Gho !
$PAR  G(CUB_A13,NI:VA),,                +GHSERNI+2092;           3000 N 91Din !
$PAR  G(CBCC_A12,NI:VA),,               +GHSERNI+3556;           3000 N 91Din !
 PAR  G(LIQUID,NI),,                    +GLIQNI;                 3000 N 91Din !
$
 FUNCTION GHSERNI   298.15  -5179.159+117.854*T-22.096*T*LN(T)-0.0048407*T**2;
      1728.00  Y  -27840.62+279.134977*T-43.1*T*LN(T)+1.12754E+31*T**(-9);
      3000.00  N !
 FUNCTION GLIQNI    298.15  +16414.686-9.397*T+GHSERNI-3.82318E-21*T**7;
      1728.00  Y  -9549.817+268.597977*T-43.1*T*LN(T);
      3000.00  N !
 FUNCTION GBCCNI    298.15  +GHSERNI+8715.084-3.556*T;                 6000 N !
$ ------------------------------------------------------------------------------
$ Sm
$
$ HCP_A3 added in unary 4.4
$ HCP_A3 modified in unary 5.0
$
$ FCC_A1 from 00Du (used in SGSOL 5.0; this value is absurd)
$ not included in unary
$ FCC_A1 from 02Zin not included in unary
$ FCC_A1, CBCC_A12, CUB_A13 from 09Wan1 not included in unary
$
 PAR  G(RHOMB_C19,SM),,                 +GHSERSM;                2100 N 91Din !
 PAR  G(BCC_A2,SM:VA),,                 +GBCCSM;                 2100 N 91Din !
 PAR  G(HCP_A3,SM:VA),,                 +GHSERSM
             +69.977-0.069491*T;                                 2100 N 98Su2 !
$PAR  G(FCC_A1,SM:VA),,                 +GHSERSM+180946;         2100 N 00Du1 !
$PAR  G(FCC_A1,SM:VA),,                 +GHSERSM+5000;           2100 N 98Su1 !
$PAR  G(FCC_A1,SM:VA),,                 +GHSERSM+1000;           2100 N 09Wan1 !
$PAR  G(CBCC_A12,SM:VA),,               +GHSERSM+1000;           2100 N 09Wan1 !
$PAR  G(CUB_A13,SM:VA),,                +GHSERSM+5000;           2100 N 09Wan1 !
 PAR  G(LIQUID,SM),,                    +GLIQSM;                 2100 N 91Din !
$
 FUNCTION GHSERSM   298.15  -3872.013-32.10748*T-1.6485*T*LN(T)
       -0.050254*T**2+1.010345E-05*T**3-82168*T**(-1);
       700.00  Y  -50078.215+627.869894*T-102.665*T*LN(T)
       +0.0474522*T**2-7.538383E-06*T**3+3861770*T**(-1);
      1190.00  Y  +289719.819-2744.50976*T+381.41982*T*LN(T)
       -0.254986338*T**2+2.7512152E-05*T**3-40102102*T**(-1);
      1345.00  Y  -23056.079+282.194375*T-50.208*T*LN(T);
      2100.00  N !
 FUNCTION GBCCSM    298.15  -4368.72+55.972523*T-16.9298494*T*LN(T)
       -0.025446016*T**2+3.579527E-06*T**3+94209*T**(-1);
      1190.00  Y  -15957.862+253.121044*T-46.9445*T*LN(T);
      1345.00  Y  +111191.653-624.680805*T+71.6856914*T*LN(T)
       -0.047314968*T**2+3.329865E-06*T**3-24870276*T**(-1);
      2100.00  N !
 FUNCTION GLIQSM    298.15  +3468.783+20.117456*T-11.6968284*T*LN(T)
       -0.032418177*T**2+4.544272E-06*T**3+23528*T**(-1);
      1190.00  Y  -11728.229+273.487076*T-50.208*T*LN(T);
      2100.00  N !
$ ------------------------------------------------------------------------------
$ Binary system
$
$ X. Su, W. Zhang, Z. Du, J. Alloys Compd., 278, 182-84(1998).
$
$ Checked against paper. Checked at 6000 K.
$
$ No fcc, bcc or hcp interactions included in the paper.
$
$ A slight Ni solubility in hcp-Sm shifts the rhomb-Sm/hcp-Sm equilibrium from
$ 1007 K to 995 K.
$
$ There is an inverse miscibility gap with a minimum at 4193 K and x(Sm)=0.18.
$
 PAR  L(LIQUID,NI,SM;0),,               -146014+24.836*T;,,           N 98Su !
 PAR  L(LIQUID,NI,SM;1),,               -98811+43.433*T;,,            N 98Su !
$
 PAR  G(NI17SM2,NI:SM),,                +17*GHSERNI+2*GHSERSM
             -476545+113.788*T;,,                                     N 98Su !
 PAR  G(NI5SM_D2D,NI:SM),,              +5*GHSERNI+GHSERSM
             -212777+42.174*T;,,                                      N 98Su !
 PAR  G(NI19SM5,NI:SM),,                +19*GHSERNI+5*GHSERSM
             -875064+144.519*T;,,                                     N 98Su !
 PAR  G(NI7SM2,NI:SM),,                 +7*GHSERNI+2*GHSERSM
             -326503+48.774*T;,,                                      N 98Su !
 PAR  G(NI3SM,NI:SM),,                  +3*GHSERNI+GHSERSM
             -143867+17.589*T;,,                                      N 98Su !
 PAR  G(NI2SM_C15,NI:SM),,              +2*GHSERNI+GHSERSM
             -98707+0.726*T;,,                                        N 98Su !
 PAR  G(NISM_B33,NI:SM),,               +GHSERNI+GHSERSM
             -54985-10.034*T;,,                                       N 98Su !
 PAR  G(NISM3_D011,NI:SM),,             +GHSERNI+3*GHSERSM
             -74744+4*T;,,                                            N 98Su !
$ ------------------------------------------------------------------------------
$
$
 LIST-OF-REFERENCE
 NUMBER  SOURCE
  Null   'Unknown source'
  Same   'Same or similar interaction as in the corresponding stable phase'
  REFLAV 'Laves phase convention: G(LAVES,X:X)=+3*GHSERXX+15000'
  91Din  'A.T. Dinsdale, Calphad, 15, 317-425(1991).'
  98Su1  'X. Su, W. Zhang, G. Liu, Z. Du,
          J. Alloys Compd., 267, 149-53(1998); Sm'
  98Su2  'X. Su, W. Zhang, Z. Du, J. Alloys Compd., 278, 182-84(1998)
          SGTE unary database V.4.4, 2001; Sm, Ni-Sm'
  99Gho  'G. Ghosh, Metall. Mater. Trans. A, 30A, 1481-94(1999),
          SGTE unary database V.5.0, 2009; Ni'
  09Wan1 'C.P. Wang, H.L. Zhang, S.L. Wang, Z. Lin, X.J. Liu, A.T. Tang,
          F.S. Pan, J. Alloys Compd., 481, 291-95(2009); Ho, Mn, Sm'
!
