$
$ Database for Mo-Re from P. Mao et al. 2008.
$
$ P. Mao, K. Han, Y. Xin, J. Alloys Compd., 464, 190-96(2008).
$
$ Dataset created 2018.12.02 by Bengt Hallstedt.
$ 2021.01.31: Modified for use with GES6.
$
$ The paper contains datasets for 8:4:18 and 10:4:16 models for sigma phase.
$ The dataset with the 10:4:16 model is broken.
$
$ This dataset uses a 8:4:18 model for the sigma phase.
$
$ ------------------------------------------------------------------------------
 TEMP-LIM 298.15 6000.00 !
$
$ELEMENT NAME  REF. STATE               ATOMIC MASS H298-H0    S298    !
$
 ELEMENT VA   VACUUM                      0.0          0.0      0.0    ! 
 ELEMENT MO   BCC_A2                     95.94      4589.0     28.56   ! 
 ELEMENT RE   HCP_A3                    186.207     5333.      36.4820 ! 
$ ------------------------------------------------------------------------------
$ Phase definitions
$
 PHASE LIQUID:L % 1 1 !
 CONST LIQUID:L : MO RE : !
$
$ Fcc (cF4, Fm-3m) and MeX (cF8, Fm-3m)
$
 PHASE FCC_A1 %A 2 1 1 !
 CONST FCC_A1 : MO RE : VA : !
$
$ Bcc (cI2, Im-3m)
$
 PHASE BCC_A2 %B 2 1 3 !
 CONST BCC_A2 : MO% RE : VA : !
$
$ Hcp (hP2, P6_3/mmc) and Me2X (NiAs-type, hP4, P6_3/mmc, B8_1)
$
 PHASE HCP_A3 %A 2 1 0.5 !
 CONST HCP_A3 : MO RE% : VA : !
$
$ Prototype alpha-Mn (cI58, I-43m)
$
 PHASE CHI_A12 % 3 24 10 24 !
 CONST CHI_A12 : RE : MO : MO RE : !
$
$ Prototype CrFe (tP30, P4_2/mnm)
$
 PHASE SIGMA_OLD % 3 8 4 18 !
 CONST SIGMA_OLD : RE : MO : MO RE : !
$ ------------------------------------------------------------------------------
$ Defaults
$
 DEFINE-SYSTEM-DEFAULT ELEMENT 2 !
 DEFAULT-COM DEFINE_SYSTEM_ELEMENT VA !
 TYPE-DEF % SEQ * !
 TYPE-DEF A GES AMEND_PHASE_DESCRIPTION @ MAGNETIC -3 0.28 !
 TYPE-DEF B GES AMEND_PHASE_DESCRIPTION @ MAGNETIC -1 0.4 !
 FUNCTION ZERO      298.15  0;                                         6000 N !
 FUNCTION UN_ASS    298.15  0;                                         6000 N !
 FUNCTION R         298.15  +8.31451;                                  6000 N !
$ ------------------------------------------------------------------------------
$ Element data
$ ------------------------------------------------------------------------------
$ Mo
$
 PAR  G(BCC_A2,MO:VA),,                 +GHSERMO;                5000 N 91Din !
 PAR  G(FCC_A1,MO:VA),,                 +GHSERMO+15200+0.63*T;   5000 N 91Din !
 PAR  G(HCP_A3,MO:VA),,                 +GHSERMO+11550;          5000 N 91Din !
 PAR  G(LIQUID,MO),,                    +GLIQMO;                 5000 N 91Din !
$
 FUNCTION GHSERMO   298.15  -7746.302+131.9197*T-23.56414*T*LN(T)
       -0.003443396*T**2+5.66283E-07*T**3+65812*T**(-1)-1.30927E-10*T**4;
      2896.00  Y  -30556.41+283.559746*T-42.63829*T*LN(T)-4.849315E+33*T**(-9);
      5000.00  N !
 FUNCTION GLIQMO    298.15  +41831.347-14.694912*T+GHSERMO+4.24519E-22*T**7;
      2896.00  Y  +3538.963+271.6697*T-42.63829*T*LN(T);
      5000.00  N !
 FUNCTION GFCCMO    298.15  +GHSERMO+15200+0.63*T;                     6000 N !
$ ------------------------------------------------------------------------------
$ Re
$
$ HCP_A3 and LIQUID revised in unary 3.0
$ BCC_A2 revised in unary 4.4
$
 PAR  G(HCP_A3,RE:VA),,                 +GHSERRE;,,                   N 96Arb !
 PAR  G(FCC_A1,RE:VA),,                 +GHSERRE+11000-1.5*T;,,       N 91Din !
 PAR  G(BCC_A2,RE:VA),,                 +GHSERRE+17000-3.7*T;,,       N 01SGUN !
$PAR  G(BCC_A2,RE:VA),,                 +GHSERRE+29200-6*T;,,         N 91Din !
 PAR  G(LIQUID,RE),,                    +GLIQRE;,,                    N 96Arb !
$
 FUNCTION GHSERRE   298.15  -7695.279+128.421589*T-24.348*T*LN(T)
       -0.00253505*T**2+1.92818E-07*T**3+32915*T**(-1);
      1200.00  Y  -15775.998+194.667426*T-33.586*T*LN(T)
       +0.00224565*T**2-2.81835E-07*T**3+1376270*T**(-1);
      2400.00  Y  -70882.739+462.110749*T-67.956*T*LN(T)
       +0.01184945*T**2-7.88955E-07*T**3+18075200*T**(-1);
      3458.00  Y  +346325.888-1211.37186*T+140.831655*T*LN(T)
       -0.033764567*T**2+1.053726E-06*T**3-1.34548866E+08*T**(-1);
      5000.00  Y  -78564.296+346.997842*T-49.519*T*LN(T);
      6000.00  N !
 FUNCTION GLIQRE    298.15  +23820.883-6.34538*T+GHSERRE;
      2000.00  Y  +568842.665-2527.83846*T+314.178898*T*LN(T)
       -0.08939817*T**2+3.92854E-06*T**3-1.63100987E+08*T**(-1);
      3458.00  Y  -39044.888+335.723691*T-49.519*T*LN(T);
      5000.00  Y  +39519.408-11.274151*T+GHSERRE;
      6000.00  N !
 FUNCTION GFCCRE    298.15  +GHSERRE+11000-1.5*T;                      6000 N !
 FUNCTION GBCCRE    298.15  +GHSERRE+17000-3.7*T;                      6000 N !
$ ------------------------------------------------------------------------------
$ Binary system
$
$ P. Mao, K. Han, Y. Xin, J. Alloys Compd., 464, 190-96(2008).
$
$ Checked against paper. Checked at 6000 K.
$
$ The paper contains datasets for 8:4:18 and 10:4:16 models for sigma phase.
$ The dataset with the 10:4:16 model is broken.
$
$ This dataset uses a 8:4:18 model for the sigma phase.
$
 PAR  L(LIQUID,MO,RE;0),,               -12376;,,                     N 08Mao !
 PAR  L(LIQUID,MO,RE;1),,               -31075;,,                     N 08Mao !
$
 PAR  L(BCC_A2,MO,RE:VA;0),,            -2817.5-2.1*T;,,              N 08Mao !
 PAR  L(BCC_A2,MO,RE:VA;1),,            -33292.1;,,                   N 08Mao !
$
 PAR  L(HCP_A3,MO,RE:VA;0),,            +7151;,,                      N 08Mao !
$
 PAR  G(CHI_A12,RE:MO:MO),,             +24*GFCCRE+10*GHSERMO
             +24*GFCCMO-487806.2-3.84*T;,,                            N 08Mao !
 PAR  G(CHI_A12,RE:MO:RE),,             +48*GFCCRE+10*GHSERMO
             -418491-103.9*T;,,                                       N 08Mao !
$
 PAR  G(SIGMA_OLD,RE:MO:MO),,           +8*GFCCRE+22*GHSERMO
             -70326.4-121.7*T;,,                                      N 08Mao !
 PAR  G(SIGMA_OLD,RE:MO:RE),,           +8*GFCCRE+4*GHSERMO
             +18*GBCCRE-348104.6+28.9*T;,,                            N 08Mao !
 PAR  L(SIGMA_OLD,RE:MO:MO,RE;0),,      +311547.9;,,                  N 08Mao !
$
$ metastable
$
 PAR  L(FCC_A1,MO,RE:VA;0),,            +7151;,,                      N Same !
$ ------------------------------------------------------------------------------
$
$
 LIST-OF-REFERENCE
 NUMBER  SOURCE
  Null   'Unknown source'
  Same   'Same or similar interaction as in the corresponding stable phase'
  REFLAV 'Laves phase convention: G(LAVES,X:X)=+3*GHSERXX+15000'
  91Din  'A.T. Dinsdale, Calphad, 15, 317-425(1991).'
  96Arb  'J.W. Arblaster, Calphad, 20, 343-52(1996),
          SGTE unary database V.3.0, 1996; Re'
  01SGUN 'SGTE unary database V.4.4, 2001.'
  08Mao  'P. Mao, K. Han, Y. Xin, J. Alloys Compd., 464, 190-96(2008); Mo-Re'
!
