$
$ Database for Bi-Dy from J. Wang et al. 2013.
$
$ J. Wang, C. Li, C. Guo, Z. Du, B. Wu, Thermochim. Acta, 566, 44-49(2013).
$
$ Dataset created 2018.04.03 by Bengt Hallstedt.
$ 2020.12.25: Modified for use with GES6.
$ 2023.02.24: Unary Bi changed from V4.4 to V5.0.
$
$ ------------------------------------------------------------------------------
 TEMP-LIM 298.15 6000.00 !
$
$ELEMENT NAME  REF. STATE               ATOMIC MASS H298-H0    S298    !
$
 ELEMENT VA   VACUUM                      0.0          0.0      0.0    ! 
 ELEMENT BI   RHOMBOHEDRAL_A7           208.98      6426.6     56.735  !
 ELEMENT DY   HCP_A3                    162.50      8865.896   74.9559 ! 
$ ------------------------------------------------------------------------------
$ Phase definitions
$
 PHASE LIQUID:L % 1 1 !
 CONST LIQUID:L : BI DY : !
$
$ Fcc (cF4, Fm-3m) and MeX (cF8, Fm-3m)
$
 PHASE FCC_A1 %A 2 1 1 !
 CONST FCC_A1 : BI DY : VA : !
$
$ Bcc (cI2, Im-3m)
$
 PHASE BCC_A2 %B 2 1 3 !
 CONST BCC_A2 : BI DY% : VA : !
$
$ Hcp (hP2, P6_3/mmc) and Me2X (NiAs-type, hP4, P6_3/mmc, B8_1)
$
 PHASE HCP_A3 %A 2 1 0.5 !
 CONST HCP_A3 : BI DY% : VA: !
$
$ Prototype alpha-As (hR2, R-3m)
$
 PHASE RHOMBOHEDRAL_A7 % 1 1 !
 CONST RHOMBOHEDRAL_A7 : BI : !
$
$ Prototype NaCl (cF8, Fm-3m)
$
 PHASE BIDY_B1 % 2 1 1 !
 CONST BIDY_B1 : BI : DY : !
$
$ Prototype Bi3Y5 (oP32, Pnma)
$
 PHASE BI3DY5 % 2 3 5 !
 CONST BI3DY5 : BI : DY : !
$ ------------------------------------------------------------------------------
$ Defaults
$
 DEFINE-SYSTEM-DEFAULT ELEMENT 2 !
 DEFAULT-COM DEFINE_SYSTEM_ELEMENT VA !
 TYPE-DEF A GES AMEND_PHASE_DESCRIPTION @ MAGNETIC -3 0.28 !
 TYPE-DEF B GES AMEND_PHASE_DESCRIPTION @ MAGNETIC -1 0.4 !
 TYPE-DEF % SEQ * !
 FUNCTION ZERO      298.15  0;                                         6000 N !
 FUNCTION UN_ASS    298.15  0;                                         6000 N !
 FUNCTION R         298.15  +8.31451;                                  6000 N !
$ ------------------------------------------------------------------------------
$ Element data
$ ------------------------------------------------------------------------------
$ Bi
$
$ RHOMBOHEDRAL_A7 and LIQUID modified in unary 5.0
$ DIAMOND_A4 added in unary 5.0
$
 PAR  G(RHOMBOHEDRAL_A7,BI),,           +GHSERBI;                3000 N 09SGUN !
 PAR  G(FCC_A1,BI:VA),,                 +GHSERBI+9900-12.5*T;    3000 N 91Din !
 PAR  G(BCC_A2,BI:VA),,                 +GHSERBI+11297-13.9*T;   3000 N 91Din !
 PAR  G(HCP_A3,BI:VA),,                 +GHSERBI+9900-11.8*T;    3000 N 91Din !
$PAR  G(DIAMOND_A4,BI),,                +GHSERBI
$            +11296.8+9.253655*T;                                3000 N 88Che2 !
$PAR  G(BCT_A5,BI),,                    +GHSERBI+4184.07;        3000 N 91Din !
$PAR  G(TETRAGONAL_A6,BI),,             +GHSERBI+4184.07;        3000 N 91Din !
$PAR  G(TET_ALPHA1_A6,BI),,             +GHSERBI+4234;           3000 N 91Din !
 PAR  G(LIQUID,BI),,                    +GLIQBI;                 3000 N 09SGUN ! 
$
 FUNCTION GHSERBI   298.15  -7817.776+128.418925*T-28.4096529*T*LN(T)
       +0.012338888*T**2-8.381598E-6*T**3;
       544.55  Y  +29293.369-379.605174*T+49.678*T*LN(T)
       -0.0730245*T**2+1.3052833E-5*T**3-3544705*T**(-1)+1.66309E+25*T**(-9);
       800.00  Y  -11085.609+182.955328*T-36.041*T*LN(T)
       +7.4641E-3*T**2-1.05047E-6*T**3+5175*T**(-1)+1.66309E+25*T**(-9);
      1200.00  Y  -7580.864+124.770814*T-27.196*T*LN(T)+1.66309E+25*T**(-9);
      3000.00  N !
 FUNCTION GLIQBI    298.15  +11246.017-20.636399*T+GHSERBI-5.9608E-19*T**7;
       544.55  Y  +40629.667-400.415652*T+49.678*T*LN(T)
       -0.0730245*T**2+1.3052833E-5*T**3-3544705*T**(-1);
       800.00  Y  +250.689+162.14485*T-36.041*T*LN(T)
       +0.0074641*T**2-1.05047E-6*T**3+5175*T**(-1);
      1200.00  Y  +3755.434+103.960336*T-27.196*T*LN(T);
      3000.00 N !
$ ------------------------------------------------------------------------------
$ Dy
$
$ HCP_A3, BCC_A2 and LIQUID revised in unary 3.0
$
$ FCC_A1 from 03Cac not included in unary (but it should be)
$ FCC_A1, CBCC_A12 and CUB_A13 from 09Wan4 not included in unary.
$
 PAR  G(HCP_A3,DY:VA)           100.00  +GHSERDY;                3000 N 95She1 !
 PAR  TC(HCP_A3,DY:VA)          100.00    179;                   3000 N 95She1 !
 PAR  BM(HCP_A3,DY:VA)          100.00      3.0;                 3000 N 95She1 !
 PAR  G(BCC_A2,DY:VA)           100.00  +GBCCDY;                 3000 N 95She1 !
 PAR  G(FCC_A1,DY:VA)           100.00  +GHSERDY
             +1300-0.6651608*T;                                  3000 N 03Cac !
$PAR  G(FCC_A1,DY:VA)           298.15  +GHSERDY+5000;           3000 N 09Wan4 !
$PAR  G(CBCC_A12,DY:VA)         298.15  +GHSERDY+10000;          3000 N 09Wan4 !
$PAR  G(CUB_A13,DY:VA)          298.15  +GHSERDY+10000;          3000 N 09Wan4 !
 PAR  G(LIQUID,DY)              100.00  +GLIQDY;                 3000 N 95She1 !
$
 FUNCTION GHSERDY   100.00  -7937.16586+102.307412*T-26.3917167*T*LN(T)
       -7.61683657E-04*T**2-5.86914125E-07*T**3+4010.90565*T**(-1);
      1000.00  Y  -13733.328+214.012934*T-43.8283359*T*LN(T)
       +0.0166909801*T**2-3.49702836E-06*T**3+0.0173619874*T**(-1);
      1654.15  Y  -404681.371+2032.1415*T-272.123952*T*LN(T)
       +0.0578301681*T**2-2.76169148E-06*T**3+1.09616238E+08*T**(-1);
      3000.00  N !
 FUNCTION GBCCDY    100.00  +1508.1802-0.566616181*T+GHSERDY;
      1000.00  Y  +327500.062-2868.04585*T+391.515418*T*LN(T)
       -0.224042148*T**2+2.04076075E-05*T**3-48652656.5*T**(-1);
      1654.15  Y  -33708.7949+291.409631*T-50.208*T*LN(T);
      1685.15  Y  -40775.4966+330.318068*T-55.2811171*T*LN(T)
       +0.0015254673*T**2-7.7437116E-08*T**3+1776589.32*T**(-1);
      3000.00  N !
 FUNCTION GLIQDY    100.00  +13196.6185-7.5443643*T+GHSERDY;
      1000.00  Y  +300126.971-2519.78614*T+341.302578*T*LN(T)
       -0.196153225*T**2+1.76197799E-05*T**3-43071677.5*T**(-1);
      1685.15  Y  -21864.7344+282.205014*T-49.9151*T*LN(T);
      3000.00  N !
$ ------------------------------------------------------------------------------
$ Binary system
$
$ J. Wang, C. Li, C. Guo, Z. Du, B. Wu, Thermochim. Acta, 566, 44-49(2013).
$
$ Checked against paper. Checked at 6000 K.
$
 PAR  L(LIQUID,BI,DY;0),,               -198000+1.619*T;,,            N 13Wan !
 PAR  L(LIQUID,BI,DY;1),,               +11500+1.272*T;,,             N 13Wan !
 PAR  L(LIQUID,BI,DY;2),,               +51500+4.132*T;,,             N 13Wan !
 PAR  L(LIQUID,BI,DY;3),,               -31203-0.057*T;,,             N 13Wan !
$
 PAR  L(HCP_A3,BI,DY:VA;0),,            +UN_ASS;,,                    N !
 PAR  L(BCC_A2,BI,DY:VA;0),,            +UN_ASS;,,                    N !
$
 PAR  G(BIDY_B1,BI:DY),,                +GHSERBI+GHSERDY
             -185328+15.1*T;,,                                        N 13Wan !
 PAR  G(BI3DY5,BI:DY),,                 +3*GHSERBI+5*GHSERDY
             -630720+64*T;,,                                          N 13Wan !
$ ------------------------------------------------------------------------------
$
$
 LIST-OF-REFERENCE
 NUMBER  SOURCE
  Null   'Unknown source'
  Same   'Same or similar interaction as in the corresponding stable phase'
  COST   'COST 507 database'
  88Che2 'P.-Y. Chevalier, Thermochim. Acta, 132, 111-16(1988),
          SGTE unary database V.5.0, 2009; Bi' 
  91Din  'A.T. Dinsdale, Calphad, 15, 317-425(1991).'
  95She1 'H. Shen, W. Zhang, G. Liu, R. Wang, Z. Du, Report F-95-01,
          University of Science and Technology, Beijing, May 1995,
          SGTE unary database V.3.0, 1996; Dy'
  03Cac  'G. Cacciamani, S. De Negri, A. Saccone, R. Ferro,
          Intermetallics, 11, 1135-51(2003); Dy, Ho'
  09SGUN 'SGTE unary database V.5.0, 2009.'
  09Wan4 'C.P. Wang, Z. Lin, X.J. Liu,
          J. Alloys Compd., 469, 123-28(2009); Dy, Mn, Pr'
  13Wan  'J. Wang, C. Li, C. Guo, Z. Du, B. Wu,
          Thermochim. Acta, 566, 44-49(2013); Bi-Dy'
!
