$
$ Database for Ba-Co from B. Hallstedt 2019.
$
$ B. Hallstedt, unpublished, 2019.
$
$ Dataset created 2019.07.04 by Bengt Hallstedt.
$ 2019.11.06: Modified for use with GES6.
$
$ Ba-Co is probably a simple immiscible system. No experimental data could be
$ found. It is not even included in the Predel binaries.
$ Enthalpy of mixing data from Miedema et al. for the liquid are used.
$ For fcc, bcc and hcp a somewhat larger interaction was selected to get
$ very small solubilities in solid state.
$
$ ------------------------------------------------------------------------------
 TEMP-LIM 298.15 6000.00 !
$
$ELEMENT NAME  REF. STATE               ATOMIC MASS H298-H0    S298    !
$
 ELEMENT VA   VACUUM                      0.0          0.0      0.0    ! 
 ELEMENT BA   BCC_A2                    137.33      6910.0     62.50   ! 
 ELEMENT CO   HCP_A3                     58.9332    4765.567   30.0400 ! 
$ ------------------------------------------------------------------------------
$ Phase definitions
$
 PHASE LIQUID:L % 1 1 !
 CONST LIQUID:L : BA CO : !
$
$ Fcc (cF4, Fm-3m) and MeX (cF8, Fm-3m)
$
 PHASE FCC_A1 %A 2 1 1 !
 CONST FCC_A1 : BA CO% : VA : !
$
$ Bcc (cI2, Im-3m)
$
 PHASE BCC_A2 %B 2 1 3 !
 CONST BCC_A2 : BA% CO : VA : !
$
$ Hcp (hP2, P6_3/mmc) and Me2X (NiAs-type, hP4, P6_3/mmc, B8_1)
$
 PHASE HCP_A3 %A 2 1 0.5 !
 CONST HCP_A3 : BA CO% : VA : !
$ ------------------------------------------------------------------------------
$ Defaults
$
 DEFINE-SYSTEM-DEFAULT ELEMENT 2 !
 DEFAULT-COM DEFINE_SYSTEM_ELEMENT VA !
 TYPE-DEF % SEQ * !
 TYPE-DEF A GES AMEND_PHASE_DESCRIPTION @ MAGNETIC -3 0.28 !
 TYPE-DEF B GES AMEND_PHASE_DESCRIPTION @ MAGNETIC -1 0.4 !
 FUNCTION ZERO      298.15  0;                                         6000 N !
 FUNCTION UN_ASS    298.15  0;                                         6000 N !
 FUNCTION R         298.15  +8.31451;                                  6000 N !
$ ------------------------------------------------------------------------------
$ Element data
$ ------------------------------------------------------------------------------
$ Ba
$
 PAR  G(BCC_A2,BA:VA),,                 +GHSERBA;                4000 N 91Din !
 PAR  G(HCP_A3,BA:VA),,                 +GHSERBA+2000+1.3*T;     4000 N 91Din !
 PAR  G(FCC_A1,BA:VA),,                 +GHSERBA+1800+0.6*T;     4000 N 91Din !
 PAR  G(LIQUID,BA),,                    +GLIQBA;                 4000 N 91Din !
$
 FUNCTION GHSERBA   298.15  -17685.226+233.78606*T-42.889*T*LN(T)
       -0.0018314*T**2-9.5E-11*T**3+705880*T**(-1);
      1000.00  Y  -64873.614+608.188389*T-94.2824199*T*LN(T)
       +0.019504772*T**2-1.051353E-06*T**3+8220192*T**(-1);
      2995.00  Y  +8083.889+136.780042*T-32.2*T*LN(T);
      4000.00  N !
 FUNCTION GLIQBA    298.15  -9738.988+229.540143*T-43.4961089*T*LN(T)
       -0.002346416*T**2+9.91223E-07*T**3+723016*T**(-1);
      1000.00  Y  -7381.093+235.49642*T-45.103*T*LN(T)
       +0.002154*T**2+2.7E-11*T**3-365*T**(-1);
      2995.00  Y  +3856.393-4.568042*T+GHSERBA;
      4000.00  N !
$ ------------------------------------------------------------------------------
$ Co
$
 PAR  G(HCP_A3,CO:VA),,                 +GHSERCO;,,                   N 91Din !
 PAR  TC(HCP_A3,CO:VA),,                 1396.00;,,                   N 91Din !
 PAR  BM(HCP_A3,CO:VA),,                    1.35;,,                   N 91Din !
 PAR  G(FCC_A1,CO:VA),,                 +GHSERCO
             +427.591-0.615248*T;,,                                   N 91Din !
 PAR  TC(FCC_A1,CO:VA),,                 1396.00;,,                   N 91Din !
 PAR  BM(FCC_A1,CO:VA),,                    1.35;,,                   N 91Din !
 PAR  G(BCC_A2,CO:VA),,                 +GHSERCO+2938-0.7138*T;,,     N 91Din !
 PAR  TC(BCC_A2,CO:VA),,                 1450.00;,,                   N 91Din !
 PAR  BM(BCC_A2,CO:VA),,                    1.35;,,                   N 91Din !
$PAR  G(CBCC_A12,CO:VA),,               +GHSERCO+4155;,,              N 91Din !
$PAR  G(CUB_A13,CO:VA),,                +GHSERCO+3155;,,              N 91Din !
 PAR  G(LIQUID,CO),,                    +GLIQCO;,,                    N 91Din !
$
 FUNCTION GHSERCO   298.15  +310.241+133.36601*T-25.0861*T*LN(T)
       -0.002654739*T**2-1.7348E-07*T**3+72527*T**(-1);
      1768.00  Y  -17197.666+253.28374*T-40.5*T*LN(T)+9.3488E+30*T**(-9);
      6000.00  N !
 FUNCTION GLIQCO    298.15  +15085.037-8.931932*T+GHSERCO-2.19801E-21*T**7;
      1768.00  Y  -846.61+243.599944*T-40.5*T*LN(T);
      6000.00  N !
 FUNCTION GFCCCO    298.15  +GHSERCO+427.59-0.615248*T;                6000 N !
 FUNCTION GBCCCO    298.15  +GHSERCO+2938-0.7138*T;                    6000 N !
$ ------------------------------------------------------------------------------
$ Binary system
$
$ B. Hallstedt, unpublished, 2019.
$
$ Ba-Co is probably a simple immiscible system. No experimental data could be
$ found. It is not even included in the Predel binaries.
$ Enthalpy of mixing data from Miedema et al. for the liquid are used.
$ For fcc, bcc and hcp a somewhat larger interaction was selected to get
$ very small solubilities in solid state.
$
 PAR  L(LIQUID,BA,CO;0),,               +47500;,,                     N 19Hal !
 PAR  L(LIQUID,BA,CO;1),,               -16500;,,                     N 19Hal !
$
 PAR  L(FCC_A1,BA,CO:VA;0),,            +70000;,,                     N 19Hal !
 PAR  L(FCC_A1,BA,CO:VA;1),,            -16500;,,                     N 19Hal !
$
 PAR  L(BCC_A2,BA,CO:VA;0),,            +70000;,,                     N 19Hal !
 PAR  L(BCC_A2,BA,CO:VA;1),,            -16500;,,                     N 19Hal !
$
 PAR  L(HCP_A3,BA,CO:VA;0),,            +70000;,,                     N 19Hal !
 PAR  L(HCP_A3,BA,CO:VA;1),,            -16500;,,                     N 19Hal !
$ ------------------------------------------------------------------------------
$
$
 LIST-OF-REFERENCE
 NUMBER  SOURCE
  Null   'Unknown source'
  Same   'Same or similar interaction as in the corresponding stable phase'
  91Din  'A.T. Dinsdale, Calphad, 15, 317-425(1991).'
  19Hal  'B. Hallstedt, unpublished, 2019; Ba-Co'
!
