$
$ Database for Ru-Zr from M. Idbenali et al. 2007.
$
$ M. Idbenali, C. Servant, N. Selhaoui, L. Bouirden,
$ J. Phase Equilib. Diffus., 28, 243-49(2007).
$
$ Dataset created 2024.04.25 by Bengt Hallstedt.
$
$ The phase diagram is only approximately reproduced. There are differences
$ up to almost 100 K for invariant equilibria. Visually, the phase diagram
$ looks fine, though.
$
$ The solubility ranges for C14 and B2 are not reproduced. The interaction
$ Ru,Zr:Ru for these phases makes no sense.
$
$ There is an inverse miscibility gap with a minimum at 4859 K and x(Zr)=0.27.
$
$ ------------------------------------------------------------------------------
 TEMP-LIM 298.15 6000.00 !
$
$ELEMENT NAME  REF. STATE               ATOMIC MASS H298-H0    S298    !
$
 ELEMENT VA   VACUUM                      0.0          0.0      0.0    ! 
 ELEMENT RU   HCP_A3                    101.07      4602.4     28.6144 ! 
 ELEMENT ZR   HCP_A3                     91.22      5566.27    39.1809 ! 
$ ------------------------------------------------------------------------------
$ Phase definitions
$
 PHASE LIQUID:L % 1 1 !
 CONST LIQUID:L : RU ZR : !
$
$ Fcc (cF4, Fm-3m) and MeX (cF8, Fm-3m)
$
 PHASE FCC_A1 %A 2 1 1 !
 CONST FCC_A1 : RU ZR : VA : !
$
$ Bcc (cI2, Im-3m)
$
 PHASE BCC_A2 %B 2 1 3 !
 CONST BCC_A2 : RU ZR% : VA : !
$
$ Hcp (hP2, P6_3/mmc) and Me2X (NiAs-type, hP4, P6_3/mmc, B8_1)
$
 PHASE HCP_A3 % 2 1 0.5 !
 CONST HCP_A3 : RU ZR : VA : !
$
$ Prototype MgZn2 (hP12, P6_3/mmc)
$
 PHASE C14_LAVES % 2 2 1 !
 CONST C14_LAVES : RU% ZR : RU ZR% : !
$
$ Prototype CsCl (cP2, Pm-3m)
$
 PHASE RUZR_B2 % 2 1 1 !
 CONST RUZR_B2 : RU% ZR : RU ZR% : !
$ ------------------------------------------------------------------------------
$ Defaults
$
 DEFINE-SYSTEM-DEFAULT ELEMENT 2 !
 DEFAULT-COM DEFINE_SYSTEM_ELEMENT VA !
 TYPE-DEF % SEQ * !
 TYPE-DEF A GES AMEND_PHASE_DESCRIPTION @ MAGNETIC -3 0.28 !
 TYPE-DEF B GES AMEND_PHASE_DESCRIPTION @ MAGNETIC -1 0.4 !
 FUNCTION ZERO      298.15  0;                                         6000 N !
 FUNCTION UN_ASS    298.15  0;                                         6000 N !
 FUNCTION R         298.15  +8.31451;                                  6000 N !
$ ------------------------------------------------------------------------------
$ Element data
$ ------------------------------------------------------------------------------
$ Ru
$
$ BCC_A2 revised in unary 4.4
$
 PAR  G(HCP_A3,RU:VA),,                 +GHSERRU;                4500 N 91Din !
 PAR  G(FCC_A1,RU:VA),,                 +GHSERRU+12500-2.4*T;    4500 N 91Din !
 PAR  G(BCC_A2,RU:VA),,                 +GHSERRU+21500-5.05*T;   4500 N 01SGUN !
$PAR  G(BCC_A2,RU:VA),,                 +GHSERRU+26500-6.2*T;    4500 N 91Din !
 PAR  G(LIQUID,RU),,                    +GLIQRU;                 4500 N 91Din !
$
 PAR  G(C14_LAVES,RU:RU),,              +3*GHSERRU+75000;,,           N 07Idb !
 PAR  G(RUZR_B2,RU:RU),,                +2*GHSERRU+10000;,,           N 07Idb !
$
 FUNCTION GHSERRU   298.15  -7561.873+127.866233*T-22.9143287*T*LN(T)
       -0.004062566*T**2+1.7641E-07*T**3+56377*T**(-1);
      1500.00  Y  -59448.103+489.516214*T-72.3241219*T*LN(T)
       +0.018726245*T**2-1.952433E-06*T**3+11063885*T**(-1);
      2607.00  Y  -38588773+168610.517*T-21329.705*T*LN(T)
       +5.221639*T**2-2.40245985E-04*T**3+1.30829926E+10*T**(-1);
      2740.00  Y  -55768.304+364.482314*T-51.8816*T*LN(T);
      4500.00  N !
 FUNCTION GLIQRU    298.15  +27480.616-8.398748*T+GHSERRU;
       800.00  Y  +50827.232-179.818561*T+19.539341*T*LN(T)
       -0.026524167*T**2+1.667839E-06*T**3-3861125*T**(-1);
      2607.00  Y  -17161.807+349.673561*T-51.8816*T*LN(T);
      4500.00  N !
$ ------------------------------------------------------------------------------
$ Zr
$
$ CUB_A13, CBCC_A12, ORTHORHOMBIC_A20 and TETRAGONAL_U added in unary 4.1
$
 PAR  G(HCP_A3,ZR:VA)           130.00  +GHSERZR;,,                   N 91Din !
 PAR  G(BCC_A2,ZR:VA)           130.00  +GBCCZR;,,                    N 91Din !
$PAR  G(OMEGA,ZR)               130.00  +GOMEZR;,,                    N 91Din !
 PAR  G(FCC_A1,ZR:VA)           130.00  +GHSERZR+7600-0.9*T;,,        N 91Din !
$PAR  G(CBCC_A12,ZR:VA)         130.00  +GHSERZR+4602.2;,,            N 99SGUN !
$PAR  G(CUB_A13,ZR:VA)          130.00  +GHSERZR+7531.2;,,            N 99SGUN !
$PAR  G(ORTHORHOMBIC_A20,ZR)    130.00  +GBCCZR+5000;,,               N 99SGUN !
$PAR  G(TETRAGONAL_U,ZR)        130.00  +GBCCZR+5000;,,               N 99SGUN !
 PAR  G(LIQUID,ZR)              130.00  +GLIQZR;,,                    N 91Din !
$
 PAR  G(C14_LAVES,ZR:ZR),,              +3*GHSERZR+225000;,,          N 07Idb !
 PAR  G(RUZR_B2,ZR:ZR),,                +2*GHSERZR+40000;,,           N 07Idb !
$
 FUNCTION GHSERZR   130.00  -7827.595+125.64905*T-24.1618*T*LN(T)
       -0.00437791*T**2+34971*T**(-1);
      2128.00  Y  -26085.921+262.724183*T-42.144*T*LN(T)-1.342896E+31*T**(-9);
      6000.00  N !
 FUNCTION GBCCZR    130.00  -525.539+124.9457*T-25.607406*T*LN(T)
       -3.40084E-04*T**2-9.729E-09*T**3+25233*T**(-1)-7.6143E-11*T**4;
      2128.00  Y  -4620.034+1.55998*T+GHSERZR+1.4103476E+32*T**(-9);
      6000.00  N !
 FUNCTION GOMEZR    130.00  -8878.082+144.432234*T-26.8556*T*LN(T)
       -0.002799446*T**2+38376*T**(-1);
      2128.00  Y  -3414.603+2.566675*T+GHSERZR+8.517346E+31*T**(-9);
      6000.00  N !
 FUNCTION GLIQZR    130.00  +18147.69-9.080812*T+GHSERZR+1.6275E-22*T**7;
      2128.00  Y  -8281.26+253.812609*T-42.144*T*LN(T);
      6000.00  N !
$ ------------------------------------------------------------------------------
$ Binary system
$
$ M. Idbenali, C. Servant, N. Selhaoui, L. Bouirden,
$ J. Phase Equilib. Diffus., 28, 243-49(2007).
$
$ Checked against paper. Checked at 6000 K.
$
$ The phase diagram is only approximately reproduced. There are differences
$ up to almost 100 K for invariant equilibria. Visually, the phase diagram
$ looks fine, though.
$
$ The solubility ranges for C14 and B2 are not reproduced. The interaction
$ Ru,Zr:Ru for these phases makes no sense.
$
$ There is an inverse miscibility gap with a minimum at 4859 K and x(Zr)=0.27.
$
 PAR  L(LIQUID,RU,ZR;0),,               -192961.176+51.5461*T;,,      N 07Idb !
 PAR  L(LIQUID,RU,ZR;1),,               -15154.6422+9.7998*T;,,       N 07Idb !
 PAR  L(LIQUID,RU,ZR;2),,               -1813.2556;,,                 N 07Idb !
$
 PAR  L(BCC_A2,RU,ZR:VA;0),,            -166924.853+54.0292*T;,,      N 07Idb !
$
 PAR  L(HCP_A3,RU,ZR:VA;0),,            -75308.0512+18.0703*T;,,      N 07Idb !
 PAR  L(HCP_A3,RU,ZR:VA;1),,            -16666.7787+23.9292*T;,,      N 07Idb !
$
 PAR  G(C14_LAVES,RU:ZR),,              +2*GHSERRU+GHSERZR
             -96182.9922+10.203*T;,,                                  N 07Idb !
 PAR  G(C14_LAVES,ZR:RU),,              +2*GHSERZR+GHSERRU
             +396182.9922-10.203*T;,,                                 N 07Idb !
$PAR  L(C14_LAVES,RU,ZR:ZR;0),,         -35371.6107;,,                N 07Idb !
 PAR  L(C14_LAVES,RU,ZR:RU;0),,         -35371.6107;,,                N 07Idb !
 PAR  L(C14_LAVES,RU:RU,ZR;0),,         -6972.525+112.0044*T;,,       N 07Idb !
$
 PAR  G(RUZR_B2,RU:ZR),,                +GHSERRU+GHSERZR
             -112299.0154+20.6224*T;,,                                N 07Idb !
 PAR  G(RUZR_B2,ZR:RU),,                +GHSERZR+GHSERRU
             +162299.0154-20.6224*T;,,                                N 07Idb !
$PAR  L(RUZR_B2,RU,ZR:ZR;0),,           -398.2858+21.3578*T;,,        N 07Idb !
 PAR  L(RUZR_B2,RU,ZR:RU;0),,           -398.2858+21.3578*T;,,        N 07Idb !
 PAR  L(RUZR_B2,RU:RU,ZR;0),,           +500000;,,                    N 07Idb !
$
$ Metastable
$
 PAR  L(FCC_A1,RU,ZR:VA;0),,            -75308.0512+18.0703*T;,,      N Same !
 PAR  L(FCC_A1,RU,ZR:VA;1),,            -16666.7787+23.9292*T;,,      N Same !
$ ------------------------------------------------------------------------------
$
 ASSESSED_SYSTEM
  RU-ZR(TDB -* +LIQUID +HCP_A3 +BCC_A2 +RU2ZR_C14 +RUZR_B2 ;P3 TMM:300/3000 *) !
$
$
 LIST-OF-REFERENCE
 NUMBER  SOURCE
  Null   'Unknown source'
  Same   'Same or similar interaction as in the corresponding stable phase'
  91Din  'A.T. Dinsdale, Calphad, 15, 317-425(1991).'
  99SGUN 'SGTE unary database V.4.1, 1999.'
  01SGUN 'SGTE unary database V.4.4, 2001.'
  07Idb  'M. Idbenali, C. Servant, N. Selhaoui, L. Bouirden,
          J. Phase Equilib. Diffus., 28, 243-49(2007); Ru-Zr'
!
