$
$ Database for Ga-Pt from J.S. Wang et al. 2009
$
$ J.S. Wang, S. Jin, W.J. Zhu, H.Q. Dong, X.M. Tao, H.S. Liu, Z.P. Jin,
$ Calphad, 33, 561-69(2009).
$
$ Dataset created 2018.01.10 by Bengt Hallstedt.
$ 2021.01.03: Modified for use with GES6.
$
$ Modified from the 06Li assessment.
$
$ There is an inverse miscibility gap with a minimum at 5022 K and x(Pt)=0.08.
$
$ There is a miscibility gap in the GaPt3 phase at low temperature and GaPt3
$ becomes stable close to Pt also.
$
$ Most invariant equilibria are exactly reproduced, but some equilibria
$ involving Ga2Pt and GaPt2 are shifted by up to 10 K because of rounding
$ errors when converting from fractional to integar compositions.
$
$ ------------------------------------------------------------------------------
 TEMP-LIM 298.15 6000.00 !
$
$ELEMENT NAME  REF. STATE               ATOMIC MASS H298-H0    S298    !
$
 ELEMENT VA   VACUUM                      0.0          0.0      0.0    ! 
 ELEMENT GA   ORTHORHOMBIC_A11           69.72      5572.0     40.7271 ! 
 ELEMENT PT   FCC_A1                    195.08      5723.712   41.6308 !
$ ------------------------------------------------------------------------------
$ Phase definitions
$
 PHASE LIQUID:L % 1 1 !
 CONST LIQUID:L : GA PT : !
$
$ Fcc (cF4, Fm-3m) and MeX (cF8, Fm-3m)
$
 PHASE FCC_A1 %A 2 1 1 !
 CONST FCC_A1 : GA PT% : VA : !
$
$ Bcc (cI2, Im-3m)
$
 PHASE BCC_A2 %B 2 1 3 !
 CONST BCC_A2 : GA PT : VA : !
$
$ Hcp (hP2, P6_3/mmc) and Me2X (NiAs-type, hP4, P6_3/mmc, B8_1)
$
 PHASE HCP_A3 %A 2 1 0.5 !
 CONST HCP_A3 : GA PT : VA : !
$
$ alpha-Ga (oC8, Cmce)
$
 PHASE ORTHORHOMBIC_A11 % 1 1 !
 CONST ORTHORHOMBIC_A11 : GA : !
$
$ unknown structure
$
 PHASE GA6PT % 2 6 1 !
 CONST GA6PT : GA : PT : !
$
$ Prototype Ru3Sn7 (cI40, Im-3m)
$
 PHASE GA7PT3_D8F % 2 7 3 !
 CONST GA7PT3_D8F : GA : PT : !
$
$ Prototype CaF2 (cF12, Fm-3m)
$
 PHASE GA2PT_C1 % 2 2 1 !
 CONST GA2PT_C1 : GA : PT : !
$
$ Prototype Al3Ni2 (hP5, P-3m1)
$
 PHASE GA3PT2_D513 % 2 3 2 !
 CONST GA3PT2_D513 : GA : PT : !
$
$ Prototype FeSi (cP8, P2_13)
$
 PHASE GAPT_B20 % 2 1 1 !
 CONST GAPT_B20 : GA : PT : !
$
$ Prototype Ga3Pt5 (oC16, Cmmm)
$
 PHASE GA3PT5 % 2 3 5 !
 CONST GA3PT5 : GA : PT : !
$
$ Prototype GaPt2 (oP24, Pmma), low T
$ Prototype Pb3Sr (tP4, P4/mmm), high T
$
 PHASE GAPT2 % 2 1 2 !
 CONST GAPT2 : GA : PT : !
$
$ Prototype AuCu3 (cP4, Pm-3m)
$
 PHASE GAPT3_L12 % 2 1 3 !
 CONST GAPT3_L12 : GA% PT : GA PT% : !
$ ------------------------------------------------------------------------------
$ Defaults
$
 DEFINE-SYSTEM-DEFAULT ELEMENT 2 !
 DEFAULT-COM DEFINE_SYSTEM_ELEMENT VA !
 TYPE-DEF % SEQ * !
 TYPE-DEF A GES AMEND_PHASE_DESCRIPTION @ MAGNETIC -3 0.28 !
 TYPE-DEF B GES AMEND_PHASE_DESCRIPTION @ MAGNETIC -1 0.4 !
 FUNCTION ZERO      298.15  0;                                         6000 N !
 FUNCTION UN_ASS    298.15  0;                                         6000 N !
 FUNCTION R         298.15  +8.31451;                                  6000 N !
$ ------------------------------------------------------------------------------
$ Element data
$ ------------------------------------------------------------------------------
$ Ga
$
$ DIAMOND_A4 added in unary 5.0
$
$ Changed name from ORTHORHOMBIC_GA to ORTHORHOMBIC_A11
$
 PAR  G(ORTHORHOMBIC_A11,GA)    200.00  +GHSERGA;                4000 N 91Din !
 PAR  G(FCC_A1,GA:VA)           200.00  +GHSERGA+3800-10.2*T;    4000 N 91Din !
 PAR  G(BCC_A2,GA:VA)           200.00  +GHSERGA+4500-11.7*T;    4000 N 91Din !
 PAR  G(HCP_A3,GA:VA)           200.00  +GHSERGA+4500-9.5*T;     4000 N 91Din !
$PAR  G(DIAMOND_A4,GA)          200.00  +GHSERGA+20900-2*T;      4000 N 09SGUN !
$PAR  G(BCT_A5,GA)              200.00  +GHSERGA+3846-9.8*T;     4000 N 91Din !
$PAR  G(TETRAGONAL_A6,GA)       200.00  +GHSERGA+3500-10*T;      4000 N 91Din !
 PAR  G(LIQUID,GA)              200.00  +GLIQGA;                 4000 N 91Din !
$
 PAR  G(GAPT3_L12,GA:GA),,              +4*GFCCGA+120028;,,           N 09Wan !
$
 FUNCTION GHSERGA   200.00  -21312.331+585.263691*T-108.228783*T*LN(T)
       +0.227155636*T**2-1.18575257E-04*T**3+439954*T**(-1);
       302.91  Y  -7055.643+132.73019*T-26.0692906*T*LN(T)
       +1.506E-04*T**2-4.0173E-08*T**3-118332*T**(-1)+1.64547E+23*T**(-9);
      4000.00  N !
 FUNCTION GLIQGA    200.00  +5491.298-18.073995*T+GHSERGA-7.0171E-17*T**7;
       302.91  Y  +5666.455-18.681147*T+GHSERGA-1.64547E+23*T**(-9);
      4000.00  N !
 FUNCTION GFCCGA    298.15  +GHSERGA+3800-10.2*T;                      6000 N !
$ ------------------------------------------------------------------------------
$ Pt
$
 PAR  G(FCC_A1,PT:VA),,                 +GHSERPT;                4000 N 91Din !
 PAR  G(BCC_A2,PT:VA),,                 +GHSERPT+15000-2.4*T;    4000 N 91Din !
 PAR  G(HCP_A3,PT:VA),,                 +GHSERPT+2500+0.1*T;     4000 N 91Din !
 PAR  G(LIQUID,PT),,                    +GLIQPT;                 4000 N 91Din !
$
 PAR  G(GAPT3_L12,PT:PT),,              +4*GHSERPT+7200;,,            N 09Wan !
$
 FUNCTION GHSERPT   298.15  -7595.631+124.388275*T-24.5526*T*LN(T)
       -0.00248297*T**2-2.0138E-08*T**3+7974*T**(-1);
      1300.00  Y  -9253.174+161.529615*T-30.2527*T*LN(T)
       +0.002321665*T**2-6.56946E-07*T**3-272106*T**(-1);
      2041.50  Y  -222048.216+1019.35892*T-136.192996*T*LN(T)
       +0.020454938*T**2-7.59259E-07*T**3+71539020*T**(-1);
      4000.00  N !
 FUNCTION GLIQPT    298.15  +20114.016-9.275183*T+GHSERPT;
       600.00  Y  +19023.491+32.94182*T-12.3403769*T*LN(T)
       -0.011551507*T**2+9.31516E-07*T**3-601426*T**(-1);
      2041.50  Y  +1404.468+205.858962*T-36.5*T*LN(T);
      4000.00  N !
 FUNCTION GBCCPT    298.15  +GHSERPT+15000-2.4*T;                      6000 N !
$ ------------------------------------------------------------------------------
$ Binary system
$
$ J.S. Wang, S. Jin, W.J. Zhu, H.Q. Dong, X.M. Tao, H.S. Liu, Z.P. Jin,
$ Calphad, 33, 561-69(2009).
$
$ Checked against paper. Checked at 6000 K.
$
$ Modified from the 06Li assessment.
$
$ There is an inverse miscibility gap with a minimum at 5022 K and x(Pt)=0.08.
$
$ There is a miscibility gap in the GaPt3 phase at low temperature and GaPt3
$ becomes stable close to Pt also.
$
$ Most invariant equilibria are exactly reproduced, but some equilibria
$ involving Ga2Pt and GaPt2 are shifted by up to 10 K because of rounding
$ errors when converting from fractional to integar compositions.
$
 PAR  L(LIQUID,GA,PT;0),,               -250202.3+33.387*T;,,         N 06Li !
 PAR  L(LIQUID,GA,PT;1),,               +20000-T;,,                   N 09Wan !
 PAR  L(LIQUID,GA,PT;2),,               +60000-6.5*T;,,               N 09Wan !
 PAR  L(LIQUID,GA,PT;3),,               -30000+20*T;,,                N 09Wan !
$
 PAR  L(FCC_A1,GA,PT:VA;0),,            -189097+8.8*T;,,              N 06Li !
 PAR  L(FCC_A1,GA,PT:VA;1),,            -2000+0.084*T;,,              N 09Wan !
$
 PAR  G(GA6PT,GA:PT),,                  +6*GHSERGA+GHSERPT
             -216856.5+15.022*T;,,                                    N 09Wan !
 PAR  G(GA7PT3_D8F,GA:PT),,             +7*GHSERGA+3*GHSERPT
             -592262+37.32*T;,,                                       N 09Wan !
 PAR  G(GA2PT_C1,GA:PT),,               +2*GHSERGA+GHSERPT
             -181360.8+4.647*T;,,                                     N 09Wan !
 PAR  G(GA3PT2_D513,GA:PT),,            +3*GHSERGA+2*GHSERPT
             -325446+10.84*T;,,                                       N 09Wan !
 PAR  G(GAPT_B20,GA:PT),,               +GHSERGA+GHSERPT
             -136237.8+3.988*T;,,                                     N 09Wan !
 PAR  G(GA3PT5,GA:PT),,                 +3*GHSERGA+5*GHSERPT
             -493497.6+14.304*T;,,                                    N 09Wan !
 PAR  G(GAPT2,GA:PT),,                  +GHSERGA+2*GHSERPT
             -174300.6+5.592*T;,,                                     N 09Wan !
$
 PAR  G(GAPT3_L12,GA:PT),,              +GFCCGA+3*GHSERPT
             -187564.8+7.92*T;,,                                      N 09Wan !
 PAR  G(GAPT3_L12,PT:GA),,              +GHSERPT+3*GFCCGA
             +80006+24.004*T;,,                                       N 09Wan !
 PAR  L(GAPT3_L12,GA,PT:GA;0),,         +5998.8+7.996*T;,,            N 09Wan !
 PAR  L(GAPT3_L12,GA,PT:PT;0),,         +5998.8+7.996*T;,,            N 09Wan !
 PAR  L(GAPT3_L12,GA:GA,PT;0),,         -832000+228*T;,,              N 09Wan !
 PAR  L(GAPT3_L12,PT:GA,PT;0),,         -832000+228*T;,,              N 09Wan !
$
$ Metastable
$
 PAR  L(BCC_A2,GA,PT:VA;0),,            -189097+8.8*T;,,              N Same !
 PAR  L(BCC_A2,GA,PT:VA;1),,            -2000+0.084*T;,,              N Same !
$
 PAR  L(HCP_A3,GA,PT:VA;0),,            -189097+8.8*T;,,              N Same !
 PAR  L(HCP_A3,GA,PT:VA;1),,            -2000+0.084*T;,,              N Same !
$ ------------------------------------------------------------------------------
$
$
 LIST-OF-REFERENCE
 NUMBER  SOURCE
  Null   'Unknown source'
  Same   'Same or similar interaction as in the corresponding stable phase'
  91Din  'A.T. Dinsdale, Calphad, 15, 317-425(1991).'
  09SGUN 'SGTE unary database V.5.0, 2009.'
  06Li   'M. Li, C. Li, F. Wang, W. Zhang,
          Intermetallics, 14, 826-31(2006); Ga-Pt'
  09Wan  'J.S. Wang, S. Jin, W.J. Zhu, H.Q. Dong, X.M. Tao, H.S. Liu, Z.P. Jin,
          Calphad, 33, 561-69(2009); Ga-Pt'
!
