$
$ Database for Nb-N from B. Hallstedt and D. Djurovic 2009
$
$ B. Hallstedt, D. Djurovic, Calphad, 33, 233-36(2009).
$
$ Dataset created 2010.02.14 by Bengt Hallstedt.
$ 2021.01.31: Modified for use with GES6.
$
$ The dataset uses a non-standard 1:1 bcc model to avoid stable N-rich bcc.
$
$ ------------------------------------------------------------------------------
 TEMP-LIM 298.15 6000.00 !
$
$ELEMENT NAME  REF. STATE               ATOMIC MASS H298-H0    S298    !
$
 ELEMENT VA   VACUUM                      0.0          0.0      0.0    ! 
 ELEMENT N    1/2_MOLE_N2(G)             14.007     4335.0     95.751  ! 
 ELEMENT NB   BCC_A2                     92.9064    5220.0     36.27   ! 
$ ------------------------------------------------------------------------------
$ Species
$
 SPECIE  N2                                 N2 !
$ ------------------------------------------------------------------------------
$ Phase definitions
$
 PHASE LIQUID:L % 1 1 !
 CONST LIQUID:L : N NB : !
$
$ Fcc (cF4, Fm-3m) and MeX (cF8, Fm-3m)
$
 PHASE FCC_A1 %A 2 1 1 !
 CONST FCC_A1 : NB : N VA% : !
$
$ Bcc (cI2, Im-3m)
$ Note! not standard bcc model
$
 PHASE BCC_A2 %B 2 1 1 !
 CONST BCC_A2 : NB% : N VA% : !
$
$ Hcp (hP2, P6_3/mmc) and Me2X (NiAs-type, hP4, P6_3/mmc, B8_1)
$
 PHASE HCP_A3 %A 2 1 0.5 !
 CONST HCP_A3 : NB : N VA% : !
$
 PHASE N2GAS % 1 1 !
 CONST N2GAS : N2 : !
$ ------------------------------------------------------------------------------
$ Defaults
$
 DEFINE-SYSTEM-DEFAULT ELEMENT 2 !
 DEFAULT-COM DEFINE_SYSTEM_ELEMENT VA !
 TYPE-DEF % SEQ * !
 TYPE-DEF A GES AMEND_PHASE_DESCRIPTION @ MAGNETIC -3 0.28 !
 TYPE-DEF B GES AMEND_PHASE_DESCRIPTION @ MAGNETIC -1 0.4 !
 FUNCTION ZERO      298.15  0;                                         6000 N !
 FUNCTION UN_ASS    298.15  0;                                         6000 N !
 FUNCTION R         298.15  +8.31451;                                  6000 N !
 FUNCTION RTLNP     298.15  +8.31451*T*LN(1E-05*P);                    6000 N !
$ ------------------------------------------------------------------------------
$ Element data
$ ------------------------------------------------------------------------------
$ N
$
 PAR  G(N2GAS,N2),,                     +2*GHSERNN+RTLNP;,,           N 91Din !
 PAR  G(LIQUID,N),,                     +GHSERNN+29950+59.02*T;,,     N 91Din !
$
 FUNCTION GHSERNN   298.15  -3750.675-9.45425*T-12.7819*T*LN(T)
       -0.00176686*T**2+2.681E-09*T**3-32374*T**(-1);
       950.00  Y  -7358.85+17.2003*T-16.3699*T*LN(T)
       -6.5107E-04*T**2+3.0097E-08*T**3+563070*T**(-1);
      3350.00  Y  -16392.8+50.26*T-20.4695*T*LN(T)
       +2.39754E-04*T**2-8.333E-09*T**3+4596375*T**(-1);
      6000.00  N !
$ ------------------------------------------------------------------------------
$ Nb
$
 PAR  G(BCC_A2,NB:VA),,                 +GHSERNB;,,                   N 91Din !
 PAR  G(FCC_A1,NB:VA),,                 +GHSERNB+13500+1.7*T;,,       N 91Din !
 PAR  G(HCP_A3,NB:VA),,                 +GHSERNB+10000+2.4*T;,,       N 91Din !
 PAR  G(LIQUID,NB),,                    +GLIQNB;,,                    N 91Din !
$
 FUNCTION GHSERNB   298.15  -8519.353+142.045475*T-26.4711*T*LN(T)
       +2.03475E-04*T**2-3.5012E-07*T**3+93399*T**(-1);
      2750.00  Y  -37669.3+271.720843*T-41.77*T*LN(T)+1.528238E+32*T**(-9);
      6000.00  N !
 FUNCTION GLIQNB    298.15  +29781.555-10.816418*T+GHSERNB-3.06098E-23*T**7;
      2750.00  Y  -7499.398+260.756148*T-41.77*T*LN(T);
      6000.00  N !
$ ------------------------------------------------------------------------------
$ Binary system
$
$ B. Hallstedt, D. Djurovic, Calphad, 33, 233-36(2009).
$
$ Checked against paper. Checked at 6000 K.
$
$ The dataset uses a non-standard 1:1 bcc model to avoid stable N-rich bcc.
$
 PAR  L(LIQUID,N,NB;0),,                -292101;,,                    N 96Hua !
 PAR  L(LIQUID,N,NB;1),,                -105406;,,                    N 96Hua !
$
 PAR  G(FCC_A1,NB:N),,                  +GHSERNB+GHSERNN
             -227779+120.567*T-4*T*LN(T);,,                           N 96Hua !
 PAR  L(FCC_A1,NB:N,VA;0),,             -65218;,,                     N 96Hua !
$
 PAR  G(BCC_A2,NB:N),,                  +GHSERNB+GHSERNN
             -223000+120*T-4*T*LN(T);,,                               N 09Hal !
 PAR  L(BCC_A2,NB:N,VA;0),,             +31100-16.8*T;,,              N 09Hal !
$
 PAR  G(HCP_A3,NB:N),,                  +GHSERNB+0.5*GHSERNN
             -135568+59.295*T-2*T*LN(T);,,                            N 96Hua !
 PAR  L(HCP_A3,NB:N,VA;0),,             +ZERO;,,                      N 96Hua !
$ ------------------------------------------------------------------------------
$
 ASSESSED_SYSTEM
  N-NB(TDB -* +LIQUID +GAS +BCC_A2 +FCC_A1 +HCP_A3
  ;P3 TMM:300/4000 STP:.4/3000/1/-1) !
$
$
 LIST-OF-REFERENCE
 NUMBER  SOURCE
  Null   'Unknown source'
  Same   'Same or similar interaction as in the corresponding stable phase'
  REFLAV 'Laves phase convention: G(LAVES,X:X)=+3*GHSERXX+15000'
  COST   'COST 507 database'
  91Din  'A.T. Dinsdale, Calphad, 15, 317-425(1991).'
  96Hua  'W. Huang, Metall. Mater. Trans. A, 27A, 3591-3600(1996); Nb-N'
  09Hal  'B. Hallstedt, D. Djurovic, Calphad, 33, 233-36(2009); Nb-N'
!
