$
$ Database for Bi-Rh from O. Zobac and A. Kroupa 2020.
$
$ O. Zobac, A. Kroupa, J. Phase Equilib. Diffus., 41, 900-906(2020).
$
$ Dataset created 2021.04.18 by Bengt Hallstedt.
$ 2023.02.24: Unary Bi changed from V4.4 to V5.0.
$
$ The liquid interaction is very asymmetric.
$
$ Bi solubility in fcc-Rh was not modelled. A positive interaction was set
$ to have a small solubility.
$
$ ------------------------------------------------------------------------------
 TEMP-LIM 298.15 6000.00 !
$
$ELEMENT NAME  REF. STATE               ATOMIC MASS H298-H0    S298    !
$
 ELEMENT VA   VACUUM                      0.0          0.0      0.0    ! 
 ELEMENT BI   RHOMBOHEDRAL_A7           208.98      6426.6     56.735  !
 ELEMENT RH   FCC_A1                    102.9055    4920.384   31.5557 ! 
$ ------------------------------------------------------------------------------
$ Phase definitions
$
 PHASE LIQUID:L % 1 1 !
 CONST LIQUID:L : BI RH : !
$
$ Fcc (cF4, Fm-3m) and MeX (cF8, Fm-3m)
$
 PHASE FCC_A1 %A 2 1 1 !
 CONST FCC_A1 : BI RH% : VA : !
$
$ Bcc (cI2, Im-3m)
$
 PHASE BCC_A2 %B 2 1 3 !
 CONST BCC_A2 : BI RH : VA : !
$
$ Hcp (hP2, P6_3/mmc) and Me2X (NiAs-type, hP4, P6_3/mmc, B8_1)
$
 PHASE HCP_A3 %A 2 1 0.5 !
 CONST HCP_A3 : BI RH : VA: !
$
$ Prototype alpha-As (hR2, R-3m)
$
 PHASE RHOMBOHEDRAL_A7 % 1 1 !
 CONST RHOMBOHEDRAL_A7 : BI : !
$
$ Prototype Bi4Rh (cI120, Ia-3d)
$
 PHASE BI4RH % 2 4 1 !
 CONST BI4RH : BI : RH : !
$
$ Prototype CoSb2 (mP12, P2_1/c)
$
 PHASE BI2RH_LT % 2 2 1 !
 CONST BI2RH_LT : BI : RH : !
$
$ Prototype Bi2Rh-ht (aP12, P-1)
$
 PHASE BI2RH_HT % 2 2 1 !
 CONST BI2RH_HT : BI : RH : !
$
$ Prototype MnP (oP8, Pnma)
$
 PHASE BI55RH45_B31 % 2 0.55 0.45 !
 CONST BI55RH45_B31 : BI : RH : !
$
$ Prototype NiAs (hP4, P6_3/mmc)
$
 PHASE BIRH_B81 % 2 1 1 !
 CONST BIRH_B81 : BI : BI RH% : !
$ ------------------------------------------------------------------------------
$ Defaults
$
 DEFINE-SYSTEM-DEFAULT ELEMENT 2 !
 DEFAULT-COM DEFINE_SYSTEM_ELEMENT VA !
 TYPE-DEF % SEQ * !
 TYPE-DEF A GES AMEND_PHASE_DESCRIPTION @ MAGNETIC -3 0.28 !
 TYPE-DEF B GES AMEND_PHASE_DESCRIPTION @ MAGNETIC -1 0.4 !
 FUNCTION ZERO      298.15  0;                                         6000 N !
 FUNCTION UN_ASS    298.15  0;                                         6000 N !
 FUNCTION R         298.15  +8.31451;                                  6000 N !
$ ------------------------------------------------------------------------------
$ Element data
$ ------------------------------------------------------------------------------
$ Bi
$
$ RHOMBOHEDRAL_A7 and LIQUID modified in unary 5.0
$ DIAMOND_A4 added in unary 5.0
$
$ DHCP is not included in unary
$
 PAR  G(RHOMBOHEDRAL_A7,BI),,           +GHSERBI;                3000 N 09SGUN !
 PAR  G(FCC_A1,BI:VA),,                 +GHSERBI+9900-12.5*T;    3000 N 91Din !
 PAR  G(BCC_A2,BI:VA),,                 +GHSERBI+11297-13.9*T;   3000 N 91Din !
 PAR  G(HCP_A3,BI:VA),,                 +GHSERBI+9900-11.8*T;    3000 N 91Din !
$PAR  G(DHCP,BI:VA),,                   +GHSERBI+5000;           3000 N 10Wan !
$PAR  G(DIAMOND_A4,BI),,                +GHSERBI
$            +11296.8+9.253655*T;                                3000 N 88Che2 !
$PAR  G(BCT_A5,BI),,                    +GHSERBI+4184.07;        3000 N 91Din !
$PAR  G(TETRAGONAL_A6,BI),,             +GHSERBI+4184.07;        3000 N 91Din !
$PAR  G(TET_ALPHA1,BI),,                +GHSERBI+4234;           3000 N 91Din !
 PAR  G(LIQUID,BI),,                    +GLIQBI;                 3000 N 09SGUN ! 
$
 PAR  G(BIRH_B81,BI:BI),,               +2*GHSERBI+3000;,,            N 20Zob !
$
 FUNCTION GHSERBI   298.15  -7817.776+128.418925*T-28.4096529*T*LN(T)
       +0.012338888*T**2-8.381598E-6*T**3;
       544.55  Y  +29293.369-379.605174*T+49.678*T*LN(T)
       -0.0730245*T**2+1.3052833E-5*T**3-3544705*T**(-1)+1.66309E+25*T**(-9);
       800.00  Y  -11085.609+182.955328*T-36.041*T*LN(T)
       +7.4641E-3*T**2-1.05047E-6*T**3+5175*T**(-1)+1.66309E+25*T**(-9);
      1200.00  Y  -7580.864+124.770814*T-27.196*T*LN(T)+1.66309E+25*T**(-9);
      3000.00  N !
 FUNCTION GLIQBI    298.15  +11246.017-20.636399*T+GHSERBI-5.9608E-19*T**7;
       544.55  Y  +40629.667-400.415652*T+49.678*T*LN(T)
       -0.0730245*T**2+1.3052833E-5*T**3-3544705*T**(-1);
       800.00  Y  +250.689+162.14485*T-36.041*T*LN(T)
       +0.0074641*T**2-1.05047E-6*T**3+5175*T**(-1);
      1200.00  Y  +3755.434+103.960336*T-27.196*T*LN(T);
      3000.00 N !
 FUNCTION GHCPBI    298.15  +GHSERBI+9900-11.8*T;                      3000 N !
$ ------------------------------------------------------------------------------
$ Rh
$
 PAR  G(FCC_A1,RH:VA),,                 +GHSERRH;                2500 N 91Din !
 PAR  G(BCC_A2,RH:VA),,                 +GHSERRH+19000-4.7*T;    2500 N 91Din !
 PAR  G(HCP_A3,RH:VA),,                 +GHSERRH+3000-0.5*T;     2500 N 91Din !
 PAR  G(LIQUID,RH),,                    +GLIQRH;                 2500 N 91Din !
$
 FUNCTION GHSERRH   298.15  -7848.828+132.020923*T-24.0178336*T*LN(T)
       -0.003424186*T**2-1.68032E-07*T**3+55846*T**(-1);
      1200.00  Y  -28367.852+305.771019*T-48.3766632*T*LN(T)
       +0.00966345*T**2-1.512774E-06*T**3+3348162*T**(-1);
      2237.00  Y  -6237470.48+30151.6342*T-3874.21058*T*LN(T)
       +1.04921361*T**2-5.3978814E-05*T**3+1.88036218E+09*T**(-1);
      2450.00  Y  -44863.489+344.889895*T-50.58456*T*LN(T);
      2500.00  N !
 FUNCTION GLIQRH    298.15  +19092.91-6.92133*T+GHSERRH;
       700.00  Y  +35898.508-147.926418*T+15.6492377*T*LN(T)
       -0.028665357*T**2+2.100572E-06*T**3-2638940*T**(-1);
      2237.00  Y  -18208.54+332.974832*T-50.58456*T*LN(T);
      2500.00  N !
$ ------------------------------------------------------------------------------
$ Binary system
$
$ O. Zobac, A. Kroupa, J. Phase Equilib. Diffus., 41, 900-906(2020).
$
$ Checked against paper. Checked at 6000 K.
$
$ The liquid interaction is very asymmetric.
$
$ Bi solubility in fcc-Rh was not modelled. A positive interaction was set
$ to have a small solubility.
$
 PAR  L(LIQUID,BI,RH;0),,               -19000-24.1*T;,,              N 20Zob !
 PAR  L(LIQUID,BI,RH;1),,               -80000+25*T;,,                N 20Zob !
 PAR  L(LIQUID,BI,RH;2),,               +48000-22*T;,,                N 20Zob !
$
 PAR  L(FCC_A1,BI,RH:VA;0),,            +10000;,,                     N !
$
 PAR  G(BI4RH,BI:RH),,                  +4*GHSERBI+GHSERRH
             -48500-28*T;,,                                           N 20Zob !
 PAR  G(BI2RH_LT,BI:RH),,               +2*GHSERBI+GHSERRH
             -53400-1.65*T;,,                                         N 20Zob !
 PAR  G(BI2RH_HT,BI:RH),,               +2*GHSERBI+GHSERRH
             -30600-34.08*T;,,                                        N 20Zob !
 PAR  G(BI55RH45_B31,BI:RH),,           +0.55*GHSERBI+0.45*GHSERRH
             -18950-1.14*T;,,                                         N 20Zob !
$
 PAR  G(BIRH_B81,BI:RH),,               +GHSERBI+GHSERRH
             -34400-7.4*T;,,                                          N 20Zob !
 PAR  L(BIRH_B81,BI:BI,RH;0),,          +10000-40*T;,,                N 20Zob !
$ ------------------------------------------------------------------------------
$
$
 LIST-OF-REFERENCE
 NUMBER  SOURCE
  Null   'Unknown source'
  Same   'Same or similar interaction as in the corresponding stable phase'
  COST   'COST 507 database'
  88Che2 'P.-Y. Chevalier, Thermochim. Acta, 132, 111-16(1988),
          SGTE unary database V.5.0, 2009; Bi' 
  91Din  'A.T. Dinsdale, Calphad, 15, 317-425(1991).'
  09SGUN 'SGTE unary database V.5.0, 2009.'
  10Wan  'C.P. Wang, H.L. Zhang, A.T. Tang, F.S. Pan, X.J. Liu,
          J. Alloys Compd., 502, 43-48(2010); Bi, Nd'
  20Zob  'O. Zobac, A. Kroupa,
          J. Phase Equilib. Diffus., 41, 900-906(2020); Bi-Rh'
!
