$
$ Database for Ge-Ta from A.A.A. Pinto da Silva et al. 2024.
$
$ A.A.A. Pinto da Silva, P.P. Ferreira, T.T. Dorini, G.C. Coelho, C.A. Nunes,
$ L.T.F. Eleno, Calphad, 84, 102669(2024).
$
$ Dataset created 2024.07.28 by Bengt Hallstedt.
$
$ The supplemental tdb includes an undocumented change of pure Ta. The melting
$ temperature is changed from 3290 K to 3265 K. In this dataset the original
$ SGTE data are used. This results in an increase of the invariant temperatures
$ by up to 17 K compared to the table of invariants in the paper.
$
$ ------------------------------------------------------------------------------
 TEMP-LIM 298.15 6000.00 !
$
$ELEMENT NAME  REF. STATE               ATOMIC MASS H298-H0    S298    !
$
 ELEMENT VA   VACUUM                      0.0          0.0      0.0    ! 
 ELEMENT GE   DIAMOND_A4                 72.59      4636.0     31.09   ! 
 ELEMENT TA   BCC_A2                    180.9479    5681.872   41.4718 ! 
$ ------------------------------------------------------------------------------
$ Phase definitions
$
 PHASE LIQUID:L % 1 1 !
 CONST LIQUID:L : GE TA : !
$
$ Fcc (cF4, Fm-3m) and MeX (cF8, Fm-3m)
$
 PHASE FCC_A1 %A 2 1 1 !
 CONST FCC_A1 : GE TA : VA : !
$
$ Bcc (cI2, Im-3m)
$
 PHASE BCC_A2 %B 2 1 3 !
 CONST BCC_A2 : GE TA% : VA : !
$
$ Hcp (hP2, P6_3/mmc) and Me2X (NiAs-type, hP4, P6_3/mmc, B8_1)
$
 PHASE HCP_A3 %A 2 1 0.5 !
 CONST HCP_A3 : GE TA : VA : !
$
$ Prototype C (cF8, Fd-3m)
$
 PHASE DIAMOND_A4 % 1 1 !
 CONST DIAMOND_A4 : GE% TA : !
$
$ Prototype CrSi2 (hP9, P6_222)
$
 PHASE GE2TA_C40 % 2 2 1 !
 CONST GE2TA_C40 : GE : TA : !
$
$ Prototype Si3W5 (tI32, I4/mcm)
$
 PHASE GE3TA5_D8M % 2 3 5 !
 CONST GE3TA5_D8M : GE : TA : !
$
$ Prototype Ti3P (tP32, P4_2/n)
$
 PHASE GETA3_ALPHA % 2 1 3 !
 CONST GETA3_ALPHA : GE : TA : !
$
$ Prototype Ni3P (tI32, I-4)
$
 PHASE GETA3_D0E % 2 1 3 !
 CONST GETA3_D0E : GE : TA : !
$ ------------------------------------------------------------------------------
$ Defaults
$
 DEFINE-SYSTEM-DEFAULT ELEMENT 2 !
 DEFAULT-COM DEFINE_SYSTEM_ELEMENT VA !
 TYPE-DEF % SEQ * !
 TYPE-DEF A GES AMEND_PHASE_DESCRIPTION @ MAGNETIC -3 0.28 !
 TYPE-DEF B GES AMEND_PHASE_DESCRIPTION @ MAGNETIC -1 0.4 !
 FUNCTION ZERO      298.15  0;                                         6000 N !
 FUNCTION UN_ASS    298.15  0;                                         6000 N !
 FUNCTION R         298.15  +8.31451;                                  6000 N !
$ ------------------------------------------------------------------------------
$ Element data
$ ------------------------------------------------------------------------------
$ Ge
$
$ BCT_A5 and RHOMBOHEDRAL_A7 added in unary 4.1
$
 PAR  G(DIAMOND_A4,GE),,                +GHSERGE;                3200 N 91Din !
 PAR  G(FCC_A1,GE:VA),,                 +GHSERGE+36000-22.3*T;   3200 N 91Din !
 PAR  G(BCC_A2,GE:VA),,                 +GHSERGE+34100-23.5*T;   3200 N 91Din !
 PAR  G(HCP_A3,GE:VA),,                 +GHSERGE+35000-21.5*T;   3200 N 91Din !
$PAR  G(BCT_A5,GE),,                    +GHSERGE+28800-16.5*T;   3600 N 99SGUN !
$PAR  G(RHOMBOHEDRAL_A7,GE),,           +GHSERGE+29800-16.5*T;   3600 N 99SGUN !
 PAR  G(LIQUID,GE),,                    +GLIQGE;                 3200 N 91Din !
$
 FUNCTION GHSERGE   298.15  -9486.153+165.635573*T-29.5337682*T*LN(T)
       +0.005568297*T**2-1.513694E-06*T**3+163298*T**(-1);
       900.00  Y  -5689.239+102.86087*T-19.8536239*T*LN(T)-0.003672527*T**2;
      1211.40  Y  -9548.204+156.708024*T-27.6144*T*LN(T)-8.59809E+28*T**(-9);
      3200.00  N !
 FUNCTION GLIQGE    298.15  +37141.49-30.687043*T+GHSERGE+8.56632E-21*T**7;
       900.00  Y  +37141.489-30.687044*T+GHSERGE+8.56632E-21*T**7;
      1211.40  Y  +27243.473+126.324186*T-27.6144*T*LN(T);
      3200.00  N !
$ ------------------------------------------------------------------------------
$ Ta
$
$ DIAMOND_A4 from 24Pin not included in unary
$
 PAR  G(BCC_A2,TA:VA),,                 +GHSERTA;,,                   N 91Din !
 PAR  G(FCC_A1,TA:VA),,                 +GHSERTA+16000+1.7*T;,,       N 91Din !
 PAR  G(HCP_A3,TA:VA),,                 +GHSERTA+12000+2.4*T;,,       N 91Din !
 PAR  G(DIAMOND_A4,TA),,                +GHSERTA+3000;,,              N 24Pin !
 PAR  G(LIQUID,TA),,                    +GLIQTA;,,                    N 91Din !
$
 FUNCTION GHSERTA   298.15  -7285.889+119.139857*T-23.7592624*T*LN(T)
       -0.002623033*T**2+1.70109E-07*T**3-3293*T**(-1);
      1300.00  Y  -22389.955+243.88676*T-41.137088*T*LN(T)
       +0.006167572*T**2-6.55136E-07*T**3+2429586*T**(-1);
      2500.00  Y  +229382.886-722.59722*T+78.5244752*T*LN(T)
       -0.017983376*T**2+1.95033E-07*T**3-93813648*T**(-1);
      3290.00  Y  -1042384.01+2985.49125*T-362.159132*T*LN(T)
       +0.043117795*T**2-1.055148E-06*T**3+5.54714342E+08*T**(-1);
      6000.00  N !
 FUNCTION GLIQTA    298.15  +29160.975-7.578729*T+GHSERTA;
      1000.00  Y  +43884.339-61.981795*T+0.0279523*T*LN(T)
       -0.012330066*T**2+6.14599E-07*T**3-3523338*T**(-1);
      3290.00  Y  -6314.543+258.110873*T-41.84*T*LN(T);
      6000.00  N !
$ ------------------------------------------------------------------------------
$ Binary system
$
$ A.A.A. Pinto da Silva, P.P. Ferreira, T.T. Dorini, G.C. Coelho, C.A. Nunes,
$ L.T.F. Eleno, Calphad, 84, 102669(2024).
$
$ Checked against paper and author's tdb. Checked at 6000 K.
$
$ The supplemental tdb includes an undocumented change of pure Ta. The melting
$ temperature is changed from 3290 K to 3265 K. In this dataset the original
$ SGTE data are used. This results in an increase of the invariant temperatures
$ by up to 17 K compared to the table of invariants in the paper.
$
 PAR  L(LIQUID,GE,TA;0),,               -80639.5+1.3224*T;,,          N 24Pin !
 PAR  L(LIQUID,GE,TA;1),,               +ZERO;,,                      N 24Pin !
 PAR  L(LIQUID,GE,TA;2),,               -9642.1+1.1023*T;,,           N 24Pin !
$
 PAR  L(BCC_A2,GE,TA:VA;0),,            -142978.3+28.8951*T;,,        N 24Pin !
 PAR  L(BCC_A2,GE,TA:VA;1),,            -3453.9;,,                    N 24Pin !
$
 PAR  L(DIAMOND_A4,GE,TA;0),,           +43000.8-59.8599*T;,,         N 24Pin !
 PAR  L(DIAMOND_A4,GE,TA;1),,           -12708.6;,,                   N 24Pin !
$
 PAR  G(GE2TA_C40,GE:TA),,              +2*GHSERGE+GHSERTA
             -62370-33.9249*T;,,                                      N 24Pin !
 PAR  G(GE3TA5_D8M,GE:TA),,             +3*GHSERGE+5*GHSERTA
             -277760-40.9576*T;,,                                     N 24Pin !
 PAR  G(GETA3_ALPHA,GE:TA),,            +GHSERGE+3*GHSERTA
             -108040-11.1292*T;,,                                     N 24Pin !
 PAR  G(GETA3_D0E,GE:TA),,              +GHSERGE+3*GHSERTA
             -101880-14.508*T;,,                                      N 24Pin !
$
$ metastable
$
 PAR  L(FCC_A1,GE,TA:VA;0),,            -142978.3+28.8951*T;,,        N Same !
 PAR  L(FCC_A1,GE,TA:VA;1),,            -3453.9;,,                    N Same !
$
 PAR  L(HCP_A3,GE,TA:VA;0),,            -142978.3+28.8951*T;,,        N Same !
 PAR  L(HCP_A3,GE,TA:VA;1),,            -3453.9;,,                    N Same !
$ ------------------------------------------------------------------------------
$
$
 LIST-OF-REFERENCE
 NUMBER  SOURCE
  Null   'Unknown source'
  Same   'Same or similar interaction as in the corresponding stable phase'
  REFLAV 'Laves phase convention: G(LAVES,X:X)=+3*GHSERXX+15000'
  COST   'COST 507 database'
  91Din  'A.T. Dinsdale, Calphad, 15, 317-425(1991).'
  99SGUN 'SGTE unary database V.4.1, 1999.'
  24Pin  'A.A.A. Pinto da Silva, P.P. Ferreira, T.T. Dorini, G.C. Coelho,
          C.A. Nunes, L.T.F. Eleno, Calphad, 84, 102669(2024); Ta, Ge-Ta'
!
