$
$ Database for Mn-V from W. Huang 1991 (Included in LB Vol. 4)
$
$ W. Huang, Calphad, 15, 195-208(1991).
$
$ Dataset created 2010.07.01 by Bengt Hallstedt.
$ 2020.05.12: Modified for use with GES6.
$ 2024.09.25: Corrected G(SIGMA_D8B,V:V:MN) to be the same as in LB.
$
$ W. Huang used the 8:4:18 model for the sigma phase (SIGMA_OLD). This was
$ changed to 10:4:16 (SIGMA_D8B) for LB. The change of model only slightly
$ changes the V-rich side of the sigma phase field.
$
$ ------------------------------------------------------------------------------
 TEMP-LIM 298.15 6000.00 !
$
$ELEMENT NAME  REF. STATE               ATOMIC MASS H298-H0    S298    !
$
 ELEMENT VA   VACUUM                      0.0          0.0      0.0    ! 
 ELEMENT MN   CBCC_A12                   54.9380    4995.696   32.2206 ! 
 ELEMENT V    BCC_A2                     50.9415    4507.0     30.89   ! 
$ ------------------------------------------------------------------------------
$ Phase definitions
$
 PHASE LIQUID:L % 1 1 !
 CONST LIQUID:L : MN V : !
$
$ Fcc (cF4, Fm-3m) and MeX (cF8, Fm-3m)
$
 PHASE FCC_A1 %A 2 1 1 !
 CONST FCC_A1 : MN% V : VA : !
$
$ Bcc (cI2, Im-3m)
$
 PHASE BCC_A2 %B 2 1 3 !
 CONST BCC_A2 : MN% V% : VA : !
$
$ Hcp (hP2, P6_3/mmc) and Me2X (NiAs-type, hP4, P6_3/mmc, B8_1)
$
 PHASE HCP_A3 %A 2 1 0.5 !
 CONST HCP_A3 : MN V : VA : !
$
$ Prototype alpha-Mn (cI58, I-43m)
$
 PHASE CBCC_A12 %A 2 1 1 !
 CONST CBCC_A12 : MN% V : VA : !
$
$ Prototype beta-Mn (cP20, P4_132)
$
 PHASE CUB_A13 % 2 1 1 !
 CONST CUB_A13 : MN% V : VA : !
$
$ Prototype CrFe (tP30, P4_2/mnm)
$
 PHASE SIGMA_D8B % 3 10 4 16 !
 CONST SIGMA_D8B : MN V : V : MN V : !
$
$ Sigma in TCFE 2000 and SSOL V4
$
 PHASE SIGMA_OLD % 3 8 4 18 !
 CONST SIGMA_OLD : MN : V : MN V : !
$ ------------------------------------------------------------------------------
$ Defaults
$
 DEFINE-SYSTEM-DEFAULT ELEMENT 2 !
 DEFAULT-COM DEFINE_SYSTEM_ELEMENT VA !
 DEFAULT-COM REJECT_PHASE SIGMA_OLD !
 TYPE-DEF % SEQ * !
 TYPE-DEF A GES AMEND_PHASE_DESCRIPTION @ MAGNETIC -3 0.28 !
 TYPE-DEF B GES AMEND_PHASE_DESCRIPTION @ MAGNETIC -1 0.4 !
 FUNCTION ZERO      298.15  0;                                         6000 N !
 FUNCTION UN_ASS    298.15  0;                                         6000 N !
 FUNCTION R         298.15  +8.31451;                                  6000 N !
$ ------------------------------------------------------------------------------
$ Element data
$ ------------------------------------------------------------------------------
$ Mn
$
 PAR  G(CBCC_A12,MN:VA),,               +GHSERMN;                2000 N 91Din !
 PAR  TC(CBCC_A12,MN:VA),,               -285.00;                2000 N 91Din !
 PAR  BM(CBCC_A12,MN:VA),,                 -0.66;                2000 N 91Din !
 PAR  G(CUB_A13,MN:VA),,                +GCUBMN;                 2000 N 91Din !
 PAR  G(FCC_A1,MN:VA),,                 +GFCCMN;                 2000 N 91Din !
 PAR  TC(FCC_A1,MN:VA),,                -1620.00;                2000 N 91Din !
 PAR  BM(FCC_A1,MN:VA),,                   -1.86;                2000 N 91Din !
 PAR  G(BCC_A2,MN:VA),,                 +GBCCMN;                 2000 N 91Din !
 PAR  TC(BCC_A2,MN:VA),,                 -580.00;                2000 N 91Din !
 PAR  BM(BCC_A2,MN:VA),,                   -0.27;                2000 N 91Din !
 PAR  G(HCP_A3,MN:VA),,                 +GHCPMN;                 2000 N 91Din !
 PAR  TC(HCP_A3,MN:VA),,                -1620.00;                2000 N 91Din !
 PAR  BM(HCP_A3,MN:VA),,                   -1.86;                2000 N 91Din !
 PAR  G(LIQUID,MN),,                    +GLIQMN;                 2000 N 91Din !
$
 FUNCTION GHSERMN   298.15  -8115.28+130.059*T-23.4582*T*LN(T)
       -0.00734768*T**2+69827*T**(-1);
      1519.00  Y  -28733.41+312.2648*T-48*T*LN(T)+1.656847E+30*T**(-9);
      2000.00  N !
 FUNCTION GCUBMN    298.15  -5800.4+135.995*T-24.8785*T*LN(T)
       -0.00583359*T**2+70269*T**(-1);
      1519.00  Y  +442.65-0.9715*T+GHSERMN+2.310723E+30*T**(-9);
      2000.00  N !
 FUNCTION GFCCMN    298.15  -3439.3+131.884*T-24.5177*T*LN(T)
       -0.006*T**2+69600*T**(-1);
      1519.00  Y  +2663.31-2.5984*T+GHSERMN+2.205113E+30*T**(-9);
      2000.00  N !
 FUNCTION GBCCMN    298.15  -3235.3+127.85*T-23.7*T*LN(T)
       -0.00744271*T**2+60000*T**(-1);
      1519.00  Y  +5544.58-4.5605*T+GHSERMN-3.91695E+29*T**(-9);
      2000.00  N !
 FUNCTION GHCPMN    298.15  -4439.3+133.007*T-24.5177*T*LN(T)
       -0.006*T**2+69600*T**(-1);
      1519.00  Y  +1663.31-1.4754*T+GHSERMN+2.205113E+30*T**(-9);
      2000.00  N !
 FUNCTION GLIQMN    298.15  +17859.91-12.6208*T+GHSERMN-4.41929E-21*T**7;
      1519.00  Y  -9993.9+299.036*T-48*T*LN(T);
      2000.00  N !
$ ------------------------------------------------------------------------------
$ V
$
 PAR  G(BCC_A2,V:VA),,                  +GHSERVV;                4000 N 91Din !
 PAR  G(FCC_A1,V:VA),,                  +GHSERVV+7500+1.7*T;     4000 N 91Din !
 PAR  G(HCP_A3,V:VA),,                  +GHSERVV+4000+2.4*T;     4000 N 91Din !
 PAR  G(CBCC_A12,V:VA),,                +GHSERVV+9000;           4000 N 91Din !
 PAR  G(CUB_A13,V:VA),,                 +GHSERVV+10000;          4000 N 91Din !
 PAR  G(LIQUID,V),,                     +GLIQVV;                 4000 N 91Din !
$
 PAR  G(SIGMA_D8B,V:V:V),,              +30*GHSERVV+100000;,,         N 02Sun !
$
 FUNCTION GHSERVV   298.15  -7930.43+133.346053*T-24.134*T*LN(T)
       -0.003098*T**2+1.2175E-07*T**3+69460*T**(-1);
       790.00  Y  -7967.842+143.291093*T-25.9*T*LN(T)
       +6.25E-05*T**2-6.8E-07*T**3;
      2183.00  Y  -41689.864+321.140783*T-47.43*T*LN(T)+6.44389E+31*T**(-9);
      4000.00  N !
 FUNCTION GLIQVV    298.15  +20764.117-9.455552*T+GHSERVV-5.19136E-22*T**7;
      2183.00  Y  -19617.51+311.055983*T-47.43*T*LN(T);
      4000.00  N !
$ ------------------------------------------------------------------------------
$ Binary system
$
$ From W. Huang 1991 (Included in LB Vol. 4)
$
$ W. Huang, Calphad, 15, 195-208(1991).
$
$ Checked against LB and paper. Checked at 6000K.
$
$ W. Huang used the 8:4:18 model for the sigma phase (SIGMA_OLD). This was
$ changed to 10:4:16 (SIGMA_D8B) for LB. The change of model only slightly
$ changes the V-rich side of the sigma phase field.
$
 PAR  L(LIQUID,MN,V;0),,                -11399;,,                     N 91Hua3 !
$
 PAR  L(FCC_A1,MN,V:VA;0),,             -11820;,,                     N 91Hua3 !
 PAR  L(BCC_A2,MN,V:VA;0),,             -10000;,,                     N 91Hua3 !
 PAR  L(CBCC_A12,MN,V:VA;0),,           -22225;,,                     N 91Hua3 !
 PAR  L(CUB_A13,MN,V:VA;0),,            -17724;,,                     N 91Hua3 !
$
 PAR  G(SIGMA_OLD,MN:V:MN),,            +8*GFCCMN+4*GHSERVV
             +18*GBCCMN-228323+60*T;,,                                N 91Hua3 !
 PAR  G(SIGMA_OLD,MN:V:V),,             +8*GFCCMN+22*GHSERVV
             -27024-60*T;,,                                           N 91Hua3 !
$
 PAR  G(SIGMA_D8B,MN:V:MN),,            +10*GFCCMN+4*GHSERVV
             +16*GBCCMN-225273+57.82*T;,,                             N 00Wes !
 PAR  G(SIGMA_D8B,MN:V:V),,             +10*GFCCMN+20*GHSERVV
             -52083-60.39*T;,,                                        N 00Wes !
 PAR  G(SIGMA_D8B,V:V:MN),,             +14*GHSERVV+16*GHSERMN
             +100000;,,                                               N 02Sun !
$
$ Metastable
$
 PAR  L(HCP_A3,MN,V:VA;0),,             -11820;,,                     N 91Hua4 !
$ ------------------------------------------------------------------------------
$
 ASSESSED_SYSTEM
  MN-V(TDB -* +LIQUID +BCC_A2 +CBCC_A12 +CUB_A13 +FCC_A1 +HCP_A3 +SIGMA_D8B
  ;P3 TMM:300/3000 STP:.2/1500/2/-2) !
$
$
 LIST-OF-REFERENCE
 NUMBER  SOURCE
  Null   'Unknown source'
  Same   'Same or similar interaction as in the corresponding stable phase'
  REFLAV 'Laves phase convention: G(LAVES,X:X)=+3*GHSERXX+15000'
  COST   'COST 507 database'
  91Din  'A.T. Dinsdale, Calphad, 15, 317-425(1991).'
  91Hua3 'W. Huang, Calphad, 15, 195-208(1991); Mn-V'
  91Hua4 'W. Huang, Metall. Trans. A, 22A, 1911-20(1991); Fe-Mn-V-C'
  00Wes  'S. Westman, unpublished, 2000; Mn-V'
  02Sun  'B. Sundman, unpublished, 2002; Mn-V'
!
