$
$ Database for Pt-Ta from P.J. Spencer 1998
$
$ P.J. Spencer, unpublished work, 1998.
$
$ Dataset created 2016.03.28 by Bengt Hallstedt.
$ 2021.02.05: Modified for use with GES6.
$
$ Not included in LB, probably because of the large inverse mscibility gap.
$
$ The datasez in LBall-v7+fun.tdb is correctly reproduced.
$
$ There is an inverse misibility gap with a minimum at 3938 K and x(Ta)=0.50.
$
$ ------------------------------------------------------------------------------
 TEMP-LIM 298.15 6000.00 !
$
$ELEMENT NAME  REF. STATE               ATOMIC MASS H298-H0    S298    !
$
 ELEMENT VA   VACUUM                      0.0          0.0      0.0    ! 
 ELEMENT PT   FCC_A1                    195.08      5723.712   41.6308 !
 ELEMENT TA   BCC_A2                    180.9479    5681.872   41.4718 ! 
$ ------------------------------------------------------------------------------
$ Phase definitions
$
 PHASE LIQUID:L % 1 1 !
 CONST LIQUID:L : PT TA : !
$
$ Fcc (cF4, Fm-3m) and MeX (cF8, Fm-3m)
$
 PHASE FCC_A1 %A 2 1 1 !
 CONST FCC_A1 : PT% TA : VA : !
$
$ Bcc (cI2, Im-3m)
$
 PHASE BCC_A2 %B 2 1 3 !
 CONST BCC_A2 : PT TA% : VA : !
$
$ Hcp (hP2, P6_3/mmc) and Me2X (NiAs-type, hP4, P6_3/mmc, B8_1)
$
 PHASE HCP_A3 %A 2 1 0.5 !
 CONST HCP_A3 : PT TA : VA : !
$
$ Prototype NbPt3 (mP16, P2_1/m)
$
 PHASE PT3TA % 2 3 1 !
 CONST PT3TA : PT : TA : !
$
$ Prototype Au2V (oC12, Cmcm)
$
 PHASE PT2TA % 2 2 1 !
 CONST PT2TA : PT : TA : !
$
$ Pearson tI2
$
 PHASE PTTA % 2 1 1 !
 CONST PTTA : PT : TA : !
$
$ Prototype CrFe (tP30, P4_2/mnm)
$
 PHASE PTTA3_D8B % 1 1 !
 CONST PTTA3_D8B : PT TA : !
$
$ unknown structure
$
 PHASE PTTA6 % 2 1 6 !
 CONST PTTA6 : PT : TA : !
$ ------------------------------------------------------------------------------
$ Defaults
$
 DEFINE-SYSTEM-DEFAULT ELEMENT 2 !
 DEFAULT-COM DEFINE_SYSTEM_ELEMENT VA !
 TYPE-DEF % SEQ * !
 TYPE-DEF A GES AMEND_PHASE_DESCRIPTION @ MAGNETIC -3 0.28 !
 TYPE-DEF B GES AMEND_PHASE_DESCRIPTION @ MAGNETIC -1 0.4 !
 FUNCTION ZERO      298.15  0;                                         6000 N !
 FUNCTION UN_ASS    298.15  0;                                         6000 N !
 FUNCTION R         298.15  +8.31451;                                  6000 N !
$ ------------------------------------------------------------------------------
$ Element data
$ ------------------------------------------------------------------------------
$ Pt
$
 PAR  G(FCC_A1,PT:VA),,                 +GHSERPT;                4000 N 91Din !
 PAR  G(BCC_A2,PT:VA),,                 +GHSERPT+15000-2.4*T;    4000 N 91Din !
 PAR  G(HCP_A3,PT:VA),,                 +GHSERPT+2500+0.1*T;     4000 N 91Din !
 PAR  G(LIQUID,PT),,                    +GLIQPT;                 4000 N 91Din !
$
 PAR  G(PTTA3_D8B,PT),,                 +15746.826+159.12962*T
             -30.2527*T*LN(T)+0.002321665*T**2-6.56947E-07*T**3
             -272106*T**(-1);                                    4000 N 98Spe !
$
 FUNCTION GHSERPT   298.15  -7595.631+124.388275*T-24.5526*T*LN(T)
       -0.00248297*T**2-2.0138E-08*T**3+7974*T**(-1);
      1300.00  Y  -9253.174+161.529615*T-30.2527*T*LN(T)
       +0.002321665*T**2-6.56946E-07*T**3-272106*T**(-1);
      2041.50  Y  -222048.216+1019.35892*T-136.192996*T*LN(T)
       +0.020454938*T**2-7.59259E-07*T**3+71539020*T**(-1);
      4000.00  N !
 FUNCTION GLIQPT    298.15  +20114.016-9.275183*T+GHSERPT;
       600.00  Y  +19023.491+32.94182*T-12.3403769*T*LN(T)
       -0.011551507*T**2+9.31516E-07*T**3-601426*T**(-1);
      2041.50  Y  +1404.468+205.858962*T-36.5*T*LN(T);
      4000.00  N !
 FUNCTION GBCCPT    298.15  +GHSERPT+15000-2.4*T;                      6000 N !
$ ------------------------------------------------------------------------------
$ Ta
$
 PAR  G(BCC_A2,TA:VA),,                 +GHSERTA;,,                   N 91Din !
 PAR  G(FCC_A1,TA:VA),,                 +GHSERTA+16000+1.7*T;,,       N 91Din !
 PAR  G(HCP_A3,TA:VA),,                 +GHSERTA+12000+2.4*T;,,       N 91Din !
 PAR  G(LIQUID,TA),,                    +GLIQTA;,,                    N 91Din !
$
 PAR  G(PTTA3_D8B,TA),,                 -12389.955+243.88676*T
             -41.137088*T*LN(T)+0.006167572*T**2-6.55136E-07*T**3
             +2429586*T**(-1);,,                                      N 98Spe !
$
 FUNCTION GHSERTA   298.15  -7285.889+119.139857*T-23.7592624*T*LN(T)
       -0.002623033*T**2+1.70109E-07*T**3-3293*T**(-1);
      1300.00  Y  -22389.955+243.88676*T-41.137088*T*LN(T)
       +0.006167572*T**2-6.55136E-07*T**3+2429586*T**(-1);
      2500.00  Y  +229382.886-722.59722*T+78.5244752*T*LN(T)
       -0.017983376*T**2+1.95033E-07*T**3-93813648*T**(-1);
      3290.00  Y  -1042384.01+2985.49125*T-362.159132*T*LN(T)
       +0.043117795*T**2-1.055148E-06*T**3+5.54714342E+08*T**(-1);
      6000.00  N !
 FUNCTION GLIQTA    298.15  +29160.975-7.578729*T+GHSERTA;
      1000.00  Y  +43884.339-61.981795*T+0.0279523*T*LN(T)
       -0.012330066*T**2+6.14599E-07*T**3-3523338*T**(-1);
      3290.00  Y  -6314.543+258.110873*T-41.84*T*LN(T);
      6000.00  N !
 FUNCTION GFCCTA    298.15  +GHSERTA+16000+1.7*T;                      6000 N !
$ ------------------------------------------------------------------------------
$ Binary system
$
$ P.J. Spencer, unpublished work, 1998.
$
$ Checked at 6000 K.
$
$ Not included in LB, probably because of the large inverse mscibility gap.
$
$ The datasez in LBall-v7+fun.tdb is correctly reproduced.
$
$ There is an inverse misibility gap with a minimum at 3938 K and x(Ta)=0.50.
$
 PAR  L(LIQUID,PT,TA;0),,               -260948.84+82.887222*T;,,     N 98Spe !
$
 PAR  L(FCC_A1,PT,TA:VA;0),,            +UN_ASS;,,                    N !
$
 PAR  L(BCC_A2,PT,TA:VA;0),,            -175488.56+85.555846*T;,,     N 98Spe !
 PAR  L(BCC_A2,PT,TA:VA;1),,            -13847.52;,,                  N 98Spe !
 PAR  L(BCC_A2,PT,TA:VA;2),,            -112823.91;,,                 N 98Spe !
$
 PAR  G(PT3TA,PT:TA),,                  +4*GPT3TA;,,                  N 98Spe !
 PAR  G(PT2TA,PT:TA),,                  +3*GPT2TA;,,                  N 98Spe !
 PAR  G(PTTA,PT:TA),,                   +2*GPTTA;,,                   N 98Spe !
$
 PAR  L(PTTA3_D8B,PT,TA;0),,            -239085.85+62.394024*T;,,     N 98Spe !
 PAR  L(PTTA3_D8B,PT,TA;1),,            +60383.831-13.185676*T;,,     N 98Spe !
 PAR  L(PTTA3_D8B,PT,TA;2),,            +3466.1875;,,                 N 98Spe !
$
 PAR  G(PTTA6,PT:TA),,                  +7*GPTTA6;,,                  N 98Spe !
$
 FUNCTION GPT3TA    298.15  -70797.137+196.01853*T-32.974*T*LN(T)
       +0.00328314*T**2-6.5649E-07*T**3+403317*T**(-1);
      2338.00  N !
 FUNCTION GPT2TA    298.15  -70430.347+201.44647*T-33.877*T*LN(T)
       +0.00360235*T**2-6.5634E-07*T**3+627557*T**(-1);
      2338.00  N !
 FUNCTION GPTTA     298.15  -60439.1+210.66425*T-35.695*T*LN(T)
       +0.00424461*T**2-6.5604E-07*T**3+1078740*T**(-1);
      2338.00  N !
 FUNCTION GPTTA6    298.15  -57133.709+243.5837*T-39.581*T*LN(T)
       +0.0056176*T**2-6.5539E-07*T**3+2043244*T**(-1);
      1998.00  N !
$ ------------------------------------------------------------------------------
$
$
 LIST-OF-REFERENCE
 NUMBER  SOURCE
  Null   'Unknown source'
  Same   'Same or similar interaction as in the corresponding stable phase'
  COST   'COST 507 database'
  91Din  'A.T. Dinsdale, Calphad, 15, 317-425(1991).'
  98Spe  'P.J. Spencer, unpublished work, 1998; Pt-Ta'
!
