$
$ Database for Fe-U from Y. Jiang et al. 2023.
$
$ Y. Jiang, Y. He, W. Zheng, J. Zhang, D. Zhang, X. Lu,
$ J. Nucl. Mater., 574, 154180(2023).
$
$ Dataset created 2023.07.17 by Bengt Hallstedt.
$
$ Modified from 10Kur.
$
$ ------------------------------------------------------------------------------
 TEMP-LIM 298.15 6000.00 !
$
$ELEMENT NAME  REF. STATE               ATOMIC MASS H298-H0    S298    !
$
 ELEMENT VA   VACUUM                      0.0          0.0      0.0    ! 
 ELEMENT FE   BCC_A2                     55.847     4489.0     27.2797 ! 
 ELEMENT U    ORTHORHOMBIC_A20          238.0289    6364.      50.20   ! 
$ ------------------------------------------------------------------------------
$ Phase definitions
$
 PHASE LIQUID:L % 1 1 !
 CONST LIQUID:L : FE U : !
$
$ Fcc (cF4, Fm-3m) and MeX (cF8, Fm-3m)
$
 PHASE FCC_A1 %A 2 1 1 !
 CONST FCC_A1 : FE% U : VA : !
$
$ Bcc (cI2, Im-3m)
$
 PHASE BCC_A2 %B 2 1 3 !
 CONST BCC_A2 : FE% U% : VA : !
$
$ Hcp (hP2, P6_3/mmc) and Me2X (NiAs-type, hP4, P6_3/mmc, B8_1)
$
 PHASE HCP_A3 %A 2 1 0.5 !
 CONST HCP_A3 : FE U : VA : !
$
$ Prototype alpha-U (oC4, Cmcm)
$
 PHASE ORTHORHOMBIC_A20 % 1 1 !
 CONST ORTHORHOMBIC_A20 : U : !
$
$ Prototype beta-U (tP30, P4_2/mnm, SB: A_b)
$
 PHASE TETRAGONAL_U % 1 1 !
 CONST TETRAGONAL_U : U : !
$
$ Prototype Cu2Mg (cF24, Fd-3m)
$
 PHASE FE2U_C15 % 2 2 1 !
 CONST FE2U_C15 : FE : U : !
$
$ Prototype MnU6 (tI28, I4/mcm)
$
 PHASE FEU6_D2C % 2 1 6 !
 CONST FEU6_D2C : FE : U : !
$ ------------------------------------------------------------------------------
$ Defaults
$
 DEFINE-SYSTEM-DEFAULT ELEMENT 2 !
 DEFAULT-COM DEFINE_SYSTEM_ELEMENT VA !
 TYPE-DEF % SEQ * !
 TYPE-DEF A GES AMEND_PHASE_DESCRIPTION @ MAGNETIC -3 0.28 !
 TYPE-DEF B GES AMEND_PHASE_DESCRIPTION @ MAGNETIC -1 0.4 !
 FUNCTION ZERO      298.15  0;                                         6000 N !
 FUNCTION UN_ASS    298.15  0;                                         6000 N !
 FUNCTION R         298.15  +8.31451;                                  6000 N !
$ ------------------------------------------------------------------------------
$ Element data
$ ------------------------------------------------------------------------------
$ Fe
$
$ ORTHORHOMBIC_A20 and TETRAGONAL_U added im unary 4.1
$
 PAR  G(BCC_A2,FE:VA),,                 +GHSERFE;,,                   N 91Din !
 PAR  TC(BCC_A2,FE:VA),,                 1043.00;,,                   N 91Din !
 PAR  BM(BCC_A2,FE:VA),,                    2.22;,,                   N 91Din !
 PAR  G(FCC_A1,FE:VA),,                 +GFCCFE;,,                    N 91Din !
 PAR  TC(FCC_A1,FE:VA),,                 -201.00;,,                   N 91Din !
 PAR  BM(FCC_A1,FE:VA),,                   -2.10;,,                   N 91Din !
 PAR  G(HCP_A3,FE:VA),,                 +GHCPFE;,,                    N 91Din !
$PAR  G(CBCC_A12,FE:VA),,               +GHSERFE+4745;,,              N 91Din !
$PAR  G(CUB_A13,FE:VA),,                +GHSERFE+3745;,,              N 91Din !
$PAR  G(ORTHORHOMBIC_A20,FE),,          +GHSERFE+5000;,,              N 99SGUN !
$PAR  G(TETRAGONAL_U,FE),,              +GHSERFE+5000;,,              N 99SGUN !
 PAR  G(LIQUID,FE),,                    +GLIQFE;,,                    N 91Din !
$
 FUNCTION GHSERFE   298.15  +1225.7+124.134*T-23.5143*T*LN(T)
       -0.00439752*T**2-5.8927E-08*T**3+77359*T**(-1);
      1811.00  Y  -25383.581+299.31255*T-46*T*LN(T)+2.29603E+31*T**(-9);
      6000.00  N !
 FUNCTION GFCCFE    298.15  -1462.4+8.282*T-1.15*T*LN(T)
       +6.4E-04*T**2+GHSERFE;
      1811.00  Y  -1713.815+0.940009*T+GHSERFE+4.9251E+30*T**(-9);
      6000.00  N !
 FUNCTION GHCPFE    298.15  -3705.78+12.591*T-1.15*T*LN(T)
       +6.4E-04*T**2+GHSERFE;
      1811.00  Y  -3957.195+5.249009*T+GHSERFE+4.9251E+30*T**(-9);
      6000.00  N !
 FUNCTION GLIQFE    298.15  +12040.17-6.55843*T+GHSERFE-3.67516E-21*T**7;
      1811.00  Y  -10838.83+291.302*T-46*T*LN(T);
      6000.00  N !
$ ------------------------------------------------------------------------------
$ U
$
$ FCC_A1 and HCP_A3 added in unary 4.1
$
$ HCP_A3 from 04Che not in unary
$
 PAR  G(ORTHORHOMBIC_A20,U),,           +GHSERUU;                3000 N 91Din !
 PAR  G(TETRAGONAL_U,U),,               +GTETUU;                 3000 N 91Din !
 PAR  G(BCC_A2,U:VA),,                  +GBCCUU;                 3000 N 91Din !
 PAR  G(FCC_A1,U:VA),,                  +GHSERUU+5000;           3000 N 99SGUN !
 PAR  G(HCP_A3,U:VA),,                  +GBCCUU+5000-0.008*T;    3000 N 99SGUN !
$PAR  G(HCP_A3,U:VA),,                  +GHSERUU+50000;          3000 N 04Che3 !
 PAR  G(LIQUID,U),,                     +GHSERUU
             +12355.5-10.3239*T;                                 3000 N 91Din !
$
 FUNCTION GHSERUU   298.15  -8407.734+130.955151*T-26.9182*T*LN(T)
       +0.00125156*T**2-4.42605E-06*T**3+38568*T**(-1);
       955.00  Y  -22521.8+292.121093*T-48.66*T*LN(T);
      3000.00  N !
 FUNCTION GTETUU    298.15  -5156.136+106.976316*T-22.841*T*LN(T)
       -0.01084475*T**2+2.7889E-08*T**3+81944*T**(-1);
       941.50  Y  -14327.309+244.16802*T-42.9278*T*LN(T);
      3000.00  N !
 FUNCTION GBCCUU    298.15  -752.767+131.5381*T-27.5152*T*LN(T)
       -0.00835595*T**2+9.67907E-07*T**3+204611*T**(-1);
      1049.00  Y  -4698.365+202.685635*T-38.2836*T*LN(T);
      3000.00  N !
 FUNCTION GLIQUU    298.15  +GHSERUU+12355.5-10.3239*T;                3000 N !
$ ------------------------------------------------------------------------------
$ Binary system
$
$ Y. Jiang, Y. He, W. Zheng, J. Zhang, D. Zhang, X. Lu,
$ J. Nucl. Mater., 574, 154180(2023).
$
$ Checked against paper. Checked at 6000 K.
$
$ Modified from 10Kur. Liquid, bcc and FeU6 modified.
$
 PAR  L(LIQUID,FE,U;0),,                -43599.41+0.112*T;,,          N 23Jia !
 PAR  L(LIQUID,FE,U;1),,                -7276.65+2*T;,,               N 23Jia !
 PAR  L(LIQUID,FE,U;2),,                +4958.5-3*T;,,                N 23Jia !
$
 PAR  L(FCC_A1,FE,U:VA;0),,             -3595.3;,,                    N 10Kur !
$
 PAR  L(BCC_A2,FE,U:VA;0),,             -7355+4.565*T;,,              N 23Jia !
 PAR  L(BCC_A2,FE,U:VA;1),,             +6300;,,                      N 23Jia !
$
 PAR  G(FE2U_C15,FE:U),,                +2*GLIQFE+GLIQUU
             -106537+33.251*T;,,                                      N 10Kur !
 PAR  G(FEU6_D2C,FE:U),,                +GLIQFE+6*GLIQUU
             -161885.33+94.752*T;,,                                   N 23Jia !
$
$ Metastable
$
 PAR  L(HCP_A3,FE,U:VA;0),,             +30000;,,                     N 10Kur !
$ ------------------------------------------------------------------------------
$
$
 LIST-OF-REFERENCE
 NUMBER  SOURCE
  Null   'Unknown source'
  Same   'Same or similar interaction as in the corresponding stable phase'
  REFLAV 'Laves phase convention: G(LAVES,X:X)=+3*GHSERXX+15000'
  91Din  'A.T. Dinsdale, Calphad, 15, 317-425(1991).'
  99SGUN 'SGTE unary database V.4.1, 1999.'
  01Kur  'M. Kurata, K. Nakamura, T. Ogata,
          J. Nucl. Mater., 294, 123-29(2001); Fe-U'
  04Che3 'P.-Y. Chevalier, E. Fischer, B. Cheynet,
          Calphad, 28, 15-40(2004); U, Zr, U-Zr'
  10Kur  'M. Kurata, IOP Conf. Ser.: Mater. Sci. Eng., 9, 012023(2010); Fe-U'
  23Jia  'Y. Jiang, Y. He, W. Zheng, J. Zhang, D. Zhang, X. Lu,
          J. Nucl. Mater., 574, 154180(2023); Fe-U'
!
