$
$ Database for Nb-Ni from A. Bolcavage and U.R. Kattner 1996
$ (Included in LB Vol. 4)
$
$ A. Bolcavage, U.R. Kattner, J. Phase Equilib., 17, 92-100(1996).
$
$ Dataset created 2012.08.29 by Bengt Hallstedt.
$ 2021.01.31: Modified for use with GES6.
$
$ ------------------------------------------------------------------------------
 TEMP-LIM 298.15 6000.00 !
$
$ELEMENT NAME  REF. STATE               ATOMIC MASS H298-H0    S298    !
$
 ELEMENT VA   VACUUM                      0.0          0.0      0.0    ! 
 ELEMENT NB   BCC_A2                     92.9064    5220.0     36.27   ! 
 ELEMENT NI   FCC_A1                     58.69      4787.0     29.7955 ! 
$ ------------------------------------------------------------------------------
$ Phase definitions
$
 PHASE LIQUID:L % 1 1 !
 CONST LIQUID:L : NB NI : !
$
$ Fcc (cF4, Fm-3m) and MeX (cF8, Fm-3m)
$
 PHASE FCC_A1 %A 2 1 1 !
 CONST FCC_A1 : NB NI% : VA : !
$
$ Bcc (cI2, Im-3m)
$
 PHASE BCC_A2 %B 2 1 3 !
 CONST BCC_A2 : NB% NI : VA : !
$
$ Hcp (hP2, P6_3/mmc) and Me2X (NiAs-type, hP4, P6_3/mmc, B8_1)
$
 PHASE HCP_A3 %A 2 1 0.5 !
 CONST HCP_A3 : NB NI : VA : !
$
$ Prototype Fe7W6 (hR13, R-3m)
$
 PHASE MU_D85 % 2 6 7 !
 CONST MU_D85 : NB : NB NI% : !
$
$ Prototype Cu3Ti (oP8, Pmmn)
$
 PHASE NBNI3_D0A % 2 1 3 !
 CONST NBNI3_D0A : NB% NI : NB NI% : !
$ ------------------------------------------------------------------------------
$ Defaults
$
 DEFINE-SYSTEM-DEFAULT ELEMENT 2 !
 DEFAULT-COM DEFINE_SYSTEM_ELEMENT VA !
 TYPE-DEF % SEQ * !
 TYPE-DEF A GES AMEND_PHASE_DESCRIPTION @ MAGNETIC -3 0.28 !
 TYPE-DEF B GES AMEND_PHASE_DESCRIPTION @ MAGNETIC -1 0.4 !
 FUNCTION ZERO      298.15  0;                                         6000 N !
 FUNCTION UN_ASS    298.15  0;                                         6000 N !
 FUNCTION R         298.15  +8.31451;                                  6000 N !
$ ------------------------------------------------------------------------------
$ Element data
$ ------------------------------------------------------------------------------
$ Nb
$
 PAR  G(BCC_A2,NB:VA),,                 +GHSERNB;,,                   N 91Din !
 PAR  G(FCC_A1,NB:VA),,                 +GHSERNB+13500+1.7*T;,,       N 91Din !
 PAR  G(HCP_A3,NB:VA),,                 +GHSERNB+10000+2.4*T;,,       N 91Din !
 PAR  G(LIQUID,NB),,                    +GLIQNB;,,                    N 91Din !
$
 PAR  G(MU_D85,NB:NB),,                 +13*GHSERNB+65000;,,          N 96Bol !
 PAR  G(NBNI3_D0A,NB:NB),,              +4*GHSERNB+20000;,,           N 96Bol !
$
 FUNCTION GHSERNB   298.15  -8519.353+142.045475*T-26.4711*T*LN(T)
       +2.03475E-04*T**2-3.5012E-07*T**3+93399*T**(-1);
      2750.00  Y  -37669.3+271.720843*T-41.77*T*LN(T)+1.528238E+32*T**(-9);
      6000.00  N !
 FUNCTION GLIQNB    298.15  +29781.555-10.816418*T+GHSERNB-3.06098E-23*T**7;
      2750.00  Y  -7499.398+260.756148*T-41.77*T*LN(T);
      6000.00  N !
$ ------------------------------------------------------------------------------
$ Ni
$
$ FCC_A1 and LIQUID modified in unary 5.0 (slight change in upper T interval)
$ BCT_A5 added in unary 5.0
$
 PAR  G(FCC_A1,NI:VA),,                 +GHSERNI;                3000 N 91Din !
 PAR  TC(FCC_A1,NI:VA),,                  633.00;                3000 N 91Din !
 PAR  BM(FCC_A1,NI:VA),,                    0.52;                3000 N 91Din !
 PAR  G(BCC_A2,NI:VA),,                 +GHSERNI
             +8715.084-3.556*T;                                  3000 N 91Din !
 PAR  TC(BCC_A2,NI:VA),,                  575.00;                3000 N 91Din !
 PAR  BM(BCC_A2,NI:VA),,                    0.85;                3000 N 91Din !
 PAR  G(HCP_A3,NI:VA),,                 +GHSERNI+1046+1.255*T;   3000 N 91Din !
 PAR  TC(HCP_A3,NI:VA),,                  633.00;                3000 N 91Din !
 PAR  BM(HCP_A3,NI:VA),,                    0.52;                3000 N 91Din !
$PAR  G(BCT_A5,NI),,                    +GHSERNI+10023-4.556*T;  3000 N 99Gho !
$PAR  G(CBCC_A12,NI:VA),,               +GHSERNI+3556;           3000 N 91Din !
$PAR  G(CUB_A13,NI:VA),,                +GHSERNI+2092;           3000 N 91Din !
 PAR  G(LIQUID,NI),,                    +GLIQNI;                 3000 N 91Din !
$
 PAR  G(NBNI3_D0A,NI:NI),,              +4*GHSERNI+20000;,,           N 96Bol !
$
 FUNCTION GHSERNI   298.15  -5179.159+117.854*T-22.096*T*LN(T)-0.0048407*T**2;
      1728.00  Y  -27840.62+279.134977*T-43.1*T*LN(T)+1.12754E+31*T**(-9);
      3000.00  N !
 FUNCTION GLIQNI    298.15  +16414.686-9.397*T+GHSERNI-3.82318E-21*T**7;
      1728.00  Y  -9549.817+268.597977*T-43.1*T*LN(T);
      3000.00  N !
 FUNCTION GBCCNI    298.15  +GHSERNI+8715.084-3.556*T;                 6000 N !
$ ------------------------------------------------------------------------------
$ Binary system
$
$ From A. Bolcavage and U.R. Kattner 1996 (Included in LB Vol. 4)
$
$ A. Bolcavage, U.R. Kattner, J. Phase Equilib., 17, 92-100(1996).
$
$ Checked against LB and paper. Checked at 6000K.
$
$ The magnetic parameters are not included in LBall-v7+fun.tdb
$
 PAR  L(LIQUID,NB,NI;0),,               -80037.3-6.31498*T;,,         N 96Bol !
 PAR  L(LIQUID,NB,NI;1),,               +97884.9-19.01069*T;,,        N 96Bol !
 PAR  L(LIQUID,NB,NI;2),,               +10000;,,                     N 96Bol !
$
 PAR  L(FCC_A1,NB,NI:VA;0),,            -70007.4-7.39665*T;,,         N 96Bol !
 PAR  L(FCC_A1,NB,NI:VA;1),,            +96115-23.07497*T;,,          N 96Bol !
 PAR  TC(FCC_A1,NB,NI:VA;0),,           -1200;,,                      N 96Bol !
 PAR  TC(FCC_A1,NB,NI:VA;1),,            +760;,,                      N 96Bol !
$
 PAR  L(BCC_A2,NB,NI:VA;0),,            -18724.3+5.02405*T;,,         N 96Bol !
$
 PAR  G(MU_D85,NB:NI),,                 +6*GHSERNB+7*GHSERNI
             -312097.5+7.3203*T;,,                                    N 96Bol !
 PAR  L(MU_D85,NB:NB,NI;0),,            +273734.55;,,                 N 96Bol !
 PAR  L(MU_D85,NB:NB,NI;1),,            +451218.3;,,                  N 96Bol !
$
 PAR  G(NBNI3_D0A,NB:NI),,              +GHSERNB+3*GHSERNI
             -141202.4+19.33288*T;,,                                  N 96Bol !
 PAR  G(NBNI3_D0A,NI:NB),,              +GHSERNI+3*GHSERNB
             +181202.3-19.33288*T;,,                                  N 96Bol !
 PAR  L(NBNI3_D0A,NB,NI:NB;0),,         -12318.5;,,                   N 96Bol !
 PAR  L(NBNI3_D0A,NB,NI:NI;0),,         -12318.5;,,                   N 96Bol !
 PAR  L(NBNI3_D0A,NB:NB,NI;0),,         +54022.5;,,                   N 96Bol !
 PAR  L(NBNI3_D0A,NI:NB,NI;0),,         +54022.5;,,                   N 96Bol !
$
$ Metastable
$
 PAR  L(HCP_A3,NB,NI:VA;0),,            -70007.4-7.39665*T;,,         N Same !
 PAR  L(HCP_A3,NB,NI:VA;1),,            +96115-23.07497*T;,,          N Same !
$ ------------------------------------------------------------------------------
$
 ASSESSED_SYSTEM
  NB-NI(TDB -* +LIQUID +FCC_A1 +BCC_A2 +NBNI3_D0A +MU_D85
  ;P3 TMM:300/3000 *) !
$
$
 LIST-OF-REFERENCE
 NUMBER  SOURCE
  Null   'Unknown source'
  Same   'Same or similar interaction as in the corresponding stable phase'
  REFLAV 'Laves phase convention: G(LAVES,X:X)=+3*GHSERXX+15000'
  COST   'COST 507 database'
  91Din  'A.T. Dinsdale, Calphad, 15, 317-425(1991).'
  96Bol  'A. Bolcavage, U.R. Kattner,
          J. Phase Equilib., 17, 92-100(1996); Nb-Ni'
  99Gho  'G. Ghosh, Metall. Mater. Trans. A, 30A, 1481-94(1999),
          SGTE unary database V.5.0, 2009; Ni'
!
