$
$ Database for Au-Tl from P.-Y. Chevalier 1989 (Included in LB Vol. 1)
$
$ P.-Y. Chevalier, Thermochim. Acta, 155, 211-25(1989).
$
$ Dataset created 2013.12.15 by Bengt Hallstedt.
$ 2020.12.22: Modified for use with GES6.
$ 2024.08.29: Added upper T-interval for GHSERTL and GBCCTL.
$
$ The eutectic is 3 K higher in 89Che2, probably due to changes in unary Tl.
$
$ ------------------------------------------------------------------------------
 TEMP-LIM 298.15 6000.00 !
$
$ELEMENT NAME  REF. STATE               ATOMIC MASS H298-H0    S298    !
$
 ELEMENT VA   VACUUM                      0.0          0.0      0.0    ! 
 ELEMENT AU   FCC_A1                    196.9665    6016.592   47.4884 ! 
 ELEMENT TL   HCP_A3                    204.383     6831.97    64.2997 ! 
$ ------------------------------------------------------------------------------
$ Phase definitions
$
 PHASE LIQUID:L % 1 1 !
 CONST LIQUID:L : AU TL : !
$
$ Fcc (cF4) and MeX (cF8)
$
 PHASE FCC_A1 %A 2 1 1 !
 CONST FCC_A1 : AU% TL : VA : !
$
$ Bcc (cI2, Im-3m)
$
 PHASE BCC_A2 %B 2 1 3 !
 CONST BCC_A2 : AU TL% : VA : !
$
$ Hcp (hP2, P6_3/mmc) and Me2X (NiAs-type, hP4, P6_3/mmc, B8_1)
$
 PHASE HCP_A3 %A 2 1 0.5 !
 CONST HCP_A3 : AU TL% : VA : !
$ ------------------------------------------------------------------------------
$ Defaults
$
 DEFINE-SYSTEM-DEFAULT ELEMENT 2 !
 DEFAULT-COM DEFINE_SYSTEM_ELEMENT VA !
 TYPE-DEF % SEQ * !
 TYPE-DEF A GES AMEND_PHASE_DESCRIPTION @ MAGNETIC -3 0.28 !
 TYPE-DEF B GES AMEND_PHASE_DESCRIPTION @ MAGNETIC -1 0.4 !
 FUNCTION ZERO      298.15  0;                                         6000 N !
 FUNCTION UN_ASS    298.15  0;                                         6000 N !
 FUNCTION R         298.15  +8.31451;                                  6000 N !
$ ------------------------------------------------------------------------------
$ Element data
$ ------------------------------------------------------------------------------
$ Au
$
$ DHCP added in unary 5.0
$
$ DHCP replaced by the value from 92Ans in SGSOL 5.0
$
$ The DHCP phase is labelled D0_24 in 03Liu and alpha-prime in 92Ans. The
$ phase is present between the fcc and hcp phases in the Au-Sn and Au-In
$ systems. The value for DHCP from 92Ans was used to model these systems,
$ thus this value must be included in the unary database and not the 04Du
$ value.
$
 PAR  G(FCC_A1,AU:VA),,                 +GHSERAU;                3200 N 91Din !
 PAR  G(HCP_A3,AU:VA),,                 +GHSERAU+240.75+1.6*T;   3200 N 91Din !
 PAR  G(BCC_A2,AU:VA),,                 +GHSERAU+4250-1.1*T;     3200 N 91Din !
$PAR  G(DHCP,AU),,                      +GHSERAU+125+0.79*T;     3200 N 92Ans !
$PAR  G(DHCP,AU),,                      +GHSERAU+5000;           3200 N 04Du !
 PAR  G(LIQUID,AU),,                    +GHSERAU
             +12552-9.385866*T;                                  3200 N 91Din !
$
 FUNCTION GHSERAU   298.15  -6938.856+106.830098*T-22.75455*T*LN(T)
       -0.00385924*T**2+3.79625E-07*T**3-25097*T**(-1);
       929.40  Y  -93586.481+1021.69543*T-155.706745*T*LN(T)
       +0.08756015*T**2-1.1518713E-05*T**3+10637210*T**(-1);
      1337.33  Y  +314067.829-2016.37825*T+263.252259*T*LN(T)
       -0.118216828*T**2+8.923844E-06*T**3-67999832*T**(-1);
      1735.80  Y  -12133.783+165.272524*T-30.9616*T*LN(T);
      3200.00  N !
$ ------------------------------------------------------------------------------
$ Tl
$
$ Upper T-interval for GHSERTL and GBCCTL added in Version 5.0
$
 PAR  G(HCP_A3,TL:VA)           200.00  +GHSERTL;                1801 N 91Din !
 PAR  G(BCC_A2,TL:VA)           200.00  +GBCCTL;                 1801 N 91Din !
 PAR  G(FCC_A1,TL:VA)           200.00  +GHSERTL+310;            1801 N 91Din !
 PAR  G(LIQUID,TL)              200.00  +GLIQTL;                 1801 N 91Din !
$
 FUNCTION GHSERTL   200.00  -8104.038+107.140405*T-25.2274*T*LN(T)
       -0.0033063*T**2-1.21807E-07*T**3+42058*T**(-1);
       577.00  Y  -15406.859+196.771926*T-38.4130658*T*LN(T)
       +0.005228106*T**2-5.19136E-07*T**3+729665*T**(-1);
      1800.00  Y  -4885.034+106.361006*T-25.8437*T*LN(T)
       -8.3662E-04*T**2+9E-12*T**3-612570*T**(-1);
      1801.00  N !
 FUNCTION GBCCTL    200.00  -9194.493+150.019517*T-33.0508*T*LN(T)
       +0.0172318*T**2-1.0115933E-05*T**3+82153*T**(-1);
       577.00  Y  -41836.403+482.633817*T-79.2926704*T*LN(T)
       +0.026042993*T**2-2.359101E-06*T**3+3507810*T**(-1);
      1800.00  Y  -623.343+101.120182*T-25.8437*T*LN(T)
       -8.3662E-04*T**2+9E-12*T**3-612570*T**(-1);
      1801.00  N !
 FUNCTION GLIQTL    200.00  -946.623+0.755649*T-7.44455*T*LN(T)
       -0.044350292*T**2+1.4248046E-05*T**3-54228*T**(-1);
       577.00  Y  -614.74+98.472609*T-25.8437*T*LN(T)
       -8.3662E-04*T**2+9E-12*T**3-612570*T**(-1);
      1801.00  N !
$ ------------------------------------------------------------------------------
$ Binary system
$
$ From from P.-Y. Chevalier 1989 (included in LB Vol. 1)
$
$ P.-Y. Chevalier, Thermochim. Acta, 155, 211-25(1989).
$
$ Checked against LB and paper. Checked at 6000 K.
$
$ The eutectic is 3 K higher in 89Che2, probably due to changes in unary Tl.
$
 PAR  L(LIQUID,AU,TL;0),,               -8003.3+0.72432*T;,,          N 89Che2 !
 PAR  L(LIQUID,AU,TL;1),,               -8895.5+13.3376*T;,,          N 89Che2 !
$
 PAR  L(FCC_A1,AU,TL:VA;0),,            +23222.3;,,                   N 89Che2 !
 PAR  L(BCC_A2,AU,TL:VA;0),,            +23222.3;,,                   N 89Che2 !
 PAR  L(HCP_A3,AU,TL:VA;0),,            +23222.3;,,                   N 89Che2 !
$ ------------------------------------------------------------------------------
$
 ASSESSED_SYSTEM
  AU-TL(TDB -* +LIQ +FCC_A1 +HCP_A3 +BCC_A2 ;P3 TMM:300/1500 STP:.9/500) !
$
$
 LIST-OF-REFERENCE
 NUMBER  SOURCE
  Null   'Unknown source'
  Same   'Same or similar interaction as in the corresponding stable phase'
  COST   'COST 507 database'
  89Che2 'P.-Y. Chevalier, Thermochim. Acta, 155, 211-25(1989); Au-Tl'
  91Din  'A.T. Dinsdale, Calphad, 15, 317-425(1991).'
  92Ans  'I. Ansara, J.-Ph. Nabot, Calphad, 16, 13-18(1992); Au'
  04Du   'Z. Du, C. Guo, D. Lu, J. Alloys Compd., 364, 117-20(2004),
          SGTE unary database V.5.0, 2009; Au'
!
