$
$ Database for Cu-Mg from B. Hallstedt 2016
$
$ B. Hallstedt, unpublished, 2016.
$
$ Dataset created 2016.04.11 by Bengt Hallstedt.
$ 2020.12.26: Modified for use with GES6.
$
$ Based on the assessment from P. Liang et al. 1998 with modified Gibbs
$ energies from S.H. Zhou et al. 2007. This was necessary because the heat
$ capacity of Cu2Mg (C15) from 98Lia2 increases too rapidly and makes Cu2Mg
$ stable again above 2800 K.
$
$ The Gibbs energy functions from 07Zho for C15_LAVES and CUMG2_CB are
$ discontinuous across the temperature interval limit. This was corrected by
$ adjusting the functions for the upper temperature interval. The other Laves
$ phase and CuMg2 parameters were reoptimised to reproduce the invariant
$ equilibria from 98Lia (and to some extent 07Zho).
$
$ The hcp interaction is very different from the fcc interaction. The fcc 
$ interaction can be considered reasonably well determined since it is
$ based on a relatively well determined solubility of Mg in Cu. The current
$ hcp interaction gives a Cu solubility in Mg at the eutectic temperature
$ of 0.049 at.% Cu. The measured solubility is smaller (0.01 to 0.02 at.% Cu).
$ There are several measurements cited in Nayeb-Hashemi and Clark,
$ BAPD, 5(1), 36-43(1984), but they are all very old; 1931 or earlier.
$ Thus, the hcp interaction seems uncertain and the value from 98Lia seems a
$ reasonable compromise. The hcp interaction from 07Zho results in an even
$ lower solubility than measured and should not be used.
$
$ The parameters for the metastable C14 and C36 phases are modified to keep
$ the same Delta-G relative to C15.
$
$ ------------------------------------------------------------------------------
 TEMP-LIM 298.15 6000.00 !
$
$ELEMENT NAME  REF. STATE               ATOMIC MASS H298-H0    S298    !
$
 ELEMENT VA   VACUUM                      0.0          0.0      0.0    ! 
 ELEMENT CU   FCC_A1                     63.546     5004.      33.15   !
 ELEMENT MG   HCP_A3                     24.305     4998.      32.671  !
$ ------------------------------------------------------------------------------
$ Phase definitions
$
 PHASE LIQUID:L % 1 1 !
 CONST LIQUID:L : CU MG : !
$
$ Fcc (cF4, Fm-3m) and MeX (cF8, Fm-3m)
$
 PHASE FCC_A1 % 2 1 1 !
 CONST FCC_A1 : CU% MG : VA : !
$
$ Bcc (cI2, Im-3m)
$
 PHASE BCC_A2 % 2 1 3 !
 CONST BCC_A2 : CU MG : VA : !
$
$ Hcp (hP2, P6_3/mmc) and Me2X (NiAs-type, hP4, P6_3/mmc, B8_1)
$
 PHASE HCP_A3 % 2 1 0.5 !
 CONST HCP_A3 : CU MG% : VA: !
$
$ Prototype Cu2Mg (cF24, Fd-3m)
$
 PHASE C15_LAVES % 2 2 1 !
 CONST C15_LAVES : CU% MG : CU MG% : !
$
$ Prototype CuMg2 (oF48, Fddd)
$
 PHASE CUMG2_CB % 2 1 2 !
 CONST CUMG2_CB : CU : MG : !
$ ------------------------------------------------------------------------------
$ Defaults
$
 DEFINE-SYSTEM-DEFAULT ELEMENT 2 !
 DEFAULT-COM DEFINE_SYSTEM_ELEMENT VA !
 TYPE-DEF % SEQ * !
 TYPE-DEF A GES AMEND_PHASE_DESCRIPTION @ MAGNETIC -3 0.28 !
 TYPE-DEF B GES AMEND_PHASE_DESCRIPTION @ MAGNETIC -1 0.4 !
 FUNCTION ZERO      298.15  0;                                         6000 N !
 FUNCTION UN_ASS    298.15  0;                                         6000 N !
 FUNCTION R         298.15  +8.31451;                                  6000 N !
$ ------------------------------------------------------------------------------
$ Element data
$ ------------------------------------------------------------------------------
$ Cu
$
 PAR  G(FCC_A1,CU:VA),,                 +GHSERCU;                3200 N 91Din !
 PAR  G(BCC_A2,CU:VA),,                 +GHSERCU+4017-1.255*T;   3200 N 91Din !
 PAR  G(HCP_A3,CU:VA),,                 +GHSERCU+600+0.2*T;      3200 N 91Din !
 PAR  G(LIQUID,CU),,                    +GLIQCU;                 3200 N 91Din !
$
$PAR  G(C14_LAVES,CU:CU),,              +3*GHSERCU+15000;,,           N REFLAV !
 PAR  G(C15_LAVES,CU:CU),,              +3*GHSERCU+15000;,,           N REFLAV !
$PAR  G(C36_LAVES,CU:CU),,              +3*GHSERCU+15000;,,           N REFLAV !
$
 FUNCTION GHSERCU   298.15  -7770.458+130.485235*T-24.112392*T*LN(T)
       -0.00265684*T**2+1.29223E-07*T**3+52478*T**(-1);
      1357.77  Y  -13542.026+183.803828*T-31.38*T*LN(T)+3.64167E+29*T**(-9);
      3200.00  N !
 FUNCTION GLIQCU    298.15  +12964.735-9.511904*T+GHSERCU-5.8489E-21*T**7;
      1357.77  Y  -46.545+173.881484*T-31.38*T*LN(T);
      3200.00  N !
 FUNCTION GBCCCU    298.15  +GHSERCU+4017-1.255*T;                     3200 N !
$ ------------------------------------------------------------------------------
$ Mg
$
 PAR  G(FCC_A1,MG:VA),,                 +GHSERMG+2600-0.9*T;     3000 N 91Din !
 PAR  G(BCC_A2,MG:VA),,                 +GHSERMG+3100-2.1*T;     3000 N 91Din !
 PAR  G(HCP_A3,MG:VA),,                 +GHSERMG;                3000 N 91Din !
 PAR  G(LIQUID,MG),,                    +GLIQMG;                 3000 N 91Din !
$
$PAR  G(C14_LAVES,MG:MG),,              +3*GHSERMG+15000;,,           N REFLAV !
 PAR  G(C15_LAVES,MG:MG),,              +3*GHSERMG+15000;,,           N REFLAV !
$PAR  G(C36_LAVES,MG:MG),,              +3*GHSERMG+15000;,,           N REFLAV !
$
 FUNCTION GHSERMG   298.15  -8367.34+143.675547*T-26.1849782*T*LN(T)
       +4.858E-04*T**2-1.393669E-06*T**3+78950*T**(-1);
       923.00  Y  -14130.185+204.716215*T-34.3088*T*LN(T)+1.038192E+28*T**(-9);
      3000.00  N !
 FUNCTION GLIQMG    298.15  +8202.243-8.83693*T+GHSERMG-8.0176E-20*T**7;
       923.00  Y  -5439.869+195.324057*T-34.3088*T*LN(T);
      3000.00  N !
$ ------------------------------------------------------------------------------
$ Binary system
$
$ B. Hallstedt, unpublished, 2016.
$
$ Checked at 6000 K.
$
$ Based on the assessment from P. Liang et al. 1998 with modified Gibbs
$ energies from S.H. Zhou et al. 2007. This was necessary because the heat
$ capacity of Cu2Mg (C15) from 98Lia2 increases too rapidly and makes Cu2Mg
$ stable again above 2800 K.
$
$ The Gibbs energy functions from 07Zho for C15_LAVES and CUMG2_CB are
$ discontinuous across the temperature interval limit. This was corrected by
$ adjusting the functions for the upper temperature interval. The other Laves
$ phase and CuMg2 parameters were reoptimised to reproduce the invariant
$ equilibria from 98Lia (and to some extent 07Zho).
$
$ The hcp interaction is very different from the fcc interaction. The fcc 
$ interaction can be considered reasonably well determined since it is
$ based on a relatively well determined solubility of Mg in Cu. The current
$ hcp interaction gives a Cu solubility in Mg at the eutectic temperature
$ of 0.049 at.% Cu. The measured solubility is smaller (0.01 to 0.02 at.% Cu).
$ There are several measurements cited in Nayeb-Hashemi and Clark,
$ BAPD, 5(1), 36-43(1984), but they are all very old; 1931 or earlier.
$ Thus, the hcp interaction seems uncertain and the value from 98Lia seems a
$ reasonable compromise. The hcp interaction from 07Zho results in an even
$ lower solubility than measured and should not be used.
$
$ The parameters for the metastable C14 and C36 phases are modified to keep
$ the same Delta-G relative to C15.
$
 PAR  L(LIQUID,CU,MG;0),,               -36962.71+4.74394*T;,,        N 98Lia2 !
 PAR  L(LIQUID,CU,MG;1),,               -8182.19;,,                   N 98Lia2 !
$
 PAR  L(FCC_A1,CU,MG:VA;0),,            -22059.61+5.63232*T;,,        N 98Lia2 !
$
 PAR  L(HCP_A3,CU,MG:VA;0),,            +22500-3*T;,,                 N 98Lia2 !
$
 PAR  G(C15_LAVES,CU:MG),,              +GC15CUMG;,,                  N 16Hal !
 PAR  G(C15_LAVES,MG:CU),,              +GHSERCU+2*GHSERMG
             +104970.96-16.46448*T;,,                                 N 98Lia2 !
 PAR  L(C15_LAVES,CU,MG:CU;0),,         +13011.35;,,                  N 98Lia2 !
 PAR  L(C15_LAVES,CU,MG:MG;0),,         +13011.35;,,                  N 98Lia2 !
 PAR  L(C15_LAVES,CU:CU,MG;0),,         +6599.45;,,                   N 98Lia2 !
 PAR  L(C15_LAVES,MG:CU,MG;0),,         +6599.45;,,                   N 98Lia2 !
$
 PAR  G(CUMG2_CB,CU:MG),,               +GCBCUMG;,,                   N 16Hal !
$
$ Metastable
$
 PAR  L(BCC_A2,CU,MG:VA;0),,            -6500;,,                      N 98Lia2 !
$ Parameter below from COST 507
$PAR  L(BCC_A2,CU,MG:VA;0),,            -10000;,,                     N COST !
$
$PAR  G(C14_LAVES,CU:MG),,              +GC15CUMG+30000;,,            N 98Lia2 !
$PAR  G(C14_LAVES,MG:CU),,              +GHSERCU+2*GHSERMG
$            +74970.96-16.46448*T;,,                                  N 98Lia2 !
$PAR  L(C14_LAVES,CU,MG:CU;0),,         +13011.35;,,                  N 98Lia2 !
$PAR  L(C14_LAVES,CU,MG:MG;0),,         +13011.35;,,                  N 98Lia2 !
$PAR  L(C14_LAVES,CU:CU,MG;0),,         +6599.45;,,                   N 98Lia2 !
$PAR  L(C14_LAVES,MG:CU,MG;0),,         +6599.45;,,                   N 98Lia2 !
$
$PAR  G(C36_LAVES,CU:MG),,              +GC15CUMG+20000;,,            N 98Lia2 !
$PAR  G(C36_LAVES,MG:CU),,              +GHSERCU+2*GHSERMG
$            +84970.96-16.46448*T;,,                                  N 98Lia2 !
$PAR  L(C36_LAVES,CU,MG:CU;0),,         +13011.35;,,                  N 98Lia2 !
$PAR  L(C36_LAVES,CU,MG:MG;0),,         +13011.35;,,                  N 98Lia2 !
$PAR  L(C36_LAVES,CU:CU,MG;0),,         +6599.45;,,                   N 98Lia2 !
$PAR  L(C36_LAVES,MG:CU,MG;0),,         +6599.45;,,                   N 98Lia2 !
$
$PAR  G(CU5ZN8_D82,CU:CU:CU:MG),,       +7*GHSERCU+6*GHSERMG
$            -64720.63-51.34862*T;,,                                  N 98Lia2 !
$PAR  L(HCP_IM_A3,CU,MG:VA;0),,         +22500-3*T;,,                 N 98Lia2 !
$
$PAR  G(MG12ZN13,MG:CU),,               +12*GHSERMG+13*GHSERCU;,,     N 98Lia2 !
$PAR  G(MG2ZN3,MG:CU),,                 +2*GHSERMG+3*GHSERCU;,,       N 98Lia2 !
$PAR  G(MG2ZN11_D8C,MG:CU),,            +2*GHSERMG+11*GHSERCU;,,      N COST !
$
$ Modified functions below
 FUNCTION GC15CUMG  298.15  -54854+408.17*T-76.1*T*LN(T)
       -9.9E-04*T**2-1.35E-06*T**3+183906*T**(-1);
      1070.00  Y  -61915.6682+489.549872*T-87.17102875*T*LN(T);
      6000.00  N !
 FUNCTION GCBCUMG   298.15  -50415+423.34*T-77.9913484*T*LN(T)
       +0.00231*T**2-2.72115E-06*T**3+190378*T**(-1);
       850.00  Y  -54534.6038+477.968452*T-85.33353573*T*LN(T);
      6000.00  N !
$ Original functions from 07Zho below
$FUNCTION GC15CUMG  298.15  -58201+409.642*T-76.1*T*LN(T)
$      -9.9E-04*T**2-1.35E-06*T**3+183906*T**(-1);
$     1070.00  Y  -64662.18+490.7029614*T-87.17102875*T*LN(T);
$     6000.00  N !
$FUNCTION GCBCUMG   298.15  -53491+425.428*T-77.9913484*T*LN(T)
$      +0.00231*T**2-2.72115E-06*T**3+190378*T**(-1);
$      850.00  Y  -58610.6334+481.9243846*T-85.33353573*T*LN(T);
$     6000.00  N !
$ ------------------------------------------------------------------------------
$
 ASSESSED_SYSTEM
  CU-MG(TDB -* +LIQUID +FCC_A1 +HCP_A3 +CUMG2_CB +C15_LAVES
  ;P3 TMM:300/2000 *) !
$
$
 LIST-OF-REFERENCE
 NUMBER  SOURCE
  Null   'Unknown source'
  COST   'COST 507 database'
  REFLAV 'Laves phase convention: G(LAVES,X:X)=+3*GHSERXX+15000'
  91Din  'A.T. Dinsdale, Calphad, 15, 317-425(1991).'
  98Lia2 'P. Liang, H.L. Lukas, H.J. Seifert, G. Ghosh, G. Effenberg,
          F. Aldinger, Calphad, 22, 527-44 (1998); Cu-Mg, Cu-Mg-Zn'
  07Zho  'S.H. Zhou, Y. Wang, F.G. Shi, F. Sommer, L.-Q. Chen, Z.-K. Liu,
          R.E. Napolitano, J. Phase Equilib. Diffus., 28, 158-66(2007); Cu-Mg'
  16Hal  'B. Hallstedt, Modification of Cu2Mg and CuMg2 parameters; Cu-Mg'
!
