$
$ Database for Cu-Mg from C.A. Coughanowr et al. 1991
$
$ C.A. Coughanowr, I. Ansara, R. Luoma, M. Hamalainen, H.L. Lukas,
$ Z. Metallkd., 82, 574-81(1991).
$
$ Dataset created 2009.11.29 by Bengt Hallstedt.
$ 2020.12.26: Modified for use with GES6.
$
$ Stoichiometric C15_LAVES.
$
$ C15_LAVES becomes stable again above 2800K. This is not acceptable.
$ Probably Cp increases too rapidly at high T.
$
$ The bcc and hcp interactions seem to have been used at that time, but their
$ origin is unknown. For current parameters, see CuMg-98Cou-LB.tdb.
$
$ ------------------------------------------------------------------------------
 TEMP-LIM 298.15 6000.00 !
$
$ELEMENT NAME  REF. STATE               ATOMIC MASS H298-H0    S298    !
$
 ELEMENT VA   VACUUM                      0.0          0.0      0.0    ! 
 ELEMENT CU   FCC_A1                     63.546     5004.      33.15   !
 ELEMENT MG   HCP_A3                     24.305     4998.      32.671  !
$ ------------------------------------------------------------------------------
$ Phase definitions
$
 PHASE LIQUID:L % 1 1 !
 CONST LIQUID:L : CU MG : !
$
$ Fcc (cF4, Fm-3m) and MeX (cF8, Fm-3m)
$
 PHASE FCC_A1 % 2 1 1 !
 CONST FCC_A1 : CU% MG : VA : !
$
$ Bcc (cI2, Im-3m)
$
 PHASE BCC_A2 % 2 1 3 !
 CONST BCC_A2 : CU MG : VA : !
$
$ Hcp (hP2, P6_3/mmc) and Me2X (NiAs-type, hP4, P6_3/mmc, B8_1)
$
 PHASE HCP_A3 % 2 1 0.5 !
 CONST HCP_A3 : CU MG% : VA: !
$
$ Prototype CuMg2 (oF48, Fddd)
$
 PHASE CUMG2_CB % 2 1 2 !
 CONST CUMG2_CB : CU : MG : !
$
$ Prototype Cu2Mg (cF24, Fd-3m)
$
 PHASE C15_LAVES % 2 2 1 !
 CONST C15_LAVES : CU : MG : !
$ ------------------------------------------------------------------------------
$ Defaults
$
 DEFINE-SYSTEM-DEFAULT ELEMENT 2 !
 DEFAULT-COM DEFINE_SYSTEM_ELEMENT VA !
 TYPE-DEF % SEQ * !
 FUNCTION ZERO      298.15  0;                                         6000 N !
 FUNCTION UN_ASS    298.15  0;                                         6000 N !
$ ------------------------------------------------------------------------------
$ Element data
$ ------------------------------------------------------------------------------
$ Cu
$
 PAR  G(FCC_A1,CU:VA),,                 +GHSERCU;                3200 N 91Din !
 PAR  G(BCC_A2,CU:VA),,                 +GHSERCU+4017-1.255*T;   3200 N 91Din !
 PAR  G(HCP_A3,CU:VA),,                 +GHSERCU+600+0.2*T;      3200 N 91Din !
 PAR  G(LIQUID,CU),,                    +GLIQCU;                 3200 N 91Din !
$
 FUNCTION GHSERCU   298.15  -7770.458+130.485235*T-24.112392*T*LN(T)
       -0.00265684*T**2+1.29223E-07*T**3+52478*T**(-1);
      1357.77  Y  -13542.026+183.803828*T-31.38*T*LN(T)+3.64167E+29*T**(-9);
      3200.00  N !
 FUNCTION GLIQCU    298.15  +12964.735-9.511904*T+GHSERCU-5.8489E-21*T**7;
      1357.77  Y  -46.545+173.881484*T-31.38*T*LN(T);
      3200.00  N !
 FUNCTION GBCCCU    298.15  +GHSERCU+4017-1.255*T;                     3200 N !
$ ------------------------------------------------------------------------------
$ Mg
$
 PAR  G(FCC_A1,MG:VA),,                 +GHSERMG+2600-0.9*T;     3000 N 91Din !
 PAR  G(BCC_A2,MG:VA),,                 +GHSERMG+3100-2.1*T;     3000 N 91Din !
 PAR  G(HCP_A3,MG:VA),,                 +GHSERMG;                3000 N 91Din !
 PAR  G(LIQUID,MG),,                    +GLIQMG;                 3000 N 91Din !
$
 FUNCTION GHSERMG   298.15  -8367.34+143.675547*T-26.1849782*T*LN(T)
       +4.858E-04*T**2-1.393669E-06*T**3+78950*T**(-1);
       923.00  Y  -14130.185+204.716215*T-34.3088*T*LN(T)+1.038192E+28*T**(-9);
      3000.00  N !
 FUNCTION GLIQMG    298.15  +8202.243-8.83693*T+GHSERMG-8.0176E-20*T**7;
       923.00  Y  -5439.869+195.324057*T-34.3088*T*LN(T);
      3000.00  N !
$ ------------------------------------------------------------------------------
$ Binary system
$
$ C.A. Coughanowr, I. Ansara, R. Luoma, M. Hamalainen, H.L. Lukas,
$ Z. Metallkd., 82, 574-81(1991).
$
$ Checked against paper. Checked at 6000 K.
$
$ This is the "first treatment" in the paper.
$
$ Stoichiometric C15_LAVES.
$
$ C15_LAVES becomes stable again above 2800K. This is not acceptable.
$ Probably Cp increases too rapidly at high T.
$
$ The bcc and hcp interactions seem to have been used at that time, but their
$ origin is unknown. For current parameters, see CuMg-98Cou-LB.tdb.
$
 PAR  L(LIQUID,CU,MG;0),,               -35429.95+4.22743*T;,,        N 91Cou !
 PAR  L(LIQUID,CU,MG;1),,               -7453.87;,,                   N 91Cou !
$
 PAR  L(FCC_A1,CU,MG:VA;0),,            -23487.22+8.26*T;,,           N 91Cou !
$
 PAR  L(HCP_A3,CU,MG:VA;0),,            +80*T;,,                      N Null !
$
 PAR  G(CUMG2_CB,CU:MG),,               +GHSERCU+2*GHSERMG
             -28620+2.58693*T;,,                                      N 91Cou !
$
 PAR  G(C15_LAVES,CU:MG),,              -53607.3+349.57905*T
             -66.886572*T*LN(T)-0.001936896*T**2+76356*T**(-1)
             -5.988E-06*T**3;,,                                       N 91Cou !
$
$ Metastable
$
 PAR  L(BCC_A2,CU,MG:VA;0),,            +20000;,,                     N Null !
$ ------------------------------------------------------------------------------
$
 ASSESSED_SYSTEM
  CU-MG(TDB -* +LIQUID +FCC_A1 +HCP_A3 +CUMG2_CB +C15_LAVES
  ;P3 TMM:300/2000 *) !
$
$
 LIST-OF-REFERENCE
 NUMBER  SOURCE
  Null   'Unknown source'
  COST   'COST 507 database'
  REFLAV 'Laves phase convention: G(LAVES,X:X)=+3*GHSERXX+15000'
  91Din  'A.T. Dinsdale, Calphad, 15, 317-425(1991).'
  91Cou  'C.A. Coughanowr, I. Ansara, R. Luoma, M. Hamalainen, H.L. Lukas,
          Z. Metallkd., 82, 574-81(1991); Cu-Mg'
!
atabase'
  REFLAV 'Laves phase convention: G(LAVES,X:X)=+3*GHSERXX+15000'
  91Din  'A.T. Dinsdale, Calphad, 15, 317-425(1991).'
  91Cou  'C.A. Coughanowr, I. Ansara, R. Luoma, M. Hamalainen, H.L. Lukas,
          Z. Metallkd., 82, 574-81(1991); Cu-Mg'
  98Buh  'T. Buhler, S.G. Fries, P.J. Spencer, H.L. Lukas,
          J. Phase Equilib., 19, 317-33(1998); Al-Cu-Mg'
!
