$
$ Database for Cr-La from W. Chan et al. 2009
$
$ W. Chan, C. Gao, O.N. Dogan, P. King, A.D. Rollett,
$ J. Phase Equilib. Diffus., 30, 578-86(2009).
$
$ Dataset created 2011.09.18 by Bengt Hallstedt.
$ 2020.12.25: Modified for use with GES6.
$
$ ------------------------------------------------------------------------------
 TEMP-LIM 298.15 6000.00 !
$
$ELEMENT NAME  REF. STATE               ATOMIC MASS H298-H0    S298    !
$
 ELEMENT VA   VACUUM                      0.0          0.0      0.0    ! 
 ELEMENT CR   BCC_A2                     51.996     4050.0     23.5429 ! 
 ELEMENT LA   DHCP                      138.9055    6665.112   56.9024 ! 
$ ------------------------------------------------------------------------------
$ Phase definitions
$
 PHASE LIQUID:L % 1 1 !
 CONST LIQUID:L : CR LA : !
$
$ Fcc (cF4, Fm-3m) and MeX (cF8, Fm-3m)
$
 PHASE FCC_A1 %A 2 1 1 !
 CONST FCC_A1 : CR LA : VA : !
$
$ Bcc (cI2, Im-3m)
$
 PHASE BCC_A2 %B 2 1 3 !
 CONST BCC_A2 : CR LA : VA : !
$
$ Hcp (hP2, P6_3/mmc) and Me2X (NiAs-type, hP4, P6_3/mmc, B8_1)
$
 PHASE HCP_A3 %A 2 1 0.5 !
 CONST HCP_A3 : CR : VA : !
$
$ Prototype alpha-La (SB A3', hP4, P6_3/mmc)
$
 PHASE DHCP % 2 1 0.5 !
 CONST DHCP : LA : VA : !
$ ------------------------------------------------------------------------------
$ Defaults
$
 DEFINE-SYSTEM-DEFAULT ELEMENT 2 !
 DEFAULT-COM DEFINE_SYSTEM_ELEMENT VA !
 TYPE-DEF % SEQ * !
 TYPE-DEF A GES AMEND_PHASE_DESCRIPTION @ MAGNETIC -3 0.28 !
 TYPE-DEF B GES AMEND_PHASE_DESCRIPTION @ MAGNETIC -1 0.4 !
 FUNCTION ZERO      298.15  0;                                         6000 N !
 FUNCTION UN_ASS    298.15  0;                                         6000 N !
 FUNCTION R         298.15  +8.31451;                                  6000 N !
$ ------------------------------------------------------------------------------
$ Element data
$ ------------------------------------------------------------------------------
$ Cr
$
 PAR  G(BCC_A2,CR:VA),,                 +GHSERCR;,,                   N 91Din !
 PAR  TC(BCC_A2,CR:VA),,                 -311.50;,,                   N 91Din !
 PAR  BM(BCC_A2,CR:VA),,                   -0.008;,,                  N 91Din !
 PAR  G(FCC_A1,CR:VA),,                 +GHSERCR+7284+0.163*T;,,      N 91Din !
 PAR  TC(FCC_A1,CR:VA),,                -1109.00;,,                   N 91Din !
 PAR  BM(FCC_A1,CR:VA),,                   -2.46;,,                   N 91Din !
 PAR  G(HCP_A3,CR:VA),,                 +GHSERCR+4438;,,              N 91Din !
 PAR  TC(HCP_A3,CR:VA),,                -1109.00;,,                   N 91Din !
 PAR  BM(HCP_A3,CR:VA),,                   -2.46;,,                   N 91Din !
$PAR  G(CBCC_A12,CR:VA),,               +GHSERCR+11087+2.7196*T;,,    N 91Din !
$PAR  G(CUB_A13,CR:VA),,                +GHSERCR+15899+0.6276*T;,,    N 91Din !
 PAR  G(LIQUID,CR),,                    +GLIQCR;,,                    N 91Din !
$
 FUNCTION GHSERCR   298.15  -8856.94+157.48*T-26.908*T*LN(T)
       +0.00189435*T**2-1.47721E-06*T**3+139250*T**(-1);
      2180.00  Y  -34869.344+344.18*T-50*T*LN(T)-2.88526E+32*T**(-9);
      6000.00  N !
 FUNCTION GLIQCR    298.15  +24339.955-11.420225*T+GHSERCR+2.37615E-21*T**7;
      2180.00  Y  -16459.984+335.616316*T-50*T*LN(T);
      6000.00  N !
 FUNCTION GFCCCR    298.15  +GHSERCR+7284+0.163*T;                     6000 N !
$ ------------------------------------------------------------------------------
$ La
$
 PAR  G(DHCP,LA:VA),,                   +GHSERLA;                4000 N 91Din !
 PAR  G(FCC_A1,LA:VA),,                 +GFCCLA;                 4000 N 91Din !
 PAR  G(BCC_A2,LA:VA),,                 +GBCCLA;                 4000 N 91Din !
 PAR  G(LIQUID,LA),,                    +GLIQLA;                 4000 N 91Din !
$
 FUNCTION GHSERLA   298.15  -7968.403+120.284604*T-26.34*T*LN(T)
       -0.001295165*T**2;
       550.00  Y  -3381.413+59.06113*T-17.1659411*T*LN(T)
       -0.008371705*T**2+6.8932E-07*T**3-399448*T**(-1);
      2000.00  Y  -15608.882+181.390071*T-34.3088*T*LN(T);
      4000.00  N !
 FUNCTION GFCCLA    298.15  -6109.797+89.878761*T-21.7919*T*LN(T)
       -0.004045175*T**2-5.25865E-07*T**3;
      1134.00  Y  -124598.976+955.878375*T-139.346741*T*LN(T)
       +0.042032405*T**2-3.066199E-06*T**3+20994153*T**(-1);
      2000.00  Y  +3009.496-2.846081*T+GHSERLA;
      4000.00  N !
 FUNCTION GBCCLA    298.15  -3952.161+88.072353*T-21.7919*T*LN(T)
       -0.004045175*T**2-5.25865E-07*T**3;
       800.00  Y  +321682.673-3565.08252*T+513.440708*T*LN(T)
       -0.387295093*T**2+4.9547989E-05*T**3-36581228*T**(-1);
      1134.00  Y  -16377.894+218.492988*T-39.5388*T*LN(T);
      1193.00  Y  -136609.91+1123.34397*T-163.413074*T*LN(T)
       +0.053968535*T**2-4.056395E-06*T**3+21167204*T**(-1);
      2000.00  Y  +7402.894-6.553756*T+GHSERLA;
      4000.00  N !
 FUNCTION GLIQLA    298.15  +5332.653+18.23012*T-11.0188191*T*LN(T)
       -0.020171603*T**2+2.93775E-06*T**3-133541*T**(-1);
      1134.00  Y  -3942.004+171.018431*T-34.3088*T*LN(T);
      4000.00  N !
$ ------------------------------------------------------------------------------
$ Binary system
$
$ W. Chan, C. Gao, O.N. Dogan, P. King, A.D. Rollett,
$ J. Phase Equilib. Diffus., 30, 578-86(2009).
$
$ Checked against paper. Checked at 6000 K.
$
 PAR  L(LIQUID,CR,LA;0),,               +39000;,,                     N 09Cha !
 PAR  L(LIQUID,CR,LA;1),,               +14000;,,                     N 09Cha !
 PAR  L(LIQUID,CR,LA;2),,               -5000;,,                      N 09Cha !
$
 PAR  L(FCC_A1,CR,LA:VA;0),,            +20000;,,                     N 09Cha !
 PAR  L(FCC_A1,CR,LA:VA;2),,            +25000;,,                     N 09Cha !
$
 PAR  L(BCC_A2,CR,LA:VA;0),,            +40000;,,                     N 09Cha !
 PAR  L(BCC_A2,CR,LA:VA;2),,            +25000;,,                     N 09Cha !
$ ------------------------------------------------------------------------------
$
$
 LIST-OF-REFERENCE
 NUMBER  SOURCE
  Null   'Unknown source'
  Same   'Same or similar interaction as in the corresponding stable phase'
  REFLAV 'Laves phase convention: G(LAVES,X:X)=+3*GHSERXX+15000'
  91Din  'A.T. Dinsdale, Calphad, 15, 317-425(1991).'
  09Cha  'W. Chan, C. Gao, O.N. Dogan, P. King, A.D. Rollett,
          J. Phase Equilib. Diffus., 30, 578-86(2009); Cr-La'
!
