$
$ Database for Mg-Y from X. Wu et al. 2020.
$
$ X. Wu, C. Li, C. Guo, Z. Du, Calphad, 71, 102010(2020).
$
$ Dataset created 2023.03.25 by Bengt Hallstedt.
$
$ ------------------------------------------------------------------------------
 TEMP-LIM 298.15 6000.00 !
$
$ELEMENT NAME  REF. STATE               ATOMIC MASS H298-H0    S298    !
$
 ELEMENT VA   VACUUM                      0.0          0.0      0.0    ! 
 ELEMENT MG   HCP_A3                     24.305     4998.      32.671  !
 ELEMENT Y    HCP_A3                     88.9059    5983.457   44.7875 ! 
$ ------------------------------------------------------------------------------
$ Phase definitions
$
 PHASE LIQUID:L % 1 1 !
 CONST LIQUID:L : MG Y : !
$
$ Fcc (cF4, Fm-3m) and MeX (cF8, Fm-3m)
$
 PHASE FCC_A1 %A 2 1 1 !
 CONST FCC_A1 : MG Y : VA% : !
$
$ Bcc (cI2, Im-3m)
$
 PHASE BCC_A2 %B 2 1 3 !
 CONST BCC_A2 : MG Y% : VA% : !
$
$ Bcc (cI2, Im-3m), disordered part of B2_BCC, identical to BCC_A2
$
 PHASE A2_BCC %B 2 1 3 !
 CONST A2_BCC : MG Y% : VA% : !
$
$ Prototype CsCl (cP2, Pm-3m)
$
 PHASE B2_BCC %BO 3 0.5 0.5 3 !
 CONST B2_BCC : MG% Y : MG Y% : VA : !
$
$ Hcp (hP2, P6_3/mmc) and Me2X (NiAs-type, hP4, P6_3/mmc, B8_1)
$
 PHASE HCP_A3 %A 2 1 0.5 !
 CONST HCP_A3 : MG% Y% : VA : !
$
$ Hcp (hP2, P6_3/mmc), disordered part of MG7Y, identical to HCP_A3
$
 PHASE A3_HCP %A 2 1 0.5 !
 CONST A3_HCP : MG% Y% : VA : !
$
$ Coherent precipitate phase
$
 PHASE MG7Y %AP 3 0.875 0.125 0.5 !
 CONST MG7Y : MG% Y : MG Y% : VA : !
$
$ Prototype MgZn2 (hP12, P6_3/mmc)
$
 PHASE C14_LAVES % 2 2 1 !
 CONST C14_LAVES : MG% Y : MG Y% : !
$
$ Prototype alpha-Mn (cI58, I-43m)
$ Pauling file lists Re24Ti5 as prototype
$
 PHASE MG24Y5_A12 % 3 24 4 1 !
 CONST MG24Y5_A12 : MG : MG Y% : Y : !
$ ------------------------------------------------------------------------------
$ Defaults
$
 DEFINE-SYSTEM-DEFAULT ELEMENT 2 !
 DEFAULT-COM DEFINE_SYSTEM_ELEMENT VA !
 TYPE-DEF % SEQ * !
 TYPE-DEF A GES AMEND_PHASE_DESCRIPTION @ MAGNETIC -3 0.28 !
 TYPE-DEF B GES AMEND_PHASE_DESCRIPTION @ MAGNETIC -1 0.4 !
 TYPE-DEF O GES AMEND_PHASE_DESCRIPTION B2_BCC DIS_PART A2_BCC !
 TYPE-DEF P GES AMEND_PHASE_DESCRIPTION MG7Y DIS_PART A3_HCP !
 FUNCTION ZERO      298.15  0;                                         6000 N !
 FUNCTION UN_ASS    298.15  0;                                         6000 N !
 FUNCTION R         298.15  +8.31451;                                  6000 N !
$ ------------------------------------------------------------------------------
$ Element data
$ ------------------------------------------------------------------------------
$ Mg
$
 PAR  G(HCP_A3,MG:VA),,                 +GHSERMG;                3000 N 91Din !
 PAR  G(A3_HCP,MG:VA),,                 +GHSERMG;                3000 N 91Din !
 PAR  G(FCC_A1,MG:VA),,                 +GHSERMG+2600-0.9*T;     3000 N 91Din !
 PAR  G(BCC_A2,MG:VA),,                 +GHSERMG+3100-2.1*T;     3000 N 91Din !
 PAR  G(A2_BCC,MG:VA),,                 +GHSERMG+3100-2.1*T;     3000 N 91Din !
 PAR  G(LIQUID,MG),,                    +GLIQMG;                 3000 N 91Din !
$
 PAR  G(C14_LAVES,MG:MG),,              +3*GHSERMG+15000;,,           N REFLAV !
$
 FUNCTION GHSERMG   298.15  -8367.34+143.675547*T-26.1849782*T*LN(T)
       +4.858E-04*T**2-1.393669E-06*T**3+78950*T**(-1);
       923.00  Y  -14130.185+204.716215*T-34.3088*T*LN(T)+1.038192E+28*T**(-9);
      3000.00  N !
 FUNCTION GLIQMG    298.15  +8202.243-8.83693*T+GHSERMG-8.0176E-20*T**7;
       923.00  Y  -5439.869+195.324057*T-34.3088*T*LN(T);
      3000.00  N !
$ ------------------------------------------------------------------------------
$ Y
$
$ HCP_A3, BCC_A2 and LIQUID revised in unary 3.0
$ FCC_A1 added in unary 4.1
$
 PAR  G(HCP_A3,Y:VA)            100.00  +GHSERYY;                3700 N 95She3 !
 PAR  G(A3_HCP,Y:VA)            100.00  +GHSERYY;                3700 N 95She3 !
 PAR  G(BCC_A2,Y:VA)            100.00  +GBCCYY;                 3700 N 95She3 !
 PAR  G(A2_BCC,Y:VA)            100.00  +GBCCYY;                 3700 N 95She3 !
 PAR  G(FCC_A1,Y:VA)            100.00  +GHSERYY+6000;           3700 N Frie2 !
 PAR  G(LIQUID,Y)               100.00  +GLIQYY;                 3700 N 95She3 !
$
 PAR  G(C14_LAVES,Y:Y),,                +3*GHSERYY+15000;,,           N REFLAV !
$
 FUNCTION GHSERYY   100.00  -8011.09379+128.572856*T-25.6656992*T*LN(T)
       -0.00175716414*T**2-4.17561786E-07*T**3+26911.509*T**(-1);
      1000.00  Y  -7179.74574+114.497104*T-23.4941827*T*LN(T)
       -0.0038211802*T**2-8.2534534E-08*T**3;
      1795.15  Y  -67480.7761+382.124727*T-56.9527111*T*LN(T)
       +0.00231774379*T**2-7.22513088E-08*T**3+18077162.6*T**(-1);
      3700.00  N !
 FUNCTION GBCCYY    100.00  -833.658863+123.667346*T-25.5832578*T*LN(T)
       -0.00237175965*T**2+9.10372497E-09*T**3+27340.0687*T**(-1);
      1000.00  Y  -1297.79829+134.528352*T-27.3038477*T*LN(T)
       -5.41757644E-04*T**2-3.05012175E-07*T**3;
      1795.15  Y  +15389.4975+0.981325399*T-8.88296647*T*LN(T)
       -0.00904576576*T**2+4.02944768E-07*T**3-2542575.96*T**(-1);
      3700.00  N !
 FUNCTION GLIQYY    100.00  +2098.50738+119.41873*T-24.6467508*T*LN(T)
       -0.00347023463*T**2-8.12981167E-07*T**3+23713.7332*T**(-1);
      1000.00  Y  +7386.44846+19.4520171*T-9.0681627*T*LN(T)
       -0.0189533369*T**2+1.7595327E-06*T**3;
      1795.15  Y  -12976.5957+257.400783*T-43.0952*T*LN(T);
      3700.00  N !
$ ------------------------------------------------------------------------------
$ Binary system
$
$ X. Wu, C. Li, C. Guo, Z. Du, Calphad, 71, 102010(2020).
$
$ Checked against paper and author's tdb. Checked at 6000 K.
$
 PAR  L(LIQUID,MG,Y;0),,                -40495.302+17.565*T;,,        N 20Wu !
 PAR  L(LIQUID,MG,Y;1),,                -17226.994+4.71*T;,,          N 20Wu !
$
 PAR  L(BCC_A2,MG,Y:VA;0),,             -46244.4605+22.52*T;,,        N 20Wu !
 PAR  L(BCC_A2,MG,Y:VA;1),,             -6267.1494+T;,,               N 20Wu !
$
 PAR  L(A2_BCC,MG,Y:VA;0),,             -46244.4605+22.52*T;,,        N 20Wu !
 PAR  L(A2_BCC,MG,Y:VA;1),,             -6267.1494+T;,,               N 20Wu !
$
 PAR  G(B2_BCC,MG:Y:VA),,               -9736.5+3.18*T;,,             N 20Wu !
 PAR  G(B2_BCC,Y:MG:VA),,               -9736.5+3.18*T;,,             N 20Wu !
 PAR  L(B2_BCC,MG,Y:MG:VA;0),,          -33212.9;,,                   N 20Wu !
 PAR  L(B2_BCC,MG:MG,Y:VA;0),,          -33212.9;,,                   N 20Wu !
 PAR  L(B2_BCC,MG,Y:MG:VA;1),,          -19857.3;,,                   N 07Men !
 PAR  L(B2_BCC,MG:MG,Y:VA;1),,          -19857.3;,,                   N 07Men !
 PAR  L(B2_BCC,MG,Y:Y:VA;0),,           +50235.3;,,                   N 20Wu !
 PAR  L(B2_BCC,Y:MG,Y:VA;0),,           +50235.3;,,                   N 20Wu !
 PAR  L(B2_BCC,MG,Y:Y:VA;1),,           -4051.5;,,                    N 07Men !
 PAR  L(B2_BCC,Y:MG,Y:VA;1),,           -4051.5;,,                    N 07Men !
$
 PAR  L(HCP_A3,MG,Y:VA;0),,             -25342+13.6079*T;,,           N 20Wu !
 PAR  L(HCP_A3,MG,Y:VA;1),,             -6580.67+2.0588*T;,,          N 20Wu !
$
 PAR  L(A3_HCP,MG,Y:VA;0),,             -25342+13.6079*T;,,           N 20Wu !
 PAR  L(A3_HCP,MG,Y:VA;1),,             -6580.67+2.0588*T;,,          N 20Wu !
$
 PAR  G(MG7Y,MG:Y:VA),,                 +U2MGY;,,                     N 20Wu !
 PAR  G(MG7Y,Y:MG:VA),,                 +U1MGY;,,                     N 20Wu !
 PAR  L(MG7Y,MG,Y:MG:VA;0),,            +4.8333*U1MGY+7*U2MGY
             +7*U3MGY;,,                                              N 20Wu !
 PAR  L(MG7Y,MG,Y:Y:VA;0),,             +7*U1MGY+4.8333*U2MGY
             +7*U3MGY;,,                                              N 20Wu !
 PAR  L(MG7Y,MG:MG,Y:VA;0),,            +0.8333*U1MGY+U3MGY;,,        N 20Wu !
 PAR  L(MG7Y,Y:MG,Y:VA;0),,             +0.8333*U2MGY+U3MGY;,,        N 20Wu !
 PAR  L(MG7Y,MG,Y:MG:VA;1),,            -7*U5MGY;,,                   N 20Wu !
 PAR  L(MG7Y,MG,Y:Y:VA;1),,             -7*U4MGY;,,                   N 20Wu !
 PAR  L(MG7Y,MG:MG,Y:VA;1),,            -U5MGY;,,                     N 20Wu !
 PAR  L(MG7Y,Y:MG,Y:VA;1),,             -U4MGY;,,                     N 20Wu !
 PAR  L(MG7Y,MG,Y:MG,Y:VA;0),,          +8*U4MGY-8*U5MGY;,,           N 20Wu !
$
 PAR  G(C14_LAVES,MG:Y),,               +2*GHSERMG+GHSERYY
             -35796.954+4.7331*T;,,                                   N 20Wu !
 PAR  G(C14_LAVES,Y:MG),,               +GHSERMG+2*GHSERYY
             +58590+1.5465*T;,,                                       N 20Wu !
 PAR  L(C14_LAVES,MG,Y:MG;0),,          -38400+62.9571*T;,,           N 20Wu !
 PAR  L(C14_LAVES,MG,Y:Y;0),,           -38400+62.9571*T;,,           N 20Wu !
 PAR  L(C14_LAVES,MG:MG,Y;0),,          -23850+9.3681*T;,,            N 20Wu !
 PAR  L(C14_LAVES,Y:MG,Y;0),,           -23850+9.3681*T;,,            N 20Wu !
$
 PAR  G(MG24Y5_A12,MG:MG:Y),,           +28*GHSERMG+GHSERYY
             -28230.34+24.7805*T;,,                                   N 20Wu !
 PAR  G(MG24Y5_A12,MG:Y:Y),,            +24*GHSERMG+5*GHSERYY
             -250508.757+60.7579*T;,,                                 N 20Wu !
$
$ Metastable
$
 PAR  L(FCC_A1,MG,Y:VA;0),,             -25342+13.6079*T;,,           N Same !
 PAR  L(FCC_A1,MG,Y:VA;1),,             -6580.67+2.0588*T;,,          N Same !
$
 FUNCTION U1MGY     298.15  +0.18*U2MGY;                               6000 N !
 FUNCTION U2MGY     298.15  -16426-14.854*T;                           6000 N !
 FUNCTION U3MGY     298.15  -1.5*U1MGY+0.3*U2MGY-0.8333*U1MGY;         6000 N !
 FUNCTION U4MGY     298.15  +U5MGY;                                    6000 N !
 FUNCTION U5MGY     298.15  -806.5+1.2619*T;                           6000 N !
$ ------------------------------------------------------------------------------
$
 ASSESSED_SYSTEM
  MG-Y(TDB -* +LIQUID +A2_BCC +B2_BCC +HCP_A3 +MG24Y5_A12 +C14_LAVES 
  ;G5 C_S:BCC_B2/MG:Y:VA MAJ:BCC_B2/Y:Y:VA ;P3 TMM:300/2300 STP:0.4/1200) !
$
$
 LIST-OF-REFERENCE
 NUMBER  SOURCE
  Null   'Unknown source'
  Same   'Same or similar interaction as in the corresponding stable phase'
  REFLAV 'Laves phase convention: G(LAVES,X:X)=+3*GHSERXX+15000'
  COST   'COST 507 database'
  Frie2  'Suzana Fries and Leo Lukas, unpublished,
          SGTE unary database V.4.1, 1999; Y'
  91Din  'A.T. Dinsdale, Calphad, 15, 317-425(1991).'
  95She3 'H. Shen, W. Zhang, G. Liu, R. Wang, Z. Du, Report F-95-03,
          University of Science and Technology, Beijing, May 1995,
          SGTE unary database V.3.0, 1996; Y'
  07Men  'F. Meng, H. Liu, L. Liu, Z. Jin,
          Trans. Nonferrous Met. Soc. China, 17, 77-81(2007); Mg-Y'
  20Wu   'X. Wu, C. Li, C. Guo, Z. Du, Calphad, 71, 102010(2020); Mg-Y'
!
