$
$ Database for Co-Fe from J.E. Rodriguez and D.M. Matson 2015.
$
$ J.E. Rodriguez, D.M. Matson, Calphad, 49, 87-100(2015).
$
$ Dataset created 2019.06.11 by Bengt Hallstedt.
$ 2020.12.25: Modified for use with GES6.
$
$ NOTE! Co and Fe unary data have been changed. I.e. this is not compatible
$ with other datasets.
$
$ ------------------------------------------------------------------------------
 TEMP-LIM 298.15 6000.00 !
$
$ELEMENT NAME  REF. STATE               ATOMIC MASS H298-H0    S298    !
$
 ELEMENT VA   VACUUM                      0.0          0.0      0.0    ! 
 ELEMENT CO   HCP_A3                     58.9332    4765.567   30.0400 ! 
 ELEMENT FE   BCC_A2                     55.847     4489.0     27.2797 ! 
$ ------------------------------------------------------------------------------
$ Phase definitions
$
 PHASE LIQUID:L % 1 1 !
 CONST LIQUID:L : CO FE : !
$
$ Fcc (cF4, Fm-3m) and MeX (cF8, Fm-3m)
$
 PHASE FCC_A1 %A 2 1 1 !
 CONST FCC_A1 : CO% FE% : VA : !
$
$ Bcc (cI2, Im-3m)
$
 PHASE BCC_A2 %B 2 1 3 !
 CONST BCC_A2 : CO FE% : VA : !
$
$ Hcp (hP2, P6_3/mmc) and Me2X (NiAs-type, hP4, P6_3/mmc, B8_1)
$
 PHASE HCP_A3 %A 2 1 0.5 !
 CONST HCP_A3 : CO% FE : VA : !
$ ------------------------------------------------------------------------------
$ Defaults
$
 DEFINE-SYSTEM-DEFAULT ELEMENT 2 !
 DEFAULT-COM DEFINE_SYSTEM_ELEMENT VA !
 TYPE-DEF % SEQ * !
 TYPE-DEF A GES AMEND_PHASE_DESCRIPTION @ MAGNETIC -3 0.28 !
 TYPE-DEF B GES AMEND_PHASE_DESCRIPTION @ MAGNETIC -1 0.4 !
 FUNCTION ZERO      298.15  0;                                         6000 N !
 FUNCTION UN_ASS    298.15  0;                                         6000 N !
 FUNCTION R         298.15  +8.31451;                                  6000 N !
$ ------------------------------------------------------------------------------
$ Element data
$ ------------------------------------------------------------------------------
$ Co
$
 PAR  G(HCP_A3,CO:VA),,                 +GHSERCO;,,                   N 15Rod !
 PAR  TC(HCP_A3,CO:VA),,                 1396.00;,,                   N 91Din !
 PAR  BM(HCP_A3,CO:VA),,                    1.35;,,                   N 91Din !
 PAR  G(FCC_A1,CO:VA),,                 +GFCCCO;,,                    N 15Rod !
 PAR  TC(FCC_A1,CO:VA),,                 1396.00;,,                   N 91Din !
 PAR  BM(FCC_A1,CO:VA),,                    1.35;,,                   N 91Din !
 PAR  G(BCC_A2,CO:VA),,                 +GBCCCO;,,                    N 15Rod !
 PAR  TC(BCC_A2,CO:VA),,                 1450.00;,,                   N 91Din !
 PAR  BM(BCC_A2,CO:VA),,                    1.35;,,                   N 91Din !
 PAR  G(LIQUID,CO),,                    +GLIQCO;,,                    N 15Rod !
$
 FUNCTION GHSERCO   298.15  +310.241+133.36601*T-25.0861*T*LN(T)
       -0.002654739*T**2-1.7348E-07*T**3+72527*T**(-1);
      1766.90  Y  -27954.625499+300.284842*T-45.98*T*LN(T)
       +2.73811289E+31*T**(-9);
      6000.00  N !
 FUNCTION GFCCCO   298.15  +737.832+132.750762*T-25.0861*T*LN(T)
       -0.002654739*T**2-1.7348E-07*T**3+72527*T**(-1);
      1766.90  Y  -27527.034499+299.669594*T-45.98*T*LN(T)
       +2.73811289E+31*T**(-9);
      6000.00  N !
 FUNCTION GBCCCO   298.15  +3220.371842+131.98244*T-25.0861*T*LN(T)
       -0.002654739*T**2-1.7348E-07*T**3+72527*T**(-1);
      1766.90  Y  -25044.494656+298.901272*T-45.98*T*LN(T)
       +2.73811289E+31*T**(-9);
      6000.00  N !
 FUNCTION GLIQCO    298.15  +12746.715508+126.057218*T-25.0861*T*LN(T)
       -0.002654739*T**2-1.7348E-07*T**3+72527*T**(-1)-6.4701028E-21*T**7;
      1766.90  Y  -11799.7+290.767*T-45.98*T*LN(T);
      6000.00  N !
$ ------------------------------------------------------------------------------
$ Fe
$
 PAR  G(BCC_A2,FE:VA),,                 +GHSERFE;,,                   N 15Rod !
 PAR  TC(BCC_A2,FE:VA),,                 1043.00;,,                   N 91Din !
 PAR  BM(BCC_A2,FE:VA),,                    2.22;,,                   N 91Din !
 PAR  G(FCC_A1,FE:VA),,                 +GFCCFE;,,                    N 15Rod !
 PAR  TC(FCC_A1,FE:VA),,                 -201.00;,,                   N 91Din !
 PAR  BM(FCC_A1,FE:VA),,                   -2.10;,,                   N 91Din !
 PAR  G(HCP_A3,FE:VA),,                 +GHCPFE;,,                    N 15Rod !
 PAR  G(LIQUID,FE),,                    +GLIQFE;,,                    N 15Rod !
$
 FUNCTION GHSERFE   298.15  +1225.7+124.131*T-23.5143*T*LN(T)
       -0.00439752*T**2-5.8927E-08*T**3+77359*T**(-1);
      1809.00  Y  -25375.52878+299.305549*T-46*T*LN(T)+2.27924512E+31*T**(-9);
      6000.00  N !
 FUNCTION GFCCFE    298.15  -236.7+132.416*T-24.6643*T*LN(T)
       -0.00375752*T**2-5.8927E-08*T**3+77359*T**(-1);
      1809.00  Y  -27086.23614+300.247012*T-46*T*LN(T)+2.76527491E+31*T**(-9);
      6000.00  N !
 FUNCTION GHCPFE    298.15  -2480.08+136.725*T-24.6643*T*LN(T)
       -0.00375752*T**2-5.8927E-08*T**3+77359*T**(-1);
      1809.00  Y  -29329.61614+304.556012*T-46*T*LN(T)+2.76527491E+31*T**(-9);
      6000.00  N !
 FUNCTION GLIQFE    298.15  +13228.658797+117.586673*T-23.5143*T*LN(T)
       -0.00439752*T**2-5.8927E-08*T**3+77359*T**(-1)-3.72027306E-21*T**7;
      1809.00  Y  -10858.83+291.302*T-46*T*LN(T);
      6000.00  N !
$ ------------------------------------------------------------------------------
$ Binary system
$
$ J.E. Rodriguez, D.M. Matson, Calphad, 49, 87-100(2015).
$
$ Checked against paper. Checked at 6000 K.
$
$ NOTE! Co and Fe unary data have been changed. I.e. this is not compatible
$ with other datasets.
$
 PAR  L(LIQUID,CO,FE;0),,               -8385.97986;,,                N 15Rod !
 PAR  L(LIQUID,CO,FE;1),,               -1381.69775;,,                N 15Rod !
$
 PAR  L(FCC_A1,CO,FE:VA;0),,            -7776.797199;,,               N 15Rod !
 PAR  L(FCC_A1,CO,FE:VA;1),,            -4177.993893+1.326825*T;,,    N 15Rod !
 PAR  TC(FCC_A1,CO,FE:VA;0),,            +283;,,                      N 87Fer2 !
 PAR  TC(FCC_A1,CO,FE:VA;1),,            +879;,,                      N 87Fer2 !
 PAR  BM(FCC_A1,CO,FE:VA;0),,              +9.74;,,                   N 87Fer2 !
 PAR  BM(FCC_A1,CO,FE:VA;1),,              -3.516;,,                  N 87Fer2 !
$
 PAR  L(BCC_A2,CO,FE:VA;0),,            -29437.347+164.217752*T
             -20.32034*T*LN(T);,,                                     N 15Rod !
 PAR  L(BCC_A2,CO,FE:VA;1),,            -1158.60079;,,                N 15Rod !
 PAR  TC(BCC_A2,CO,FE:VA;0),,            +590;,,                      N 87Fer2 !
 PAR  BM(BCC_A2,CO,FE:VA;0),,              +2.4127;,,                 N 87Fer2 !
 PAR  BM(BCC_A2,CO,FE:VA;1),,              +0.2418;,,                 N 87Fer2 !
$
 PAR  L(HCP_A3,CO,FE:VA;0),,            +1281.801529;,,               N 15Rod !
 PAR  L(HCP_A3,CO,FE:VA;1),,            -4914.888372;,,               N 15Rod !
 PAR  TC(HCP_A3,CO,FE:VA;0),,            -253;,,                      N 87Fer2 !
 PAR  TC(HCP_A3,CO,FE:VA;1),,           +1494;,,                      N 87Fer2 !
 PAR  BM(HCP_A3,CO,FE:VA;0),,              +5.41;,,                   N 87Fer2 !
 PAR  BM(HCP_A3,CO,FE:VA;1),,              -0.24;,,                   N 87Fer2 !
$ ------------------------------------------------------------------------------
$
 ASSESSED_SYSTEM
  CO-FE(TDB -* +LIQ +HCP_A3 +FCC_A1 +BCC_A2 ;P3 TMM:300/2000 STP:.5/1500/2/-2) !
$
$
 LIST-OF-REFERENCE
 NUMBER  SOURCE
  Null   'Unknown source'
  REFLAV 'Laves phase convention: G(LAVES,X:X)=+3*GHSERXX+15000'
  87Fer2 'A. Fernandez Guillermet,
          High Temp. High Press., 19, 477-99(1987); Co-Fe'
  91Din  'A.T. Dinsdale, Calphad, 15, 317-425(1991).'
  99SGUN 'SGTE unary database V.4.1, 1999.'
  15Rod  'J.E. Rodriguez, D.M. Matson, Calphad, 49, 87-100(2015); Co-Fe'
!
