$
$ Database for Al-Ni from H.-L. Chen et al. 2011.
$
$ H.-L. Chen, E. Doernberg, P. Svoboda, R. Schmid-Fetzer,
$ Thermochim. Acta, 512, 189-95(2011).
$
$ Dataset created 2021.04.11 by Bengt Hallstedt.
$
$ Revision based on the original 01Dup dataset.
$
$ The congruent melting temperature of B2 is decreased from 1953 K to 1912 K,
$ which seems to be in better agreement with experimental data.
$
$ ------------------------------------------------------------------------------
 TEMP-LIM 298.15 6000.00 !
$
$ELEMENT NAME  REF. STATE               ATOMIC MASS H298-H0    S298    !
$
 ELEMENT VA   VACUUM                      0.0          0.0      0.0    ! 
 ELEMENT AL   FCC_A1                     26.98154   4540.      28.30   ! 
 ELEMENT NI   FCC_A1                     58.69      4787.0     29.7955 ! 
$ ------------------------------------------------------------------------------
$ Phase definitions
$
 PHASE LIQUID:L % 1 1 !
 CONST LIQUID:L : AL NI : !
$
$ Fcc (cF4, Fm-3m) and MeX (cF8, Fm-3m)
$
 PHASE FCC_A1 %A 2 1 1 !
 CONST FCC_A1 : AL NI : VA : !
$
$ Disordered part of L12_FCC, identical to FCC_A1
$
 PHASE A1_FCC %A 2 1 1 !
 CONST A1_FCC : AL NI : VA : !
$
$ Prototype AuCu3 (cP4, Pm-3m)
$
 PHASE L12_FCC %AY 3 0.75 0.25 1 !
 CONST L12_FCC : AL NI% : AL% NI : VA :  !
$
$ Bcc (cI2, Im-3m)
$
 PHASE BCC_A2 %B 2 1 3 !
 CONST BCC_A2 : AL NI : VA : !
$
$ Prototype CsCl (cP2, Pm-3m)
$
 PHASE B2_BCC %B 2 1 1 !
 CONST B2_BCC : AL% NI VA : AL NI% VA : !
$
$ Hcp (hP2, P6_3/mmc) and Me2X (NiAs-type, hP4, P6_3/mmc, B8_1)
$
 PHASE HCP_A3 %A 2 1 0.5 !
 CONST HCP_A3 : AL NI : VA : !
$
$ Prototype Fe3C (oP16, Pnma)
$
 PHASE AL3NI_D011 % 2 3 1 !
 CONST AL3NI_D011 : AL : NI : !
$
$ Prototype Al3Ni2 (hP5, P-3m1)
$
 PHASE AL3NI2_D513 % 3 3 2 1 !
 CONST AL3NI2_D513 : AL : AL NI% : NI VA% : !
$
$ Prototype Ga3Pt5 (oC16, Cmmm)
$
 PHASE AL3NI5 % 2 0.375 0.625 !
 CONST AL3NI5 : AL : NI : !
$ ------------------------------------------------------------------------------
$ Defaults
$
 DEFINE-SYSTEM-DEFAULT ELEMENT 2 !
 DEFAULT-COM DEFINE_SYSTEM_ELEMENT VA !
 TYPE-DEF % SEQ * !
 TYPE-DEF A GES AMEND_PHASE_DESCRIPTION @ MAGNETIC -3 0.28 !
 TYPE-DEF B GES AMEND_PHASE_DESCRIPTION @ MAGNETIC -1 0.4 !
 TYPE-DEF Y GES AMEND_PHASE_DESCRIPTION L12_FCC DIS_PART A1_FCC !
 DEFAULT-COM REJECT_PHASE FCC_A1 BCC_A2 !
 FUNCTION ZERO      298.15  0;                                         6000 N !
 FUNCTION UN_ASS    298.15  0;                                         6000 N !
 FUNCTION R         298.15  +8.31451;                                  6000 N !
$ ------------------------------------------------------------------------------
$ Element data
$ ------------------------------------------------------------------------------
$ Al
$
$ BCT_A5 and DIAMOND_A4 added in unary 3.0
$
 PAR  G(FCC_A1,AL:VA),,                 +GHSERAL;                2900 N 91Din !
 PAR  G(A1_FCC,AL:VA),,                 +GHSERAL;                2900 N 91Din !
 PAR  G(BCC_A2,AL:VA),,                 +GHSERAL+10083-4.813*T;  2900 N 91Din !
 PAR  G(HCP_A3,AL:VA),,                 +GHSERAL+5481-1.8*T;     2900 N 91Din !
$PAR  G(CBCC_A12,AL:VA),,               +GHSERAL
$            +10083.4-4.813*T;                                   2900 N 91Din !
$PAR  G(CUB_A13,AL:VA),,                +GHSERAL
$            +10920.44-4.8116*T;                                 2900 N 91Din !
$PAR  G(BCT_A5,AL),,                    +GHSERAL+10083-4.813*T;  2900 N SGCOST !
$PAR  G(DIAMOND_A4,AL),,                +GHSERAL+30*T;           2900 N SGCOST !
 PAR  G(LIQUID,AL),,                    +GLIQAL;                 2900 N 91Din !
$
 PAR  G(B2_BCC,AL:AL),,                 +2*GBCCAL;,,                  N 11Che !
 PAR  G(B2_BCC,AL:VA),,                 +GBCCAL+7638.9;,,             N 11Che !
 PAR  G(B2_BCC,VA:AL),,                 +GBCCAL+7638.9;,,             N 11Che !
 PAR  G(AL3NI2_D513,AL:AL:VA),,         +5*GBCCAL+30000;,,            N 11Che !
$
 FUNCTION GHSERAL   298.15  -7976.15+137.093038*T-24.3671976*T*LN(T)
       -0.001884662*T**2-8.77664E-07*T**3+74092*T**(-1);
       700.00  Y  -11276.24+223.048446*T-38.5844296*T*LN(T)
       +0.018531982*T**2 -5.764227E-06*T**3+74092*T**(-1);
       933.47  Y  -11278.361+188.684136*T-31.748192*T*LN(T)
       -1.230622E+28*T**(-9);
      2900.00  N !
 FUNCTION GLIQAL    298.15  +11005.045-11.84185*T+GHSERAL+7.9337E-20*T**7;
       933.47  Y  -795.991+177.430209*T-31.748192*T*LN(T);
      2900.00  N !
 FUNCTION GBCCAL    298.15  +GHSERAL+10083-4.813*T;                    2900 N !
$
$ In the original 99Dup publication GB2ALVA=10-0.001*T and LB2ALVA=100000.
$ In 97Ans GB2ALVA=1000-T
$ In the LB database LB2ALVA=150000
$ and in AlFeNiTi-bosse-0701.TDB LB2ALVA=200000
 FUNCTION B2ALVA    298.15  +10000-T;                                  6000 N !
 FUNCTION LB2ALVA   298.15  +150000;                                   6000 N !
$ ------------------------------------------------------------------------------
$ Ni
$
$ FCC_A1 and LIQUID modified in unary 5.0 (slight change in upper T interval)
$ BCT_A5 added in unary 5.0
$
 PAR  G(FCC_A1,NI:VA),,                 +GHSERNI;                3000 N 91Din !
 PAR  TC(FCC_A1,NI:VA),,                  633.00;                3000 N 91Din !
 PAR  BM(FCC_A1,NI:VA),,                    0.52;                3000 N 91Din !
 PAR  G(A1_FCC,NI:VA),,                 +GHSERNI;                3000 N 91Din !
 PAR  TC(A1_FCC,NI:VA),,                  633.00;                3000 N 91Din !
 PAR  BM(A1_FCC,NI:VA),,                    0.52;                3000 N 91Din !
 PAR  G(BCC_A2,NI:VA),,                 +GHSERNI
             +8715.084-3.556*T;                                  3000 N 91Din !
 PAR  TC(BCC_A2,NI:VA),,                  575.00;                3000 N 91Din !
 PAR  BM(BCC_A2,NI:VA),,                    0.85;                3000 N 91Din !
 PAR  G(HCP_A3,NI:VA),,                 +GHSERNI+1046+1.255*T;   3000 N 91Din !
 PAR  TC(HCP_A3,NI:VA),,                  633.00;                3000 N 91Din !
 PAR  BM(HCP_A3,NI:VA),,                    0.52;                3000 N 91Din !
$PAR  G(BCT_A5,NI),,                    +GHSERNI+10023-4.556*T;  3000 N 99Gho !
$PAR  G(CBCC_A12,NI:VA),,               +GHSERNI+3556;           3000 N 91Din !
$PAR  G(CUB_A13,NI:VA),,                +GHSERNI+2092;           3000 N 91Din !
 PAR  G(LIQUID,NI),,                    +GLIQNI;                 3000 N 91Din !
$
 PAR  G(B2_BCC,NI:NI),,                 +2*GBCCNI;,,                  N 11Che !
 PAR  G(B2_BCC,NI:VA),,                 +GBCCNI+68917.3;,,            N 11Che !
 PAR  G(B2_BCC,VA:NI),,                 +GBCCNI+68917.3;,,            N 11Che !
$
 FUNCTION GHSERNI   298.15  -5179.159+117.854*T-22.096*T*LN(T)-0.0048407*T**2;
      1728.00  Y  -27840.62+279.134977*T-43.1*T*LN(T)+1.12754E+31*T**(-9);
      3000.00  N !
 FUNCTION GLIQNI    298.15  +16414.686-9.397*T+GHSERNI-3.82318E-21*T**7;
      1728.00  Y  -9549.817+268.597977*T-43.1*T*LN(T);
      3000.00  N !
 FUNCTION GBCCNI    298.15  +GHSERNI+8715.084-3.556*T;                 3000 N !
$
 FUNCTION B2NIVA    298.15  +162397.3-27.40575*T;                      6000 N !
 FUNCTION LB2NIVA   298.15  -64024.38+26.49419*T;                      6000 N !
$ ------------------------------------------------------------------------------
$ Va
$
 PAR  G(B2_BCC,VA:VA),,                 +120000;,,                    N 11Che !
$ ------------------------------------------------------------------------------
$ Binary system
$
$ H.-L. Chen, E. Doernberg, P. Svoboda, R. Schmid-Fetzer,
$ Thermochim. Acta, 512, 189-95(2011).
$
$ Checked against paper. Checked at 6000 K.
$
$ Revision based on the original 01Dup dataset.
$
$ The congruent melting temperature of B2 is decreased from 1953 K to 1912 K,
$ which seems to be in better agreement with experimental data.
$
 PAR  L(LIQUID,AL,NI;0),,               -193695.7+32.915*T;,,         N 11Che !
 PAR  L(LIQUID,AL,NI;1),,               +15987.4-12.7821*T;,,         N 11Che !
 PAR  L(LIQUID,AL,NI;2),,               +48276.4-16.4441*T;,,         N 11Che !
$
 PAR  L(FCC_A1,AL,NI:VA;0),,            -162407.75+16.212965*T;,,     N 97Ans !
 PAR  L(FCC_A1,AL,NI:VA;1),,            +73417.798-34.914168*T;,,     N 97Ans !
 PAR  L(FCC_A1,AL,NI:VA;2),,            +33471.014-9.8373558*T;,,     N 97Ans !
 PAR  L(FCC_A1,AL,NI:VA;3),,            -30758.01+10.25267*T;,,       N 97Ans !
 PAR  TC(FCC_A1,AL,NI:VA;0),,           -1112;,,                      N 01Dup !
 PAR  TC(FCC_A1,AL,NI:VA;1),,           +1745;,,                      N 01Dup !
 PAR  L(A1_FCC,AL,NI:VA;0),,            -162407.75+16.212965*T;,,     N 97Ans !
 PAR  L(A1_FCC,AL,NI:VA;1),,            +73417.798-34.914168*T;,,     N 97Ans !
 PAR  L(A1_FCC,AL,NI:VA;2),,            +33471.014-9.8373558*T;,,     N 97Ans !
 PAR  L(A1_FCC,AL,NI:VA;3),,            -30758.01+10.25267*T;,,       N 97Ans !
 PAR  TC(A1_FCC,AL,NI:VA;0),,           -1112;,,                      N 01Dup !
 PAR  TC(A1_FCC,AL,NI:VA;1),,           +1745;,,                      N 01Dup !
$
 PAR  G(L12_FCC,NI:AL:VA),,             +ALNI3;,,                     N 01Dup !
 PAR  G(L12_FCC,AL:NI:VA),,             +AL3NI;,,                     N 01Dup !
 PAR  L(L12_FCC,AL,NI:AL:VA;0),,        -1.5*ALNI3+1.5*AL2NI2
             +1.5*AL3NI;,,                                            N 01Dup !
 PAR  L(L12_FCC,AL,NI:AL:VA;1),,        +0.5*ALNI3-1.5*AL2NI2
             +1.5*AL3NI;,,                                            N 01Dup !
 PAR  L(L12_FCC,AL,NI:NI:VA;0),,        +1.5*ALNI3+1.5*AL2NI2
             -1.5*AL3NI;,,                                            N 01Dup !
 PAR  L(L12_FCC,AL,NI:NI:VA;1),,        -1.5*ALNI3+1.5*AL2NI2
             -0.5*AL3NI;,,                                            N 01Dup !
 PAR  L(L12_FCC,*:AL,NI:VA;1),,         +L14ALNI;,,                   N 01Dup !
 PAR  L(L12_FCC,AL,NI:*:VA;1),,         +3*L14ALNI;,,                 N 01Dup !
$
 PAR  L(BCC_A2,AL,NI:VA;0),,            +B2ALNI+LB2ALNI;,,            N 99Dup !
$
 PAR  G(B2_BCC,AL:NI),,                 +GBCCAL+GBCCNI
             -152331.3+26.2275*T;,,                                   N 11Che !
 PAR  G(B2_BCC,NI:AL),,                 +GBCCAL+GBCCNI
             -152331.3+26.2275*T;,,                                   N 11Che !
 PAR  G(B2_BCC,AL,NI:*;0),,             -52153.3+11.7115*T;,,         N 11Che !
 PAR  G(B2_BCC,*:AL,NI;0),,             -52153.3+11.7115*T;,,         N 11Che !
 PAR  G(B2_BCC,AL,VA:*;0),,             +67628+33.7081*T;,,           N 11Che !
 PAR  G(B2_BCC,*:AL,VA;0),,             +67628+33.7081*T;,,           N 11Che !
 PAR  G(B2_BCC,NI,VA:*;0),,             -61329.7+26.5974*T;,,         N 11Che !
 PAR  G(B2_BCC,*:NI,VA;0),,             -61329.7+26.5974*T;,,         N 11Che !
$
 PAR  G(AL3NI_D011,AL:NI;0),,           +4*GAL3NI;,,                  N 11Che !
$
 PAR  G(AL3NI2_D513,AL:AL:NI),,         +5*GBCCAL+GBCCNI;,,           N 11Che !
 PAR  G(AL3NI2_D513,AL:NI:NI),,         +3*GBCCAL+3*GBCCNI
             -427255.7+87.5918*T;,,                                   N 11Che !
 PAR  G(AL3NI2_D513,AL:NI:VA),,         +3*GBCCAL+2*GBCCNI
             -358691.5+69.9029*T;,,                                   N 11Che !
 PAR  L(AL3NI2_D513,AL:AL,NI:*;0),,     -50691.7;,,                   N 11Che !
 PAR  L(AL3NI2_D513,AL:*:NI,VA;0),,     -33608.5;,,                   N 11Che !
$
 PAR  G(AL3NI5,AL:NI;0),,               +0.375*GHSERAL+0.625*GHSERNI
             -55507.9+7.18*T;,,                                       N 11Che !
$
$ metastable
$
 PAR  L(HCP_A3,AL,NI:VA;0),,            -162407.75+16.212965*T;,,     N 95Dup4 !
 PAR  L(HCP_A3,AL,NI:VA;1),,            +73417.798-34.914168*T;,,     N 95Dup4 !
 PAR  L(HCP_A3,AL,NI:VA;2),,            +33471.014-9.8373558*T;,,     N 95Dup4 !
 PAR  L(HCP_A3,AL,NI:VA;3),,            -30758.01+10.25267*T;,,       N 95Dup4 !
 PAR  TC(HCP_A3,AL,NI:VA;0),,           -1112;,,                      N 95Dup4 !
 PAR  TC(HCP_A3,AL,NI:VA;1),,           +1745;,,                      N 95Dup4 !
$
 FUNCTION TROIS     298.15  +3;                                        6000 N !
 FUNCTION UNTIER    298.15  +TROIS**(-1);                              6000 N !
 FUNCTION UALNI     298.15  -22212.8931+4.39570389*T;                  6000 N !
 FUNCTION U1ALNI    298.15  +2*UNTIER*UALNI;                           6000 N !
 FUNCTION ALNI3     298.15  +3*U1ALNI;                                 6000 N !
 FUNCTION AL3NI     298.15  +3*U1ALNI;                                 6000 N !
 FUNCTION AL2NI2    298.15  +4*U1ALNI;                                 6000 N !
 FUNCTION U4ALNI    298.15  +7203.60609-3.7427303*T;                   6000 N !
 FUNCTION L14ALNI   298.15  +U4ALNI;                                   6000 N !
 FUNCTION B2ALNI    298.15  -152397.3+26.40575*T;                      6000 N !
 FUNCTION LB2ALNI   298.15  -52440.88+11.30117*T;                      6000 N !
$
 FUNCTION GAL3NI    298.15  -49342.7+151.6442*T-26.0745*T*LN(T)
       -5.5405E-04*T**2+124750*T**(-1);
      6000.00  N !
$ ------------------------------------------------------------------------------
$
$
 LIST-OF-REFERENCE
 NUMBER  SOURCE
  Null   'Unknown source'
  Same   'Same or similar interaction as in the corresponding stable phase'
  REFLAV 'Laves phase convention: G(LAVES,X:X)=+3*GHSERXX+15000'
  SGCOST 'COST 507 database, SGTE unary database V.3.0, 1996; Al, B, Nd, Ti, Zn'
  91Din  'A.T. Dinsdale, Calphad, 15, 317-425(1991).'
  95Dup4 'N. Dupin, Thesis, LTPCM, France, 1995; Al-Ni-Ti'
  97Ans  'I. Ansara, N. Dupin, H.L. Lukas, B. Sundman,
          J. Alloys Compd., 247, 20-30(1997); Al-Ni'
  99Dup  'N. Dupin, I. Ansara, Z. Metallkd., 90, 76-85(1999); Al-Ni'
  99Gho  'G. Ghosh, Metall. Mater. Trans. A, 30A, 1481-94(1999),
          SGTE unary database V.5.0, 2009; Ni'
  01Dup  'N. Dupin, I. Ansara, B. Sundman,
          Calphad, 25, 279-98(2001); Al-Ni, Al-Cr-Ni'
  11Che  'H.-L. Chen, E. Doernberg, P. Svoboda, R. Schmid-Fetzer,
          Thermochim. Acta, 512, 189-95(2011); Al-Ni'
!
