$
$ Database for Ag-Er from Z.H. Long et al. 2010
$
$ Z.H. Long, Y.J. Yang, S. Jin, H.S. Liu, F. Zheng, Z.P. Jin,
$ J. Alloys Compd., 489, 146-51(2010).
$
$ Dataset created 2017.07.23 by Bengt Hallstedt.
$ 2020.12.20: Modified for use with GES6.
$
$ ------------------------------------------------------------------------------
 TEMP-LIM 298.15 6000.00 !
$
$ELEMENT NAME  REF. STATE               ATOMIC MASS H298-H0    S298    !
$
 ELEMENT VA   VACUUM                      0.0          0.0      0.0    ! 
 ELEMENT AG   FCC_A1                    107.8682    5745.      42.55   ! 
 ELEMENT ER   HCP_A3                    167.26      7392.2912  73.17816! 
$ ------------------------------------------------------------------------------
$ Phase definitions
$
 PHASE LIQUID:L % 1 1 !
 CONST LIQUID:L : AG ER : !
$
$ Fcc (cF4, Fm-3m) and MeX (cF8, Fm-3m)
$
 PHASE FCC_A1 %A 2 1 1 !
 CONST FCC_A1 : AG% ER : VA : !
$
$ Bcc (cI2, Im-3m)
$
 PHASE BCC_A2 %B 2 1 3 !
 CONST BCC_A2 : AG ER : VA : !
$
$ Hcp (hP2, P6_3/mmc) and Me2X (NiAs-type, hP4, P6_3/mmc, B8_1)
$
 PHASE HCP_A3 %A 2 1 0.5 !
 CONST HCP_A3 : AG ER% : VA : !
$
$ Prototype Ag51Gd14 (hP68, P6/m)
$
 PHASE AG51ER14 % 2 51 14 !
 CONST AG51ER14 : AG : ER : !
$
$ Prototype MoSi2 (tI6, I4/mmm)
$
 PHASE AG2ER_C11B % 2 2 1 !
 CONST AG2ER_C11B : AG : ER : !
$
$ Prototype CsCl (cP2, Pm-3m)
$
 PHASE AGER_B2 %A 2 1 1 !
 CONST AGER_B2 : AG : ER : !
$ ------------------------------------------------------------------------------
$ Defaults
$
 DEFINE-SYSTEM-DEFAULT ELEMENT 2 !
 DEFAULT-COM DEFINE_SYSTEM_ELEMENT VA !
 TYPE-DEF % SEQ * !
 TYPE-DEF A GES AMEND_PHASE_DESCRIPTION @ MAGNETIC -3 0.28 !
 TYPE-DEF B GES AMEND_PHASE_DESCRIPTION @ MAGNETIC -1 0.4 !
 FUNCTION ZERO      298.15  0;                                         6000 N !
 FUNCTION UN_ASS    298.15  0;                                         6000 N !
 FUNCTION R         298.15  +8.31451;                                  6000 N !
$ ------------------------------------------------------------------------------
$ Element data
$ ------------------------------------------------------------------------------
$ Ag
$
$ CUB_A13 added in unary 3.0
$ CUB_A13 revised in unary 4.1
$ BCT_A5 added in unary 4.1
$
$ DHCP from 09Wan not included in unary
$
 PAR  G(FCC_A1,AG:VA),,                 +GHSERAG;                3000 N 91Din !
 PAR  G(HCP_A3,AG:VA),,                 +GHSERAG+300+0.3*T;      3000 N 91Din !
 PAR  G(BCC_A2,AG:VA),,                 +GHSERAG+3400-1.05*T;    3000 N 91Din !
$PAR  G(CUB_A13,AG:VA),,                +GHSERAG+3400-1.05*T;    3000 N 95Lim !
$PAR  G(CUB_A13,AG:VA),,                +GHSERAG
$            +3765.6-1.8826*T;                                   3000 N 96SGUN !
$PAR  G(BCT_A5,AG),,                    +GHSERAG+4184.1;         3000 N 96Oh !
$PAR  G(DHCP,AG),,                      +GHSERAG+1000;           3000 N 09Wan2 !
 PAR  G(LIQUID,AG),,                    +GLIQAG;                 3000 N 91Din !
$
 FUNCTION GHSERAG   298.15  -7209.512+118.202013*T-23.8463314*T*LN(T)
       -0.001790585*T**2-3.98587E-07*T**3-12011*T**(-1);
      1234.93  Y  -15095.252+190.266404*T-33.472*T*LN(T)+1.411773E+29*T**(-9);
      3000.00  N !
 FUNCTION GLIQAG    298.15  +11025.076-8.89102*T+GHSERAG-1.033905E-20*T**7;
      1234.93  Y  -3587.111+180.964656*T-33.472*T*LN(T);
      3000.00  N !
 FUNCTION GBCCAG    298.15  +GHSERAG+3400-1.05*T;                      6000 N !
$ ------------------------------------------------------------------------------
$ Er
$
$ BCC_A2 added in unary 4.4
$
$ FCC_A1 from 02Cac not included in unary (but it should be)
$ FCC_A1 from 99Du and 11Don not included in unary
$
 PAR  G(HCP_A3,ER:VA),,                 +GHSERER;                3200 N 91Din !
 PAR  G(FCC_A1,ER:VA),,                 +GHSERER+5000;           3200 N 99Du !
$PAR  G(FCC_A1,ER:VA),,                 +GHSERER
$            +1950-0.831451*T;                                   3200 N 02Cac !
$PAR  G(FCC_A1,ER:VA),,                 +GHSERER+2000;           3200 N 11Don !
 PAR  G(BCC_A2,ER:VA),,                 +GHSERER
             +4600-2.494353*T;                                   3200 N 00Nor1 !
 PAR  G(LIQUID,ER),,                    +GLIQER;                 3200 N 91Din !
$
 FUNCTION GHSERER   298.15  -8489.136+116.698964*T-28.3846744*T*LN(T)
       +9.95792E-04*T**2-9.52557E-07*T**3+9581*T**(-1);
      1802.00  Y  -445688.206+2233.10212*T-298.135131*T*LN(T)
       +0.065950553*T**2-3.041405E-06*T**3+1.23973199E+08*T**(-1);
      3200.00  N !
 FUNCTION GLIQER    298.15  +19382.102-10.241846*T+GHSERER;
       500.00  Y  +17912.678+0.355564*T-12.0761776*T*LN(T)
       -0.014414687*T**2+1.316517E-06*T**3-528122*T**(-1);
      1802.00  Y  +747.131+187.623024*T-38.702*T*LN(T);
      3200.00  N !
$ ------------------------------------------------------------------------------
$ Binary system
$
$ Z.H. Long, Y.J. Yang, S. Jin, H.S. Liu, F. Zheng, Z.P. Jin,
$ J. Alloys Compd., 489, 146-51(2010).
$
$ Checked against paper. Checked at 6000 K.
$
 PAR  L(LIQUID,AG,ER;0),,               -148651+29.155*T;,,           N 10Lon !
 PAR  L(LIQUID,AG,ER;1),,               -59235+10.186*T;,,            N 10Lon !
 PAR  L(LIQUID,AG,ER;2),,               +13751;,,                     N 10Lon !
 PAR  L(LIQUID,AG,ER;3),,               +46024;,,                     N 10Lon !
$
 PAR  L(FCC_A1,AG,ER:VA;0),,            -82000;,,                     N 10Lon !
 PAR  L(HCP_A3,AG,ER:VA;0),,            +10000;,,                     N 10Lon !
$
 PAR  G(AG51ER14,AG:ER),,               +51*GHSERAG+14*GHSERER
             -1812005+152.555*T;,,                                    N 10Lon !
 PAR  G(AG2ER_C11B,AG:ER),,             +2*GHSERAG+GHSERER
             -106005+6.231*T;,,                                       N 10Lon !
 PAR  G(AGER_B2,AG:ER),,                +GHSERAG+GHSERER
             -82726+9.734*T;,,                                        N 10Lon !
$
$ Metastable
$
 PAR  L(BCC_A2,AG,ER:VA;0),,            +10000;,,                     N Same !
$ ------------------------------------------------------------------------------
$
$
 LIST-OF-REFERENCE
 NUMBER  SOURCE
  Null   'Unknown source'
  Same   'Same or similar interaction as in the corresponding stable phase'
  COST   'COST 507 database'
  91Din  'A.T. Dinsdale, Calphad, 15, 317-425(1991).'
  95Lim  'S.S. Lim, P.L. Rossiter, J.W. Tibballs, Calphad, 19, 131-41(1995),
          SGTE unary database V.4.1, 1999; Ag'
  96Oh   'C.-S. Oh, J.-H. Shim, B.-J. Lee, D.N. Lee,
          J. Alloys Compounds, 238, 155-66(1996),
          SGTE unary database V.4.1, 1999; Ag'
  96SGUN 'SGTE unary database V.3.0, 1996.'
  99Du   'Z. Du, D. Wang, W. Zhang, J. Alloys. Compd., 284, 206-12(1999); Er'
  00Nor1 'S. Norgren, J. Phase Equilib., 21, 148-56(2000),
          SGTE unary database V.4.4, 2001; Er, Ho'
  02Cac  'G. Cacciamani, A. Saccone, S. De Negri, R. Ferro,
          J. Phase Equilib., 23, 38-50(2002); Er, Al-Er'
  09Wan2 'S.L. Wang, C.P. Wang, X.J. Liu, K. Ishida,
          J. Alloys Compd., 476, 245-52(2009); Ag'
  10Lon  'Z.H. Long, Y.J. Yang, S. Jin, H.S. Liu, F. Zheng, Z.P. Jin,
          J. Alloys Compd., 489, 146-51(2010); Ag-Er'
  11Don  'H.Q. Dong, X.M. Tao, H.S. Liu, T. Laurila, M. Paulastro-Krockel,
          J. Alloys Compd., 509, 4439-44(2011); Er'
!
