$
$ Database for Eu-Pd from Z. Du and Y He 2001 (included in LB Vol. 5)
$
$ Z. Du, Y. He, J. Alloys Compd., 327, 127-31(2001).
$
$ Dataset created 2015.05.25 by Bengt Hallstedt.
$ 2020.12.26: Modified for use with GES6.
$
$ The FCC_A1 parameters are not acceptable. The liquid interaction hase a very
$ large temperature dependence.
$
$ There is an inverse miscibility gap with a minimum at 3559 K and x(Pd)=0.90.
$
$ ------------------------------------------------------------------------------
 TEMP-LIM 298.15 6000.00 !
$
$ELEMENT NAME  REF. STATE               ATOMIC MASS H298-H0    S298    !
$
 ELEMENT VA   VACUUM                      0.0          0.0      0.0    ! 
 ELEMENT EU   BCC_A2                    151.96      8004.0     80.79304! 
 ELEMENT PD   FCC_A1                    106.42      5468.488   37.8234 ! 
$ ------------------------------------------------------------------------------
$ Phase definitions
$
 PHASE LIQUID:L % 1 1 !
 CONST LIQUID:L : EU PD : !
$
$ Fcc (cF4, Fm-3m) and MeX (cF8, Fm-3m)
$
 PHASE FCC_A1 %A 2 1 1 !
 CONST FCC_A1 : EU PD% : VA : !
$
$ Bcc (cI2, Im-3m)
$
 PHASE BCC_A2 %B 2 1 3 !
 CONST BCC_A2 : EU% PD : VA : !
$
$ Hcp (hP2, P6_3/mmc) and Me2X (NiAs-type, hP4, P6_3/mmc, B8_1)
$
 PHASE HCP_A3 %A 2 1 0.5 !
 CONST HCP_A3 : PD : VA : !
$
$ Prototype Mn5C2 (mC28, C2/c)
$
 PHASE EU5PD2 % 2 5 2 !
 CONST EU5PD2 : EU : PD : !
$
$ Prototype Er3Ni2 (hR15, R-3)
$
 PHASE EU3PD2 % 2 3 2 !
 CONST EU3PD2 : EU : PD : !
$
$ Prototype CrB (oC8, Cmcm)
$
 PHASE EUPD_B33 % 2 1 1 !
 CONST EUPD_B33 : EU : PD : !
$
$ Prototype Cu2Mg (cF24, Fd-3m)
$
 PHASE EUPD2_C15 % 2 1 2 !
 CONST EUPD2_C15 : EU : PD : !
$
$ Prototype AuCu3 (cP4, Pm-3m)
$
 PHASE EUPD3_L12 % 2 1 3 !
 CONST EUPD3_L12 : EU : PD : !
$
$ Pearson o*72
$
 PHASE EUPD5 % 2 1 5 !
 CONST EUPD5 : EU : PD : !
$
$ Pearson c**
$
 PHASE EUPD7 % 2 1 7 !
 CONST EUPD7 : EU : PD : !
$ ------------------------------------------------------------------------------
$ Defaults
$
 DEFINE-SYSTEM-DEFAULT ELEMENT 2 !
 DEFAULT-COM DEFINE_SYSTEM_ELEMENT VA !
 TYPE-DEF % SEQ * !
 TYPE-DEF A GES AMEND_PHASE_DESCRIPTION @ MAGNETIC -3 0.28 !
 TYPE-DEF B GES AMEND_PHASE_DESCRIPTION @ MAGNETIC -1 0.4 !
 FUNCTION ZERO      298.15  0;                                         6000 N !
 FUNCTION UN_ASS    298.15  0;                                         6000 N !
 FUNCTION R         298.15  +8.31451;                                  6000 N !
$ ------------------------------------------------------------------------------
$ Element data
$ ------------------------------------------------------------------------------
$ Eu
$
$ BCC_A2 modified in unary 5.0
$ (upper T interval added + trailing decimals added)
$
$ FCC_A1 from 01Du not included in unary. This value is absurd!
$
 PAR  G(BCC_A2,EU:VA),,                 +GHSEREU;                1900 N 91Din !
 PAR  G(FCC_A1,EU:VA),,                 +GHSEREU+180000;         1900 N 01Du !
 PAR  G(LIQUID,EU),,                    +GLIQEU;                 1900 N 91Din !
$
 FUNCTION GHSEREU   298.15  -9864.965+135.836737*T-32.8418896*T*LN(T)
       +0.00931735*T**2-4.006564E-06*T**3+102717*T**(-1);
      1095.00  Y  -287423.476+2174.733036*T-309.3571009*T*LN(T)
       +0.114530917*T**2-8.809866E-06*T**3+48455305*T**(-1);
      1900.00  Y  -13663.125+182.113799*T-38.11624*T*LN(T);
      1901.00  N !
 FUNCTION GLIQEU    298.15  +8382.505-7.175215*T+GHSEREU;
       400.00  Y  +10972.726-103.688201*T+4.3501554*T*LN(T)
       -0.036811218*T**2+5.452934E-06*T**3-646908*T**(-1);
      1095.00  Y  -6890.641+175.517247*T-38.11624*T*LN(T);
      1900.00  N !
$ ------------------------------------------------------------------------------
$ Pd
$
$ RHOMBOHEDRAL_A7 added in unary 5.0
$
 PAR  G(FCC_A1,PD:VA),,                 +GHSERPD;                4000 N 91Din !
 PAR  G(BCC_A2,PD:VA),,                 +GHSERPD+10500-1.8*T;    4000 N 91Din !
 PAR  G(HCP_A3,PD:VA),,                 +GHSERPD+2000+0.1*T;     4000 N 91Din !
$PAR  G(RHOMBOHEDRAL_A7,PD),,           +GHSERPD+4000;           4000 N 06Vre !
 PAR  G(LIQUID,PD),,                    +GLIQPD;                 4000 N 91Din !
$
 FUNCTION GHSERPD   298.15  -10204.027+176.076315*T-32.211*T*LN(T)
       +0.007120975*T**2-1.919875E-06*T**3+168687*T**(-1);
       900.00  Y  +917.062+49.659892*T-13.5708*T*LN(T)
       -0.00717522*T**2+1.91115E-07*T**3-1112465*T**(-1);
      1828.00  Y  -67161.018+370.102147*T-54.2067086*T*LN(T)
       +0.002091396*T**2-6.2811E-08*T**3+18683526*T**(-1);
      4000.00  N !
 FUNCTION GLIQPD    298.15  +11506.758-5.112162*T+GHSERPD;
       600.00  Y  +23405.778-116.918419*T+10.8922031*T*LN(T)
       -0.027266568*T**2+2.430675E-06*T**3-1853674*T**(-1);
      1828.00  Y  -12373.637+251.416903*T-41.17*T*LN(T);
      4000.00  N !
$ ------------------------------------------------------------------------------
$ Binary system
$
$ From Z. Du and Y He 2001 (included in LB Vol. 5)
$
$ Z. Du, Y. He, J. Alloys Compd., 327, 127-31(2001).
$
$ Checked against LB and paper. Checked at 6000 K.
$
$ The FCC_A1 parameters are not acceptable. The liquid interaction hase a very
$ large temperature dependence.
$
$ There is an inverse miscibility gap with a minimum at 3559 K and x(Pd)=0.90.
$
 PAR  L(LIQUID,EU,PD;0),,               -281967-48.811*T;,,            N 01Du !
 PAR  L(LIQUID,EU,PD;1),,               +243028-140.874*T;,,           N 01Du !
$
 PAR  L(FCC_A1,EU,PD:VA;0),,            -646981+66.882*T;,,            N 01Du !
 PAR  L(BCC_A2,EU,PD:VA;0),,            +100000;,,                     N 01Du !
$
 PAR  G(EU5PD2,EU:PD),,                 +5*GHSEREU+2*GHSERPD
             -313363-97.67*T;,,                                        N 01Du !
 PAR  G(EU3PD2,EU:PD),,                 +3*GHSEREU+2*GHSERPD
             -313610-78.26*T;,,                                        N 01Du !
 PAR  G(EUPD_B33,EU:PD),,               +GHSEREU+GHSERPD
             -157090-16.922*T;,,                                       N 01Du !
 PAR  G(EUPD2_C15,EU:PD),,              +GHSEREU+2*GHSERPD
             -313907+27.709*T;,,                                       N 01Du !
 PAR  G(EUPD3_L12,EU:PD),,              +GHSEREU+3*GHSERPD
             -381337+43.344*T;,,                                       N 01Du !
 PAR  G(EUPD5,EU:PD),,                  +GHSEREU+5*GHSERPD
             -395350+43.762*T;,,                                       N 01Du !
 PAR  G(EUPD7,EU:PD),,                  +GHSEREU+7*GHSERPD
             -409410+49.654*T;,,                                       N 01Du !
$ ------------------------------------------------------------------------------
$
 ASSESSED_SYSTEM
  EU-PD(TDB -* +LIQUID +FCC_A1 +BCC_A2 +EU5PD2 +EU3PD2 +EUPD_B33 +EUPD2_C15
  +EUPD3_L12 +EUPD5 +EUPD7 ;P3 *) !
$
$
 LIST-OF-REFERENCE
 NUMBER  SOURCE
  Null   'Unknown source'
  Same   'Same or similar interaction as in the corresponding stable phase'
  COST   'COST 507 database'
  91Din  'A.T. Dinsdale, Calphad, 15, 317-425(1991).'
  01Du   'Z. Du, Y. He, J. Alloys Compd., 327, 127-31(2001); Eu-Pd'
  06Vre  'J. Vrestal, J. Pinkas, A. Watson, A. Scott, J. Houserova, A. Kroupa,
          Calphad, 30, 14-17(2006), SGTE unary database V.5.0, 2009; Pd'
!
