$
$ Database for Cu-Zr from X.C. He et al. 2006.
$
$ X.C. He, H. Wang, H.S. Liu, Z.P. Jin, Calphad, 30, 367-74(2006).
$
$ Dataset created 2018.03.04 by Bengt Hallstedt.
$ 2020.12.26: Modified for use with GES6.
$
$ This is the 94Zen dataset with a small change in the CuZr-B2 parameters.
$
$ ------------------------------------------------------------------------------
 TEMP-LIM 298.15 6000.00 !
$
$ELEMENT NAME  REF. STATE               ATOMIC MASS H298-H0    S298    !
$
 ELEMENT VA   VACUUM                      0.0          0.0      0.0    ! 
 ELEMENT CU   FCC_A1                     63.546     5004.      33.15   !
 ELEMENT ZR   HCP_A3                     91.22      5566.27    39.1809 ! 
$ ------------------------------------------------------------------------------
$ Phase definitions
$
 PHASE LIQUID:L % 1 1 !
 CONST LIQUID:L : CU ZR : !
$
$ Fcc (cF4, Fm-3m) and MeX (cF8, Fm-3m)
$
 PHASE FCC_A1 %A 2 1 1 !
 CONST FCC_A1 : CU% ZR : VA : !
$
$ Bcc (cI2, Im-3m)
$
 PHASE BCC_A2 %B 2 1 3 !
 CONST BCC_A2 : CU ZR% : VA : !
$
$ Hcp (hP2, P6_3/mmc) and Me2X (NiAs-type, hP4, P6_3/mmc, B8_1)
$
 PHASE HCP_A3 %A 2 1 0.5 !
 CONST HCP_A3 : CU ZR% : VA : !
$
$ Prototype AuBe5 (cF24, F-43m)
$
 PHASE CU5ZR_C15B % 2 5 1 !
 CONST CU5ZR_C15B : CU : ZR : !
$
$ Prototype Ag51Gd14 (hP68, P6/m)
$
 PHASE CU51ZR14 % 2 51 14 !
 CONST CU51ZR14 : CU : ZR : !
$
$ Prototype Cu8Hf3 (oP44, Pnma)
$
 PHASE CU8ZR3 % 2 8 3 !
 CONST CU8ZR3 : CU : ZR : !
$
$ Prototype Ni10Zr7 (oC68, Cmca)
$
 PHASE CU10ZR7 % 2 10 7 !
 CONST CU10ZR7 : CU : ZR : !
$
$ Prototype CsCl (cP2, Pm-3m)
$
 PHASE CUZR_B2 % 2 1 1 !
 CONST CUZR_B2 : CU : ZR : !
$
$ Prototype CuZr2 (tI6, I4/mmm)
$
 PHASE CUZR2 % 2 1 2 !
 CONST CUZR2 : CU : ZR : !
$ ------------------------------------------------------------------------------
$ Defaults
$
 DEFINE-SYSTEM-DEFAULT ELEMENT 2 !
 DEFAULT-COM DEFINE_SYSTEM_ELEMENT VA !
 TYPE-DEFINITION % SEQ * !
 TYPE_DEF A GES AMEND_PHASE_DESCRIPTION @ MAGNETIC -3 0.28 !
 TYPE_DEF B GES AMEND_PHASE_DESCRIPTION @ MAGNETIC -1 0.4 !
 FUNCTION ZERO      298.15  0;                                         6000 N !
 FUNCTION UN_ASS    298.15  0;                                         6000 N !
 FUNCTION R         298.15  +8.31451;                                  6000 N !
$ ------------------------------------------------------------------------------
$ Element data
$ ------------------------------------------------------------------------------
$ Cu
$
 PAR  G(FCC_A1,CU:VA),,                 +GHSERCU;                3200 N 91Din !
 PAR  G(BCC_A2,CU:VA),,                 +GHSERCU+4017-1.255*T;   3200 N 91Din !
 PAR  G(HCP_A3,CU:VA),,                 +GHSERCU+600+0.2*T;      3200 N 91Din !
 PAR  G(LIQUID,CU),,                    +GLIQCU;                 3200 N 91Din !
$
 FUNCTION GHSERCU   298.15  -7770.458+130.485235*T-24.112392*T*LN(T)
       -0.00265684*T**2+1.29223E-07*T**3+52478*T**(-1);
      1357.77  Y  -13542.026+183.803828*T-31.38*T*LN(T)+3.64167E+29*T**(-9);
      3200.00  N !
 FUNCTION GLIQCU    298.15  +12964.735-9.511904*T+GHSERCU-5.8489E-21*T**7;
      1357.77  Y  -46.545+173.881484*T-31.38*T*LN(T);
      3200.00  N !
$ ------------------------------------------------------------------------------
$ Zr
$
$ CUB_A13, CBCC_A12, ORTHORHOMBIC_A20 and TETRAGONAL_U added in unary 4.1
$
 PAR  G(HCP_A3,ZR:VA)           130.00  +GHSERZR;,,                   N 91Din !
 PAR  G(BCC_A2,ZR:VA)           130.00  +GBCCZR;,,                    N 91Din !
$PAR  G(OMEGA,ZR)               130.00  +GOMEZR;,,                    N 91Din !
 PAR  G(FCC_A1,ZR:VA)           130.00  +GHSERZR+7600-0.9*T;,,        N 91Din !
$PAR  G(CBCC_A12,ZR:VA)         130.00  +GHSERZR+4602.2;,,            N 99SGUN !
$PAR  G(CUB_A13,ZR:VA)          130.00  +GHSERZR+7531.2;,,            N 99SGUN !
$PAR  G(ORTHORHOMBIC_A20,ZR)    130.00  +GBCCZR+5000;,,               N 99SGUN !
$PAR  G(TETRAGONAL_U,ZR)        130.00  +GBCCZR+5000;,,               N 99SGUN !
 PAR  G(LIQUID,ZR)              130.00  +GLIQZR;,,                    N 91Din !
$
 FUNCTION GHSERZR   130.00  -7827.595+125.64905*T-24.1618*T*LN(T)
       -0.00437791*T**2+34971*T**(-1);
      2128.00  Y  -26085.921+262.724183*T-42.144*T*LN(T)-1.342896E+31*T**(-9);
      6000.00  N !
 FUNCTION GBCCZR    130.00  -525.539+124.9457*T-25.607406*T*LN(T)
       -3.40084E-04*T**2-9.729E-09*T**3+25233*T**(-1)-7.6143E-11*T**4;
      2128.00  Y  -4620.034+1.55998*T+GHSERZR+1.4103476E+32*T**(-9);
      6000.00  N !
 FUNCTION GOMEZR    130.00  -8878.082+144.432234*T-26.8556*T*LN(T)
       -0.002799446*T**2+38376*T**(-1);
      2128.00  Y  -3414.603+2.566675*T+GHSERZR+8.517346E+31*T**(-9);
      6000.00  N !
 FUNCTION GLIQZR    130.00  +18147.69-9.080812*T+GHSERZR+1.6275E-22*T**7;
      2128.00  Y  -8281.26+253.812609*T-42.144*T*LN(T);
      6000.00  N !
$ ------------------------------------------------------------------------------
$ Binary system
$
$ X.C. He, H. Wang, H.S. Liu, Z.P. Jin, Calphad, 30, 367-74(2006).
$
$ This is the 94Zen dataset with a small change in the CuZr-B2 parameters.
$
$ Checked against paper. Checked at 6000K.
$
 PAR  L(LIQUID,CU,ZR;0),,               -61685.53+11.29235*T;,,       N 94Zen !
 PAR  L(LIQUID,CU,ZR;1),,               -8830.66+5.04565*T;,,         N 94Zen !
$
 PAR  L(FCC_A1,CU,ZR:VA;0),,            +2233;,,                      N 94Zen !
 PAR  L(BCC_A2,CU,ZR:VA;0),,            -7381.13;,,                   N 94Zen !
 PAR  L(HCP_A3,CU,ZR:VA;0),,            +11336.85;,,                  N 94Zen !
$
 PAR  G(CU5ZR_C15B,CU:ZR),,             +5*GHSERCU+GHSERZR-61794;,,   N 94Zen !
 PAR  G(CU51ZR14,CU:ZR),,               +51*GHSERCU+14*GHSERZR
             -843412.7;,,                                             N 94Zen !
 PAR  G(CU8ZR3,CU:ZR),,                 +8*GHSERCU+3*GHSERZR
             -148063.1;,,                                             N 94Zen !
 PAR  G(CU10ZR7,CU:ZR),,                +10*GHSERCU+7*GHSERZR
             -241750;,,                                               N 94Zen !
 PAR  G(CUZR_B2,CU:ZR),,                +GHSERCU+GHSERZR
             -20304.24-7.4664*T;,,                                    N 06He !
 PAR  G(CUZR2,CU:ZR),,                  +GHSERCU+2*GHSERZR
             -43904.01+5.19051*T;,,                                   N 94Zen !
$ ------------------------------------------------------------------------------
$
 ASSESSED_SYSTEM
  CU-ZR(TDB -* +LIQUID +FCC_A1 +BCC_A2 +CU10ZR7 +CU51ZR14 +CU5ZR_C15B +CU8ZR3
  +CUZR_B2 +CUZR2 +HCP_A3 ;P3 TMM:300/3000 STP:.5/1500/-2) !
$
$
 LIST-OF-REFERENCE
 NUMBER  SOURCE
  Null   'Unknown source'
  COST   'COST 507 database'
  91Din  'A.T. Dinsdale, Calphad, 15, 317-425(1991).'
  94Zen  'K.-J. Zeng, M. Hamalainen, H.L. Lukas,
          J. Phase Equilib., 15, 577-83(1994); Cu-Zr'
  99SGUN 'SGTE unary database V.4.1, 1999.'
  06He   'X.C. He, H. Wang, H.S. Liu, Z.P. Jin,
          Calphad, 30, 367-74(2006); Cu-Zr'
!
