$
$ Database for Cu-Ge from J. Wang et al. 2010
$
$ J. Wang, S. Jin, C. Leinenbach, A. Jacot, J. Alloys Compd., 504, 159-65(2010).
$
$ Dataset created 2017.12.03 by Bengt Hallstedt.
$ 2020.12.02: Modified for use with GES6.
$
$ ------------------------------------------------------------------------------
 TEMP-LIM 298.15 6000.00 !
$
$ELEMENT NAME  REF. STATE               ATOMIC MASS H298-H0    S298    !
$
 ELEMENT VA   VACUUM                      0.0          0.0      0.0    ! 
 ELEMENT CU   FCC_A1                     63.546     5004.      33.15   !
 ELEMENT GE   DIAMOND_A4                 72.59      4636.0     31.09   ! 
$ ------------------------------------------------------------------------------
$ Phase definitions
$
 PHASE LIQUID:L % 1 1 !
 CONST LIQUID:L : CU GE : !
$
$ Fcc (cF4, Fm-3m) and MeX (cF8, Fm-3m)
$
 PHASE FCC_A1 %A 2 1 1 !
 CONST FCC_A1 : CU% GE : VA : !
$
$ Bcc (cI2, Im-3m)
$
 PHASE BCC_A2 %B 2 1 3 !
 CONST BCC_A2 : CU GE : VA : !
$
$ Hcp (hP2, P6_3/mmc) and Me2X (NiAs-type, hP4, P6_3/mmc, B8_1)
$
 PHASE HCP_A3 %A 2 1 0.5 !
 CONST HCP_A3 : CU GE : VA : !
$
$ Prototype C (cF8, Fd-3m)
$
 PHASE DIAMOND_A4 % 1 1 !
 CONST DIAMOND_A4 : GE : !
$
$ Prototype Na3As (hP8, P6_3/mmc), epsilon (high-T)
$
 PHASE CU3GE_D018 % 2 0.765 0.235 !
 CONST CU3GE_D018 : CU : GE : !
$
$ Prototype beta-Cu3Ti (oP8, Pmmn), eta (low-T)
$
 PHASE CU3GE_D0A % 2 0.75 0.25 !
 CONST CU3GE_D0A : CU : GE : !
$
$ Prototype BiF3 (cF16, Fm-3m), theta (high-T), also Cu5Ge2
$
 PHASE CU3GE_D03 % 2 0.735 0.265 !
 CONST CU3GE_D03 : CU : GE : !
$ ------------------------------------------------------------------------------
$ Defaults
$
 DEFINE-SYSTEM-DEFAULT ELEMENT 2 !
 DEFAULT-COM DEFINE_SYSTEM_ELEMENT VA !
 TYPE-DEF % SEQ * !
 TYPE-DEF A GES AMEND_PHASE_DESCRIPTION @ MAGNETIC -3 0.28 !
 TYPE-DEF B GES AMEND_PHASE_DESCRIPTION @ MAGNETIC -1 0.4 !
 FUNCTION ZERO      298.15  0;                                         6000 N !
 FUNCTION UN_ASS    298.15  0;                                         6000 N !
 FUNCTION R         298.15  +8.31451;                                  6000 N !
$ ------------------------------------------------------------------------------
$ Element data
$ ------------------------------------------------------------------------------
$ Cu
$
$ BCT_A5 from 00Moo not included in unary
$ CBCC_A12 and CUB_A13 not included in unary
$
 PAR  G(FCC_A1,CU:VA),,                 +GHSERCU;                3200 N 91Din !
 PAR  G(BCC_A2,CU:VA),,                 +GHSERCU+4017-1.255*T;   3200 N 91Din !
 PAR  G(HCP_A3,CU:VA),,                 +GHSERCU+600+0.2*T;      3200 N 91Din !
$PAR  G(BCT_A5,CU),,                    +GHSERCU+4184;           3200 N 00Moo !
$PAR  G(CBCC_A12,CU:VA),,               +GHSERCU+3556;           2000 N 03Mie2 !
$PAR  G(CUB_A13,CU:VA),,                +GHSERCU+2092;           2000 N 03Mie2 !
 PAR  G(LIQUID,CU),,                    +GLIQCU;                 3200 N 91Din !
$
 FUNCTION GHSERCU   298.15  -7770.458+130.485235*T-24.112392*T*LN(T)
       -0.00265684*T**2+1.29223E-07*T**3+52478*T**(-1);
      1357.77  Y  -13542.026+183.803828*T-31.38*T*LN(T)+3.64167E+29*T**(-9);
      3200.00  N !
 FUNCTION GLIQCU    298.15  +12964.735-9.511904*T+GHSERCU-5.8489E-21*T**7;
      1357.77  Y  -46.545+173.881484*T-31.38*T*LN(T);
      3200.00  N !
 FUNCTION GBCCCU    298.15  +GHSERCU+4017-1.255*T;                     3200 N !
$ ------------------------------------------------------------------------------
$ Ge
$
$ BCT_A5 and RHOMBOHEDRAL_A7 added in unary 4.1
$
 PAR  G(DIAMOND_A4,GE),,                +GHSERGE;                3200 N 91Din !
 PAR  G(FCC_A1,GE:VA),,                 +GHSERGE+36000-22.3*T;   3200 N 91Din !
 PAR  G(BCC_A2,GE:VA),,                 +GHSERGE+34100-23.5*T;   3200 N 91Din !
 PAR  G(HCP_A3,GE:VA),,                 +GHSERGE+35000-21.5*T;   3200 N 91Din !
$PAR  G(BCT_A5,GE),,                    +GHSERGE+28800-16.5*T;   3600 N 99SGUN !
$PAR  G(RHOMBOHEDRAL_A7,GE),,           +GHSERGE+29800-16.5*T;   3600 N 99SGUN !
 PAR  G(LIQUID,GE),,                    +GLIQGE;                 3200 N 91Din !
$
 FUNCTION GHSERGE   298.15  -9486.153+165.635573*T-29.5337682*T*LN(T)
       +0.005568297*T**2-1.513694E-06*T**3+163298*T**(-1);
       900.00  Y  -5689.239+102.86087*T-19.8536239*T*LN(T)-0.003672527*T**2;
      1211.40  Y  -9548.204+156.708024*T-27.6144*T*LN(T)-8.59809E+28*T**(-9);
      3200.00  N !
 FUNCTION GLIQGE    298.15  +37141.489-30.687043*T+GHSERGE+8.56632E-21*T**7;
      1211.40  Y  +27243.473+126.324186*T-27.6144*T*LN(T);
      3200.00  N !
$ ------------------------------------------------------------------------------
$ Binary system
$
$ J. Wang, S. Jin, C. Leinenbach, A. Jacot, J. Alloys Compd., 504, 159-65(2010).
$
$ Checked against paper. Checked at 6000 K.
$
 PAR  L(LIQUID,CU,GE;0),,               -22422.37-3.993*T;,,          N 10Wan !
 PAR  L(LIQUID,CU,GE;1),,               -37961.74+9.446*T;,,          N 10Wan !
 PAR  L(LIQUID,CU,GE;2),,               -19505.73+5.595*T;,,          N 10Wan !
$
 PAR  L(FCC_A1,CU,GE:VA;0),,            -25790.38+15.129*T;,,         N 10Wan !
 PAR  L(FCC_A1,CU,GE:VA;1),,            -30213.96-12.245*T;,,         N 10Wan !
 PAR  L(FCC_A1,CU,GE:VA;2),,            -10601.97;,,                  N 10Wan !
$
 PAR  L(HCP_A3,CU,GE:VA;0),,            -31999.5+19.815*T;,,          N 10Wan !
 PAR  L(HCP_A3,CU,GE:VA;1),,            -26717.32-19.022*T;,,         N 10Wan !
 PAR  L(HCP_A3,CU,GE:VA;2),,            -14980.12;,,                  N 10Wan !
$
 PAR  G(CU3GE_D018,CU:GE),,             +0.765*GHSERCU+0.235*GHSERGE
             -1991.34-6.816*T;,,                                      N 10Wan !
 PAR  G(CU3GE_D0A,CU:GE),,              -11937.72+126.363*T
             -24.03*T*LN(T)-0.002825*T**2+41158*T**(-1);,,            N 10Wan !
 PAR  G(CU3GE_D03,CU:GE),,              +0.735*GHSERCU+0.265*GHSERGE
             -1500.15-7.298*T;,,                                      N 10Wan !
$
$ Metastable
$
 PAR  L(BCC_A2,CU,GE:VA;0),,            -25790.38+15.129*T;,,         N Same !
 PAR  L(BCC_A2,CU,GE:VA;1),,            -30213.96-12.245*T;,,         N Same !
 PAR  L(BCC_A2,CU,GE:VA;2),,            -10601.97;,,                  N Same !
$ ------------------------------------------------------------------------------
$
$
 LIST-OF-REFERENCE
 NUMBER  SOURCE
  Null   'Unknown source'
  Same   'Same or similar interaction as in the corresponding stable phase'
  COST   'COST 507 database'
  91Din  'A.T. Dinsdale, Calphad, 15, 317-425(1991).'
  99SGUN 'SGTE unary database V.4.1, 1999.'
  00Moo  'K.-W. Moon, W.J. Boettinger, U.R. Kattner, F.S. Biancaniello,
          C.A. Handwerker, J. Electron. Mater., 29, 1122-36(2000); Cu'
  03Mie2 'J. Miettinen, Calphad, 27, 103-14(2003); Cu-Mn'
  10Wan  'J. Wang, S. Jin, C. Leinenbach, A. Jacot,
          J. Alloys Compd., 504, 159-65(2010); Cu-Ge'
!
