$
$ Database for Hf-Os from C. Guo and Z. Du 2006.
$
$ C. Guo, Z. Du, J. Alloys Compd., 407, 188-92(2006).
$
$ Dataset created 2018.09.09 by Bengt Hallstedt.
$ 2021.01.17: Modified for use with GES6.
$
$ ------------------------------------------------------------------------------
 TEMP-LIM 298.15 6000.00 !
$
$ELEMENT NAME  REF. STATE               ATOMIC MASS H298-H0    S298    !
$
 ELEMENT VA   VACUUM                      0.0          0.0      0.0    ! 
 ELEMENT HF   HCP_A3                    178.49      5845.0     43.56   ! 
 ELEMENT OS   HCP_A3                    190.20         0.      32.6352 ! 
$ ------------------------------------------------------------------------------
$ Phase definitions
$
 PHASE LIQUID:L % 1 1 !
 CONST LIQUID:L : HF OS : !
$
$ Fcc (cF4, Fm-3m) and MeX (cF8, Fm-3m)
$
 PHASE FCC_A1 %A 2 1 1 !
 CONST FCC_A1 : HF OS : VA : !
$
$ Bcc (cI2, Im-3m)
$
 PHASE BCC_A2 %B 2 1 3 !
 CONST BCC_A2 : HF% OS : VA : !
$
$ Disordered part of B2_BCC, identical to BCC_A2
$
 PHASE A2_BCC %B 2 1 3 !
 CONST A2_BCC : HF% OS : VA : !
$
$ Prototype CsCl (cP2, Pm-3m)
$
 PHASE B2_BCC %BO 3 0.5 0.5 3 !
 CONST B2_BCC : HF% OS : HF OS% : VA : !
$
$ Hcp (hP2, P6_3/mmc) and Me2X (NiAs-type, hP4, P6_3/mmc, B8_1)
$
 PHASE HCP_A3 %A 2 1 0.5 !
 CONST HCP_A3 : HF% OS% : VA : !
$
$ Prototype Hf54Os17 (oI142, Immm)
$
 PHASE HF54OS17 % 2 54 17 !
 CONST HF54OS17 : HF : OS : !
$
$ Prototype MgZn2 (hP12, 194)
$
 PHASE HFOS2_C14 % 2 1 2 !
 CONST HFOS2_C14 : HF% OS : HF OS% : !
$ ------------------------------------------------------------------------------
$ Defaults
$
 DEFINE-SYSTEM-DEFAULT ELEMENT 2 !
 DEFAULT-COM DEFINE_SYSTEM_ELEMENT VA !
 DEFAULT-COM REJECT_PHASE BCC_A2 !
 TYPE-DEF % SEQ * !
 TYPE-DEF A GES AMEND_PHASE_DESCRIPTION @ MAGNETIC -3 0.28 !
 TYPE-DEF B GES AMEND_PHASE_DESCRIPTION @ MAGNETIC -1 0.4 !
 TYPE-DEF O GES AMEND_PHASE_DESCRIPTION B2_BCC DIS_PART A2_BCC !
 FUNCTION ZERO      298.15  0;                                         6000 N !
 FUNCTION UN_ASS    298.15  0;                                         6000 N !
 FUNCTION R         298.15  +8.31451;                                  6000 N !
$ ------------------------------------------------------------------------------
$ Element data
$ ------------------------------------------------------------------------------
$ Hf
$
$ HCP_A3 and BCC_A2 modified in unary 5.0
$ (upper T interval added + trailing decimals added)
$
 PAR  G(HCP_A3,HF:VA),,                 +GHSERHF;                3001 N 91Din !
 PAR  G(BCC_A2,HF:VA),,                 +GBCCHF;                 3001 N 91Din !
 PAR  G(A2_BCC,HF:VA),,                 +GBCCHF;                 3001 N 91Din !
 PAR  G(FCC_A1,HF:VA),,                 +GHSERHF+10000-2.2*T;    3001 N 91Din !
 PAR  G(LIQUID,HF),,                    +GLIQHF;                 3001 N 91Din !
$
 PAR  G(HFOS2_C14,HF:HF),,              +3*GHSERHF+10;,,              N 06Guo !
$
 FUNCTION GHSERHF   298.15  -6987.297+110.744026*T-22.7075*T*LN(T)
       -0.004146145*T**2-4.77E-10*T**3-22590*T**(-1);
      2506.00  Y  -1446776.329+6193.609991*T-787.5363829*T*LN(T)
       +0.1735215*T**2-7.575759E-06*T**3+5.01742495E+08*T**(-1);
      3000.00  Y  -34274.698+277.882368*T-44*T*LN(T);
      3001.00  N !
 FUNCTION GBCCHF    298.15  +5370.703+103.836026*T-22.8995*T*LN(T)
       -0.004206605*T**2+8.71923E-07*T**3-22590*T**(-1)-1.446E-10*T**4;
      2506.00  Y  +1912456.771-8624.20573*T+1087.6141247*T*LN(T)
       -0.286857065*T**2+1.3427829E-05*T**3-6.10085091E+08*T**(-1);
      3000.00  Y  -32498.178+276.723247*T-44*T*LN(T);
      3001.00  N !
 FUNCTION GLIQHF    298.15  +27402.256-10.953093*T+GHSERHF;
      1000.00  Y  +49731.499-149.91739*T+12.116812*T*LN(T)
       -0.021262021*T**2+1.376466E-06*T**3-4449699*T**(-1);
      2506.00  Y  -4247.217+265.470523*T-44*T*LN(T);
      3001.00  N !
$ ------------------------------------------------------------------------------
$ Os
$
$ BCC_A2 revised in unary 4.4
$
 PAR  G(HCP_A3,OS:VA),,                 +GHSEROS;                5500 N 91Din !
 PAR  G(FCC_A1,OS:VA),,                 +GHSEROS+13000-2.5*T;    5500 N 91Din !
$PAR  G(BCC_A2,OS:VA),,                 +GHSEROS+27500-4.4*T;    5500 N 01SGUN !
 PAR  G(BCC_A2,OS:VA),,                 +GHSEROS+43500-9*T;      5500 N 91Din !
 PAR  G(A2_BCC,OS:VA),,                 +GHSEROS+43500-9*T;      5500 N 91Din !
 PAR  G(LIQUID,OS),,                    +GLIQOS;                 5500 N 91Din !
$
 PAR  G(HFOS2_C14,OS:OS),,              +3*GHSEROS+10;,,              N 06Guo !
$
 FUNCTION GHSEROS   298.15  -7196.978+126.369531*T-23.5710242*T*LN(T)
       -0.00190427*T**2;
      3306.00  Y  +644910.07-1935.2137*T+224.998034*T*LN(T)
       -0.042489827*T**2+1.173861E-06*T**3-3.12569031E+08*T**(-1);
      5500.00  N !
 FUNCTION GLIQOS    298.15  +36460.17-8.473743*T+GHSEROS;
      1000.00  Y  +68715.318-198.324341*T+19.9382156*T*LN(T)
       -0.020464464*T**2+1.014279E-06*T**3-6237261*T**(-1);
      3306.00  Y  -15903.192+336.874526*T-50*T*LN(T);
      5500.00  N !
$ ------------------------------------------------------------------------------
$ Binary system
$
$ C. Guo, Z. Du, J. Alloys Compd., 407, 188-92(2006).
$
$ Checked against paper. Checked at 6000 K.
$
$ Too many interaction for B2-bcc and HfOs2.
$
$ Old lattice stability for bcc-Os used.
$
 PAR  L(LIQUID,HF,OS;0),,               -204167.3+31.656*T;,,         N 06Guo !
 PAR  L(LIQUID,HF,OS;1),,               +17748.8-12.1892*T;,,         N 06Guo !
$
 PAR  L(BCC_A2,HF,OS:VA;0),,            -174543.7+20.5603*T;,,        N 06Guo !
 PAR  L(BCC_A2,HF,OS:VA;1),,            -13500+20.2253*T;,,           N 06Guo !
$
 PAR  L(A2_BCC,HF,OS:VA;0),,            -174543.7+20.5603*T;,,        N 06Guo !
 PAR  L(A2_BCC,HF,OS:VA;1),,            -13500+20.2253*T;,,           N 06Guo !
$
 PAR  G(B2_BCC,HF:OS:VA),,              -74931.1+0.0513*T;,,          N 06Guo !
 PAR  G(B2_BCC,OS:HF:VA),,              -74931.1+0.0513*T;,,          N 06Guo !
 PAR  L(B2_BCC,HF,OS:HF:VA;0),,         +46697.5-10.5497*T;,,         N 06Guo !
 PAR  L(B2_BCC,HF:HF,OS:VA;0),,         +46697.5-10.5497*T;,,         N 06Guo !
 PAR  L(B2_BCC,HF,OS:HF:VA;1),,         -39078.7;,,                   N 06Guo !
 PAR  L(B2_BCC,HF:HF,OS:VA;1),,         -39078.7;,,                   N 06Guo !
 PAR  L(B2_BCC,HF,OS:HF:VA;2),,         -83399.6;,,                   N 06Guo !
 PAR  L(B2_BCC,HF:HF,OS:VA;2),,         -83399.6;,,                   N 06Guo !
 PAR  L(B2_BCC,HF,OS:OS:VA;0),,         -75202.1;,,                   N 06Guo !
 PAR  L(B2_BCC,OS:HF,OS:VA;0),,         -75202.1;,,                   N 06Guo !
 PAR  L(B2_BCC,HF,OS:OS:VA;1),,         +50969;,,                     N 06Guo !
 PAR  L(B2_BCC,OS:HF,OS:VA;1),,         +50969;,,                     N 06Guo !
$
 PAR  L(HCP_A3,HF,OS:VA;0),,            -112580.4+35.1418*T;,,        N 06Guo !
 PAR  L(HCP_A3,HF,OS:VA;1),,            -2271.7+14.1065*T;,,          N 06Guo !
$
 PAR  G(HF54OS17,HF:OS),,               +54*GHSERHF+17*GHSEROS
             -1960666.8+65.9557*T;,,                                  N 06Guo !
$
 PAR  G(HFOS2_C14,HF:OS),,              +GHSERHF+2*GHSEROS
             -115393.5+1.522*T;,,                                     N 06Guo !
 PAR  G(HFOS2_C14,OS:HF),,              +GHSEROS+2*GHSERHF
             +115393.5-1.522*T;,,                                     N 06Guo !
 PAR  L(HFOS2_C14,HF,OS:HF;0),,         -1765.8+53.0892*T;,,          N 06Guo !
 PAR  L(HFOS2_C14,HF,OS:OS;0),,         -1765.8+53.0892*T;,,          N 06Guo !
 PAR  L(HFOS2_C14,HF,OS:HF;1),,         +5414.2-22.7102*T;,,          N 06Guo !
 PAR  L(HFOS2_C14,HF,OS:OS;1),,         +5414.2-22.7102*T;,,          N 06Guo !
 PAR  L(HFOS2_C14,HF:HF,OS;0),,         +141024.2-22.7103*T;,,        N 06Guo !
 PAR  L(HFOS2_C14,OS:HF,OS;0),,         +141024.2-22.7103*T;,,        N 06Guo !
 PAR  L(HFOS2_C14,HF:HF,OS;1),,         +140026.6-13.6028*T;,,        N 06Guo !
 PAR  L(HFOS2_C14,OS:HF,OS;1),,         +140026.6-13.6028*T;,,        N 06Guo !
$
$ Metastable
$
 PAR  L(FCC_A1,HF,OS:VA;0),,            -112580.4+35.1418*T;,,        N Same !
 PAR  L(FCC_A1,HF,OS:VA;1),,            -2271.7+14.1065*T;,,          N Same !
$ ------------------------------------------------------------------------------
$
$
 LIST-OF-REFERENCE
 NUMBER  SOURCE
  Null   'Unknown source'
  Lin    'Linear combination of lattice stabilities'
  Same   'Same or similar interaction as in the corresponding stable phase'
  REFLAV 'Laves phase convention: G(LAVES,X:X)=+3*GHSERXX+15000'
  91Din  'A.T. Dinsdale, Calphad, 15, 317-425(1991).'
  01SGUN 'SGTE unary database V.4.4, 2001.'
  06Guo  'C. Guo, Z. Du, J. Alloys Compd., 407, 188-92(2006); Hf-Os'
!
