$
$ Database for U-W from A. Berche et al. 2011
$
$ A. Berche, N. Dupin, C. Gueneau, C. Rado, B. Sundman, J.C. Dumas,
$ J. Nucl. Mater., 411, 131-43(2011).
$
$ Dataset created 2017.07.16 by Bengt Hallstedt.
$ 2021.02.05: Modified for use with GES6.
$
$ ------------------------------------------------------------------------------
 TEMP-LIM 298.15 6000.00 !
$
$ELEMENT NAME  REF. STATE               ATOMIC MASS H298-H0    S298    !
$
 ELEMENT VA   VACUUM                      0.0          0.0      0.0    ! 
 ELEMENT U    ORTHORHOMBIC_A20          238.0289    6364.      50.20   ! 
 ELEMENT W    BCC_A2                    183.85      4970.0     32.6176 ! 
$ ------------------------------------------------------------------------------
$ Phase definitions
$
 PHASE LIQUID:L % 1 1 !
 CONST LIQUID:L : U W : !
$
$ Fcc (cF4, Fm-3m) and MeX (cF8, Fm-3m)
$
 PHASE FCC_A1 %A 2 1 1 !
 CONST FCC_A1 : U W : VA : !
$
$ Bcc (cI2, Im-3m)
$
 PHASE BCC_A2 %B 2 1 3 !
 CONST BCC_A2 : U% W% : VA : !
$
$ Hcp (hP2, P6_3/mmc) and Me2X (NiAs-type, hP4, P6_3/mmc, B8_1)
$
 PHASE HCP_A3 %A 2 1 0.5 !
 CONST HCP_A3 : U W : VA : !
$
$ Prototype alpha-U (oC4, Cmcm)
$
 PHASE ORTHORHOMBIC_A20 % 1 1 !
 CONST ORTHORHOMBIC_A20 : U : !
$
$ Prototype beta-U (tP30, P4_2/mnm, SB: A_b)
$
 PHASE TETRAGONAL_U % 1 1 !
 CONST TETRAGONAL_U : U% W : !
$ ------------------------------------------------------------------------------
$ Defaults
$
 DEFINE-SYSTEM-DEFAULT ELEMENT 2 !
 DEFAULT-COM DEFINE_SYSTEM_ELEMENT VA !
 TYPE-DEF % SEQ * !
 TYPE-DEF A GES AMEND_PHASE_DESCRIPTION @ MAGNETIC -3 0.28 !
 TYPE-DEF B GES AMEND_PHASE_DESCRIPTION @ MAGNETIC -1 0.4 !
 FUNCTION ZERO      298.15  0;                                         6000 N !
 FUNCTION UN_ASS    298.15  0;                                         6000 N !
 FUNCTION R         298.15  +8.31451;                                  6000 N !
$ ------------------------------------------------------------------------------
$ Element data
$ ------------------------------------------------------------------------------
$ U
$
$ FCC_A1 and HCP_A3 added in unary 4.1
$
$ HCP_A3 from 04Che not in unary
$
 PAR  G(ORTHORHOMBIC_A20,U),,           +GHSERUU;                3000 N 91Din !
 PAR  G(TETRAGONAL_U,U),,               +GTETUU;                 3000 N 91Din !
 PAR  G(BCC_A2,U:VA),,                  +GBCCUU;                 3000 N 91Din !
 PAR  G(FCC_A1,U:VA),,                  +GHSERUU+5000;           3000 N 99SGUN !
 PAR  G(HCP_A3,U:VA),,                  +GBCCUU+5000-0.008*T;    3000 N 99SGUN !
$PAR  G(HCP_A3,U:VA),,                  +GHSERUU+50000;          3000 N 04Che3 !
 PAR  G(LIQUID,U),,                     +GHSERUU
             +12355.5-10.3239*T;                                 3000 N 91Din !
$
 FUNCTION GHSERUU   298.15  -8407.734+130.955151*T-26.9182*T*LN(T)
       +0.00125156*T**2-4.42605E-06*T**3+38568*T**(-1);
       955.00  Y  -22521.8+292.121093*T-48.66*T*LN(T);
      3000.00  N !
 FUNCTION GTETUU    298.15  -5156.136+106.976316*T-22.841*T*LN(T)
       -0.01084475*T**2+2.7889E-08*T**3+81944*T**(-1);
       941.50  Y  -14327.309+244.16802*T-42.9278*T*LN(T);
      3000.00  N !
 FUNCTION GBCCUU    298.15  -752.767+131.5381*T-27.5152*T*LN(T)
       -0.00835595*T**2+9.67907E-07*T**3+204611*T**(-1);
      1049.00  Y  -4698.365+202.685635*T-38.2836*T*LN(T);
      3000.00  N !
 FUNCTION GLIQUU    298.15  +GHSERUU+12355.5-10.3239*T;                3000 N !
$ ------------------------------------------------------------------------------
$ W
$
$ TETRAGONAL_U from 11Ber not included in unary
$
 PAR  G(BCC_A2,W:VA),,                  +GHSERWW;,,                   N 91Din !
 PAR  G(FCC_A1,W:VA),,                  +GHSERWW+19300+0.63*T;,,      N 91Din !
 PAR  G(HCP_A3,W:VA),,                  +GHSERWW+14750;,,             N 91Din !
 PAR  G(TETRAGONAL_U,W),,               +GHSERWW+18600;,,             N 11Ber !
 PAR  G(LIQUID,W),,                     +GLIQWW;,,                    N 91Din !
$
 FUNCTION GHSERWW   298.15  -7646.311+130.4*T-24.1*T*LN(T)
       -0.001936*T**2+2.07E-07*T**3+44500*T**(-1)-5.33E-11*T**4;
      3695.00  Y  -82868.801+389.362335*T-54*T*LN(T)+1.528621E+33*T**(-9);
      6000.00  N !
 FUNCTION GLIQWW    298.15  +52160.584-14.10999*T+GHSERWW-2.713468E-24*T**7;
      3695.00  Y  -30436.051+375.175*T-54*T*LN(T);
      6000.00  N !
 FUNCTION GFCCWW    298.15  +GHSERWW+19300+0.63*T;                     6000 N !
$ ------------------------------------------------------------------------------
$ Binary system
$
$ A. Berche, N. Dupin, C. Gueneau, C. Rado, B. Sundman, J.C. Dumas,
$ J. Nucl. Mater., 411, 131-43(2011).
$
$ Checked against paper. Checked at 6000 K.
$
 PAR  L(LIQUID,U,W;0),,                 +35000;,,                     N 11Ber !
$
 PAR  L(BCC_A2,U,W:VA;0),,              +80000;,,                     N 11Ber !
 PAR  L(TETRAGONAL_U,U,W;0),,           +80000;,,                     N 11Ber !
$
$ Metastable
$
 PAR  L(FCC_A1,U,W:VA;0),,              +80000;,,                     N Same !
 PAR  L(HCP_A3,U,W:VA;0),,              +80000;,,                     N Same !
$ ------------------------------------------------------------------------------
$
$
 LIST-OF-REFERENCE
 NUMBER  SOURCE
  Null   'Unknown source'
  Same   'Same or similar interaction as in the corresponding stable phase'
  REFLAV 'Laves phase convention: G(LAVES,X:X)=+3*GHSERXX+15000'
  91Din  'A.T. Dinsdale, Calphad, 15, 317-425(1991).'
  99SGUN 'SGTE unary database V.4.1, 1999.'
  04Che3 'P.-Y. Chevalier, E. Fischer, B. Cheynet,
          Calphad, 28, 15-40(2004); U, Zr, U-Zr'
  08Wan  'J. Wang, X.J. Liu, C.P. Wang, J. Nucl. Mater., 380, 105-10(2008); U-W'
  11Ber  'A. Berche, N. Dupin, C. Gueneau, C. Rado, B. Sundman, J.C. Dumas,
          J. Nucl. Mater., 411, 131-43(2011); W, U-W'
!
