$
$ Database for Zn-As from M. Ghasemi and J. Johansson 2015.
$
$ M. Ghasemi, J. Johansson, J. Alloys Compd., 638, 95-102(2015).
$
$ Dataset created 2019.03.16 by Bengt Hallstedt.
$ 2021.02.07: Modified for use with GES6.
$
$ Note! The Zn3As2 associate is actually Zn0.6As0.4.
$
$ Incorrect data used for hcp-Zn in the paper.
$
$ Gibbs energies of intermetallic compounds were adjusted. After correction
$ invariant equilibria differ by up to 6 K.
$
$ ------------------------------------------------------------------------------
 TEMP-LIM 298.15 6000.00 !
$
$ELEMENT NAME  REF. STATE               ATOMIC MASS H298-H0    S298    !
$
 ELEMENT VA   VACUUM                      0.0          0.0      0.0    ! 
 ELEMENT AS   RHOMBOHEDRAL_A7            74.922     5117.032   35.6895 ! 
 ELEMENT ZN   HCP_A3                     65.38      5657.0     41.63   ! 
$ ------------------------------------------------------------------------------
$ Species
$
 SPECIE  ZN3AS2                             ZN0.6AS0.4 !
$ ------------------------------------------------------------------------------
$ Phase definitions
$
 PHASE LIQUID:L % 1 1 !
 CONST LIQUID:L : AS ZN ZN3AS2 : !
$
$ Fcc (cF4, Fm-3m) and MeX (cF8, Fm-3m)
$
 PHASE FCC_A1 %A 2 1 1 !
 CONST FCC_A1 : AS ZN : VA : !
$
$ Bcc (cI2, Im-3m)
$
 PHASE BCC_A2 %B 2 1 3 !
 CONST BCC_A2 : AS ZN : VA : !
$
$ Hcp (hP2, P6_3/mmc) and Me2X (NiAs-type, hP4, P6_3/mmc, B8_1)
$
 PHASE HCP_A3 %A 2 1 0.5 !
 CONST HCP_A3 : AS ZN% : VA : !
$
$ Prototype alpha-As (hR2, R-3m)
$
 PHASE RHOMBOHEDRAL_A7 % 1 1 !
 CONST RHOMBOHEDRAL_A7 : AS% ZN : !
$
$ Prototype Cd3As2 (tI160, I4_1cd, 110)
$
 PHASE ZN3AS2_RT % 2 3 2 !
 CONST ZN3AS2_RT : ZN : AS : !
$
$ Prototype Zn3P2 (tP40, P4_2/nmc)
$
 PHASE ZN3AS2_D59 % 2 3 2 !
 CONST ZN3AS2_D59 : ZN : AS : !
$
$ Prototype CaF2 (cF12, Fm-3m)
$
 PHASE ZN3AS2_C1 % 2 3 2 !
 CONST ZN3AS2_C1 : ZN : AS : !
$
$ Prototype ZnAs2 (mP24, P2_1/c)
$
 PHASE ZNAS2 % 2 1 2 !
 CONST ZNAS2 : ZN% AS : AS : !
$ ------------------------------------------------------------------------------
$ Defaults
$
 DEFINE-SYSTEM-DEFAULT ELEMENT 2 !
 DEFAULT-COM DEFINE_SYSTEM_ELEMENT VA !
 TYPE-DEF % SEQ * !
 TYPE-DEF A GES AMEND_PHASE_DESCRIPTION @ MAGNETIC -3 0.28 !
 TYPE-DEF B GES AMEND_PHASE_DESCRIPTION @ MAGNETIC -1 0.4 !
 FUNCTION ZERO      298.15  0;                                         6000 N !
 FUNCTION UN_ASS    298.15  0;                                         6000 N !
 FUNCTION R         298.15  +8.31451;                                  6000 N !
$ ------------------------------------------------------------------------------
$ Element data
$ ------------------------------------------------------------------------------
$ As
$
$ RED_P added in unary 4.4
$
 PAR  G(RHOMBOHEDRAL_A7,AS),,           +GHSERAS;                1200 N 91Din !
 PAR  G(FCC_A1,AS:VA),,                 +GHSERAS+24874-14.74*T;  1200 N 91Din !
 PAR  G(BCC_A2,AS:VA),,                 +GHSERAS+24874-16.1*T;   1200 N 91Din !
 PAR  G(HCP_A3,AS:VA),,                 +GHSERAS+24874-14*T;     1200 N 91Din !
$PAR  G(RED_P,AS),,                     +GHSERAS+5782-3.85466*T; 1200 N 01SGUN !
 PAR  G(LIQUID,AS),,                    +GHSERAS
             +24442.9-22.424679*T;                               1200 N 91Din !
$
 PAR  G(ZNAS2,AS:AS),,                  +3*GHSERAS+38.3*T;,,          N 15Gha !
$
 FUNCTION GHSERAS   298.15  -7270.447+122.211069*T-23.3144*T*LN(T)
       -0.00271613*T**2+11600*T**(-1);
      1090.00  Y  -10454.913+163.457433*T-29.216037*T*LN(T);
      1200.00  N !
 FUNCTION GLIQAS    298.15  +GHSERAS+24442.9-22.424679*T;              6000 N !
 FUNCTION GHCPAS    298.15  +GHSERAS+24874-14*T;                       6000 N !
$ ------------------------------------------------------------------------------
$ Zn
$
$ BCT_A5 and DIAMOND_A4 added in unary 3.0
$ HCP_A3 revised in unary 4.1 (due to introduction of HCP_ZN)
$ RHOMBOHEDRAL_A7 and TETRAGONAL_A6 added in unary 4.1
$ TETRAGONAL_A6 revised in unary 4.4
$ CBCC_A12 and CUB_A13 added in unary 4.4
$ HCP_A3 and LIQUID modified in unary 5.0 (melting T and coefficients adjusted)
$ RHOMBO_A10 added in unary 5.0
$
$ Pure Zn restored as HCP_A3
$
 PAR  G(HCP_A3,ZN:VA),,                 +GHSERZN;                1700 N 91Din !
$PAR  G(HCP_A3,ZN:VA),,                 +GHSERZN
$            +2969.82-1.56968*T;                                 1700 N 93Kow !
 PAR  G(FCC_A1,ZN:VA),,                 +GHSERZN
             +2969.82-1.56968*T;                                 1700 N 91Din !
 PAR  G(BCC_A2,ZN:VA),,                 +GHSERZN
             +2886.96-2.5104*T;                                  1700 N 91Din !
$PAR  G(DIAMOND_A4,ZN),,                +GHSERZN+30*T;           1700 N SGCOST !
$PAR  G(BCT_A5,ZN),,                    +GHSERZN
$            +2886.96-2.5104*T;                                  1700 N SGCOST !
$PAR  G(TETRAGONAL_A6,ZN),,             +GHSERZN+4184;           1700 N 96Lee !
$PAR  G(TETRAGONAL_A6,ZN),,             +GHSERZN
$            +2886.96-2.5104*T;                                  1700 N 99SGUN !
 PAR  G(RHOMBOHEDRAL_A7,ZN),,           +GHSERZN+2300+11.5*T;    1700 N 99SGUN !
$PAR  G(RHOMBO_A10,ZN),,                +GLIQZN-2000+10*T;       1700 N 98Han !
$PAR  G(CBCC_A12,ZN:VA),,               +GHSERZN+2000;           1700 N 01Mie !
$PAR  G(CUB_A13,ZN:VA),,                +GHSERZN+2000;           1700 N 01Mie !
 PAR  G(LIQUID,ZN),,                    +GLIQZN;                 1700 N 91Din !
$
 FUNCTION GHSERZN   298.15  -7285.787+118.470069*T-23.701314*T*LN(T)
       -0.001712034*T**2-1.264963E-06*T**3;
       692.677 Y  -11070.546+172.345644*T-31.38*T*LN(T)+4.7047E+26*T**(-9);
      1700.00  N !
 FUNCTION GLIQZN    298.15  +7157.222-10.29305*T+GHSERZN-3.58949E-19*T**7;
       692.677 Y  -3620.385+161.60854*T-31.38*T*LN(T);
      1700.00  N !
 FUNCTION GBCCZN    298.15  +GHSERZN+2886.96-2.5104*T;                 6000 N !
 FUNCTION GFCCZN    298.15  +GHSERZN+2969.82-1.56968*T;                6000 N !
$ ------------------------------------------------------------------------------
$ Binary system
$
$ M. Ghasemi, J. Johansson, J. Alloys Compd., 638, 95-102(2015).
$
$ Checked against paper. Checked at 6000 K.
$
$ Note! The Zn3As2 associate is actually Zn0.6As0.4.
$
$ Incorrect data used for hcp-Zn in the paper.
$
$ Gibbs energies of intermetallic compounds were adjusted. After correction
$ invariant equilibria differ by up to 6 K.
$
 PAR  G(LIQUID,ZN3AS2),,                +0.6*GLIQZN+0.4*GLIQAS
             -8060-5.69*T;,,                                          N 15Gha !
 PAR  L(LIQUID,AS,ZN3AS2;0),,           -22550+17.6*T;,,              N 15Gha !
 PAR  L(LIQUID,AS,ZN3AS2;1),,           +911+5.66*T;,,                N 15Gha !
 PAR  L(LIQUID,AS,ZN3AS2;2),,           +5785;,,                      N 15Gha !
 PAR  L(LIQUID,ZN,ZN3AS2;0),,           +36800-19.3*T;,,              N 15Gha !
$
 PAR  L(HCP_A3,AS,ZN:VA;0),,            +25000;,,                     N 15Gha !
 PAR  L(RHOMBOHEDRAL_A7,AS,ZN;0),,      +25000;,,                     N 15Gha !
$
 PAR  G(ZN3AS2_RT,ZN:AS),,              +3*GFCCZN+2*GHSERAS
             -68500+9.48*T-2900;,,                                    N 15Gha !
 PAR  G(ZN3AS2_D59,ZN:AS),,             +3*GFCCZN+2*GHSERAS
             -36250-60.235*T-2900;,,                                  N 15Gha !
 PAR  G(ZN3AS2_C1,ZN:AS),,              +3*GFCCZN+2*GHSERAS
             -22700-74.9*T-2900;,,                                    N 15Gha !
 PAR  G(ZNAS2,ZN:AS),,                  +GFCCZN+2*GHSERAS
             -44870-1.765*T-1300;,,                                   N 15Gha !
$
$ Metastable
$
 PAR  L(FCC_A1,AS,ZN:VA;0),,            +25000;,,                     N Same !
 PAR  L(BCC_A2,AS,ZN:VA;0),,            +25000;,,                     N Same !
$ ------------------------------------------------------------------------------
$
$
 LIST-OF-REFERENCE
 NUMBER  SOURCE
  Null   'Unknown source'
  Same   'Same or similar interaction as in the corresponding stable phase'
  REFLAV 'Laves phase convention: G(LAVES,X:X)=+3*GHSERXX+15000'
  SGCOST 'COST 507 database, SGTE unary database V.3.0, 1996; Al, B, Nd, Ti, Zn'
  91Din  'A.T. Dinsdale, Calphad, 15, 317-425(1991).'
  93Kow  'M. Kowalski, P.J. Spencer, J. Phase Equilib., 14, 432-38 (1993),
          SGTE unary database V.4.1, 1999; Zn'
  96Lee  'B.-J. Lee, Calphad, 20, 471-80(1996)
          SGTE unary database V.4.4, 2001; Zn'
  98Han  'S.C. Hansen, Calphad, 22, 359-73(1998),
          SGTE unary database V.5.0, 2009; Zn'
  99SGUN 'SGTE unary database V.4.1, 1999.'
  01Mie  'J. Miettinen, Calphad, 25, 43-58(2001),
          SGTE unary database V.4.4, 2001; Sn, Zn'
  01SGUN 'SGTE unary database V.4.4, 2001.'
  15Gha  'M. Ghasemi, J. Johansson, J. Alloys Compd., 638, 95-102(2015); Zn-As'
!
