$
$ Database for In-P from I. Ansara et al. 1994 (Included in LB Vol. 3)
$
$ I. Ansara, C. Chatillon, H.L. Lukas, T. Nishizawa, H. Ohtani, K. Ishida,
$ M. Hillert, B. Sundman, B.B. Argent, A. Watson, T.G. Chart, T. Anderson,
$ Calphad, 18, 177-222(1994).
$
$ Dataset created 2016.02.16 by Bengt Hallstedt.
$ 2021.01.17: Modified for use with GES6.
$
$ InP becomes stable again above 5516 K when the gas phase is not included.
$
$ The P-rich eutectic is given at 852.4 K in LB, whereas this dataset and
$ LBall-v7+fun.tdb give 851.9 K.
$
$ ------------------------------------------------------------------------------
 TEMP-LIM 298.15 6000.00 !
$
$ELEMENT NAME  REF. STATE               ATOMIC MASS H298-H0    S298    !
$
 ELEMENT VA   VACUUM                      0.0          0.0      0.0    ! 
 ELEMENT IN   TETRAGONAL_A6             114.82      6610.0     57.65   ! 
 ELEMENT P    WHITE_P                    30.97376   5360.0     41.09   ! 
$ ------------------------------------------------------------------------------
$ Species
$
 SPECIE  IN2                                IN2 !
 SPECIE  INP                                IN1P1 !
 SPECIE  P2                                 P2 !
 SPECIE  P3                                 P3 !
 SPECIE  P4                                 P4 !
$ ------------------------------------------------------------------------------
$ Phase definitions
$
 PHASE LIQUID:L % 1 1 !
 CONST LIQUID:L : IN P : !
$
$ Fcc (cF4) and MeX (cF8)
$
 PHASE FCC_A1 %A 2 1 1 !
 CONST FCC_A1 : IN P : VA : !
$
$ Bcc (cI2, Im-3m)
$
 PHASE BCC_A2 %B 2 1 3 !
 CONST BCC_A2 : IN P : VA : !
$
$ Hcp (hP2, P6_3/mmc) and Me2X (NiAs-type, hP4, P6_3/mmc, B8_1)
$
 PHASE HCP_A3 %A 2 1 0.5 !
 CONST HCP_A3 : IN : VA : !
$
$ Prototype In (tI2, I4/mmm)
$
 PHASE TETRAGONAL_A6 % 1 1 !
 CONST TETRAGONAL_A6 : IN : !
$
$ Structure not well defined
$
 PHASE WHITE_P % 1 1 !
 CONST WHITE_P : P : !
$
$ Structure not well defined
$
 PHASE RED_P % 1 1 !
 CONST RED_P : P : !
$
$ Prototype ZnS (cF8, F-43m)
$
 PHASE ZINCBLENDE_B3 % 2 1 1 !
 CONST ZINCBLENDE_B3 : IN : P : !
$
 PHASE GAS:G % 1 1 !
 CONST GAS:G : IN IN2 INP P P2 P3 P4 : !
$ ------------------------------------------------------------------------------
$ Defaults
$
 DEFINE-SYSTEM-DEFAULT ELEMENT 2 !
 DEFAULT-COM DEFINE_SYSTEM_ELEMENT VA !
 TYPE-DEF % SEQ * !
 TYPE-DEF A GES AMEND_PHASE_DESCRIPTION @ MAGNETIC -3 0.28 !
 TYPE-DEF B GES AMEND_PHASE_DESCRIPTION @ MAGNETIC -1 0.4 !
 FUNCTION ZERO      298.15  0;                                         6000 N !
 FUNCTION UN_ASS    298.15  0;                                         6000 N !
 FUNCTION R         298.15  +8.31451;                                  6000 N !
 FUNCTION RTLNP     298.15  +8.31451*T*LN(1E-05*P);                    6000 N !
$ ------------------------------------------------------------------------------
$ Element data
$ ------------------------------------------------------------------------------
$ In
$
$ FCC_A1 and TET_ALPHA1 revised in unary 4.1
$ BCT_A5 and RHOMBOHEDRAL_A7 added in unary 4.1
$ TET_ALPHA1 revised in unary 5.0 (using the value from 99Ans)
$ DHCP added in unary 5.0
$
$ There is quite a bit of confusion about TET_ALPHA1_A6. The structure is
$ the same as In (TETRAGONAL_A6), but with a different (presumably) c/a ratio.
$ TET_ALPHA1_A6 is present in Bi-In, In-Pb and In-Sn (possibly more). Between
$ the TETRAGONAL_A6 (In-ss) and TET_ALPHA1_A6 there is a narrow two-phase
$ region. In each system a different G(TET_ALPHA1_A6,IN) lattice stability
$ was used.
$ In 91Din a value from an unpublished revision of the Bi-In system by
$ P.-Y. Chevalier 1990 is included. In SGTE Unary V 4.4 a value from 98Boa
$ for the In-Pb system is included. 98Boa treated the TET_ALPHA1_A6
$ phase in Bi-In and In-Pb as two different phases and used the lattice
$ stability from 88Che0 for the Bi-In branch of this phase. Finally, SGTE
$ unary V 5.0 uses a value from an unpublished evaluation by 99Ans of the
$ In-Sn system. Due to the close proximity of the TETRAGONAL_A6 and
$ TET_ALPHA1_A6 phases in these systems, any change of lattice stability
$ will cause a distortion of the phase diagram and require reoptimisation.
$
$ The DHCP phase is labelled D0_24 in 03Liu and alpha-prime in 92Ans. The
$ phase is present between the fcc and hcp phases in the Au-Sn and Au-In
$ systems.
$
 PAR  G(TETRAGONAL_A6,IN),,             +GHSERIN;                3800 N 91Din !
 PAR  G(FCC_A1,IN:VA),,                 +GHSERIN+162.061;        3800 N 98Boa !
$PAR  G(FCC_A1,IN:VA),,                 +GHSERIN+123-0.1988*T;   3800 N 91Din !
 PAR  G(BCC_A2,IN:VA),,                 +GHSERIN+800-0.8*T;      3800 N 91Din !
 PAR  G(HCP_A3,IN:VA),,                 +GHSERIN+533-0.6868*T;   3800 N 91Din !
$PAR  G(DHCP,IN),,                      +GHSERIN+520-0.384*T;    3800 N 92Ans !
$PAR  G(TET_ALPHA1_A6,IN),,             +GHSERIN+123-0.1988*T;   3800 N 99Ans1 !
$PAR  G(TET_ALPHA1_A6,IN),,             +GHSERIN+0.31*T;         3800 N 98Boa !
$PAR  G(TET_ALPHA1_A6,IN),,             +GHSERIN+193-0.16479*T;  3800 N 91Din !
$PAR  G(TET_ALPHA1_A6,IN),,             +GHSERIN-33+0.16*T;      3800 N 88Che0 !
$PAR  G(BCT_A5,IN),,                    +GHSERIN
$            +5040.87-3.33969*T;                                 3800 N 99Ans1 !
$PAR  G(RHOMBOHEDRAL_A7,IN),,           +GHSERIN+4184;           3800 N 88Che0 !
 PAR  G(LIQUID,IN),,                    +GLIQIN;                 3800 N 91Din !
$
 PAR  G(GAS,IN),,                       +IN1G+RTLNP;,,                N 00SUB !
 PAR  G(GAS,IN2),,                      +IN2G+RTLNP;,,                N 00SUB !
$
 FUNCTION GHSERIN   298.15  -6978.89+92.338115*T-21.8386*T*LN(T)
       -0.00572566*T**2-2.120321E-06*T**3-22906*T**(-1);
       429.75  Y  -7033.516+124.476588*T-27.4562*T*LN(T)
       +5.4607E-04*T**2-8.367E-08*T**3-211708*T**(-1)+3.53116E+22*T**(-9);
      3800.00  N !
 FUNCTION GLIQIN    298.15  +3282.092-7.63686*T+GHSERIN-5.59058E-20*T**7;
       429.75  Y  +3283.706-7.640804*T+GHSERIN-3.53116E+22*T**(-9);
      3800.00  N !
 FUNCTION IN1G      298.15  +236267.082-68.7705736*T-15.35206*T*LN(T)
       -0.00527185*T**2-3.98269833E-07*T**3-94519.9*T**(-1);
       600.00  Y  +237868.024-110.524313*T-8.405227*T*LN(T)
       -0.0156847*T**2+2.21196333E-06*T**3-110674.05*T**(-1);
      1100.00  Y   +214982.499+118.641772*T-41.36283*T*LN(T)
       +0.00521457*T**2-2.526305E-07*T**3+2837067*T**(-1);
      2900.00  Y  +229383.599+32.8319553*T-30.10613*T*LN(T)
       +0.001693433*T**2-5.81116833E-08*T**3+109336.3*T**(-1);
      8400.00  Y  +681129.135-735.225845*T+55.47431*T*LN(T)
       -0.005541565*T**2+5.693365E-08*T**3-4.4927235E+08*T**(-1);
     10000.00  N !
 FUNCTION IN2G      298.15  +407673.852-41.5349385*T-35.82134*T*LN(T)
       -0.00654889*T**2+2.03928167E-08*T**3-20133.605*T**(-1);
      1800.00  Y  +397374.677+2.12494681*T-41.1879*T*LN(T)
       -0.00591436*T**2+8.15535167E-08*T**3+3047627*T**(-1);
      3000.00  N !
$ ------------------------------------------------------------------------------
$ P
$
$ RHOMBOHEDRAL_A7 added in unary 4.4
$
 PAR  G(WHITE_P,P)              250.00  +GHSERPP;                3000 N 91Din !
 PAR  G(RED_P,P)                250.00  +GREDPP;                 3000 N 91Din !
 PAR  G(FCC_A1,P:VA)            250.00  +GREDPP+36819-13.138*T;  3000 N 91Din !
 PAR  G(BCC_A2,P:VA)            250.00  +GREDPP+44768.8-13.26*T; 3000 N 91Din !
$PAR  G(RHOMBOHEDRAL_A7,P)      250.00  +GHSERPP-188+0.12527*T;  3000 N 01SGUN !
 PAR  G(LIQUID,P)               250.00  +GLIQPP;                 3000 N 91Din !
$
 PAR  G(GAS,P),,                        +F14404T+RTLNP;,,             N 97SUB !
 PAR  G(GAS,P2),,                       +F14448T+RTLNP;,,             N 97SUB !
 PAR  G(GAS,P3),,                       +F14471T+RTLNP;,,             N 97SUB !
 PAR  G(GAS,P4),,                       +F14479T+RTLNP;,,             N 97SUB !
$
 FUNCTION GHSERPP   250.00  -43821.799+1026.69389*T-178.426*T*LN(T)
       +0.290708*T**2-1.04022667E-04*T**3+1632695*T**(-1);
       317.30  Y  -9587.448+152.341487*T-28.7335301*T*LN(T)
       +0.001715669*T**2-2.2829E-07*T**3+172966*T**(-1);
      1000.00  Y  -8093.075+135.876831*T-26.326*T*LN(T);
      3000.00  N !
 FUNCTION GREDPP    250.00  -25976.559+148.672002*T-25.55*T*LN(T)
       +0.0034121*T**2-2.418867E-06*T**3+160095*T**(-1);
       500.00  Y  -21723.721+77.671737*T-14.368*T*LN(T)
       -0.00957685*T**2+3.93917E-07*T**3-141375*T**(-1);
       852.35  Y  -119408.413+1026.02962*T-149.449556*T*LN(T)
       +0.067272364*T**2-6.651929E-06*T**3+12495943*T**(-1);
      1500.00  Y  -16431.044+17.96235*T+GHSERPP;
      3000.00  N !
 FUNCTION GLIQPP    250.00  -26316.111+434.930931*T-70.7440584*T*LN(T)
       -0.002898936*T**2+3.9049371E-05*T**3+1141147*T**(-1);
       317.30  Y  -7232.449+133.291873*T-26.326*T*LN(T);
      3000.00  N !
$ P(g)
 FUNCTION F14404T   298.15  +310152.015-21.3997112*T-21.18864*T*LN(T)
       +3.9907815E-04*T**2-6.467185E-08*T**3+9337.96*T**(-1);
      1900.00  Y  +332461.723-123.51155*T-8.27475*T*LN(T)
       -0.0025407355*T**2+2.77886167E-08*T**3-6752450*T**(-1);
      3900.00  Y  +295561.679-61.0229009*T-14.92054*T*LN(T)
       -0.002691344*T**2+7.37562667E-08*T**3+20828775*T**(-1);
      7000.00  Y  +105621.967+337.540131*T-60.52207*T*LN(T)
       +0.002171204*T**2-2.32968833E-08*T**3+1.6928265E+08*T**(-1);
     10000.00  N !
$ P2(g)
 FUNCTION F14448T   298.15  +133357.681+.182114942*T-32.02798*T*LN(T)
       -0.004670767*T**2+7.28558667E-07*T**3+106826.35*T**(-1);
       900.00  Y  +128832.659+49.3136341*T-39.23087*T*LN(T)
       +7.156115E-04*T**2-6.82824333E-08*T**3+666443.5*T**(-1);
      3500.00  Y  +164091.361-27.2592211*T-30.65569*T*LN(T)
       +3.4990285E-04*T**2-1.0132875E-07*T**3-21312200*T**(-1);
      6000.00  N !
$ P3(g)
 FUNCTION F14471T   298.15  +191023.012+115.134799*T-55.58992*T*LN(T)
       -0.00549647*T**2+8.37126667E-07*T**3+291982.3*T**(-1);
      1000.00  Y  +187367.887+160.095451*T-62.29736*T*LN(T)
       -1.1488665E-05*T**2+3.82699333E-10*T**3+671571.5*T**(-1);
      6000.00  N !
$ P4(g)
 FUNCTION F14479T   298.15  +31689.2272+246.976573*T-77.33235*T*LN(T)
       -0.0046207025*T**2+6.76817E-07*T**3+563393*T**(-1);
      1100.00  Y  +28520.4461+285.801742*T-83.11153*T*LN(T)
       -6.057165E-06*T**2+1.99865333E-10*T**3+890230*T**(-1);
      6000.00  N !
$ ------------------------------------------------------------------------------
$ Binary system
$
$ From I. Ansara et al. 1994 (Included in LB Vol. 3)
$
$ I. Ansara, C. Chatillon, H.L. Lukas, T. Nishizawa, H. Ohtani, K. Ishida,
$ M. Hillert, B. Sundman, B.B. Argent, A. Watson, T.G. Chart, T. Anderson,
$ Calphad, 18, 177-222(1994).
$
$ Checked against LB and paper. Checked at 6000 K.
$
$ InP becomes stable again above 5516 K when the gas phase is not included.
$
$ The P-rich eutectic is given at 852.4 K in LB, whereas this dataset and
$ LBall-v7+fun.tdb give 851.9 K.
$
 PAR  L(LIQUID,IN,P;0),,                +14124.08-10.17931*T;,,       N 94Ans !
 PAR  L(LIQUID,IN,P;1),,                -2900;,,                      N 94Ans !
$
 PAR  G(ZINCBLENDE_B3,IN:P),,           +2*GB3INPP;,,                 N 94Ans !
$
 PAR  G(GAS,INP),,                      +F11767T+RTLNP;,,             N 97SUB !
$
$ Metastable
$
 PAR  L(FCC_A1,IN,P:VA;0),,             +UN_ASS;,,                    N !
 PAR  L(BCC_A2,IN,P:VA;0),,             +UN_ASS;,,                    N !
$
 FUNCTION GB3INPP   298.15  -47600.6+179.24993*T-31.793475*T*LN(T)
       +0.007880317*T**2+220897*T**(-1)-1.81522E-06*T**3;
      6000.00  N !
$ InP(g)
 FUNCTION F11767T   298.15  +346990.994-3.9706237*T-36.93928*T*LN(T)
       -2.9085075E-04*T**2+3.12684333E-08*T**3+100083.35*T**(-1);
      1700.00  Y  +346687.714-0.757785492*T-37.40245*T*LN(T)
       -3.47272E-06*T**2+1.90372E-10*T**3+134967.45*T**(-1);
      2500.00  N !
$ ------------------------------------------------------------------------------
$
 ASSESSED_SYSTEM
  IN-P(TDB -* +LIQUID +ZINCBL_B3 +TETRA_A6 +RED_P +WHITE_P ;P3 TMM:300/2000 *) !
$
$
 LIST-OF-REFERENCE
 NUMBER  SOURCE
  Null   'Unknown source'
  Same   'Same or similar interaction as in the corresponding stable phase'
  COST   'COST 507 database'
  88Che0 'P.-Y Chevalier, Calphad, 12, 383-92(1988)
          SGTE unary database V.4.1, 1999; In'
  91Din  'A.T. Dinsdale, Calphad, 15, 317-425(1991).'
  92Ans  'I. Ansara, J.-Ph. Nabot, Calphad, 16, 13-18(1992),
          SGTE unary database V.5.0, 2009; In'
  94Ans  'I. Ansara, C. Chatillon, H.L. Lukas, T. Nishizawa, H. Ohtani,
          K. Ishida, M. Hillert, B. Sundman, B.B. Argent, A. Watson,
          T.G. Chart, T. Anderson, Calphad, 18, 177-222(1994); In-P'
  97SUB  'SGTE Substance Database, version 1997'
  98Boa  'D. Boa, I. Ansara, Thermochim. Acta, 314, 79-86(1998),
          SGTE unary database V.4.1, 1999; In, Pb'
  99Ans1 'I. Ansara, S.G. Fries, H.L. Lukas, unpublished, 1999,
          SGTE unary database V.5.0, 2009; In, Sn'
  00SUB  'SGTE substance database, version 2000'
  01SGUN 'SGTE unary database V.4.4, 2001.'
!
