$
$ Database for Au-Lu from S.L. Wang et al. 2016.
$
$ S.L. Wang, J.L. Li, L.L. Qiu, L.J. Zhou, Y.H. Li, C.Q. Ren, C.Y. Fu,
$ Y.H. Lin, C.P. Wang, X.J. Liu, J. Phase Equilib Diffus., 37, 319-26(2016).
$
$ Dataset created 2018.03.30 by Bengt Hallstedt.
$ 2020.12.22: Modified for use with GES6.
$
$ ------------------------------------------------------------------------------
 TEMP-LIM 298.15 6000.00 !
$
$ELEMENT NAME  REF. STATE               ATOMIC MASS H298-H0    S298    !
$
 ELEMENT VA   VACUUM                      0.0          0.0      0.0    ! 
 ELEMENT AU   FCC_A1                    196.9665    6016.592   47.4884 ! 
 ELEMENT LU   HCP_A3                    174.967     6388.968   50.9611 ! 
$ ------------------------------------------------------------------------------
$ Phase definitions
$
 PHASE LIQUID:L % 1 1 !
 CONST LIQUID:L : AU LU : !
$
$ Fcc (cF4) and MeX (cF8)
$
 PHASE FCC_A1 %A 2 1 1 !
 CONST FCC_A1 : AU% LU : VA : !
$
$ Bcc (cI2, Im-3m)
$
 PHASE BCC_A2 %B 2 1 3 !
 CONST BCC_A2 : AU : VA : !
$
$ Hcp (hP2, P6_3/mmc) and Me2X (NiAs-type, hP4, P6_3/mmc, B8_1), zeta
$
 PHASE HCP_A3 %A 2 1 0.5 !
 CONST HCP_A3 : AU LU% : VA : !
$
$ Prototype MoNi4 (tI10, I4/m)
$
 PHASE AU4LU_D1A % 2 4 1 !
 CONST AU4LU_D1A : AU : LU : !
$
$ Prototype Cu3Ti (oP8, Pmmn)
$
 PHASE AU3LU_D0A % 2 3 1 !
 CONST AU3LU_D0A : AU : LU : !
$
$ Prototype MoSi2 (tI6, I4/mmm)
$
 PHASE AU2LU_C11B % 2 2 1 !
 CONST AU2LU_C11B : AU : LU : !
$
$ Prototype CsCl (cP2, Pm3m)
$
 PHASE AULU_B2 % 2 1 1 !
 CONST AULU_B2 : AU : LU : !
$
$ Prototype Co2Si (oP12, Pnma)
$
 PHASE AULU2_C37 % 2 1 2 !
 CONST AULU2_C37 : AU : LU : !
$ ------------------------------------------------------------------------------
$ Defaults
$
 DEFINE-SYSTEM-DEFAULT ELEMENT 2 !
 DEFAULT-COM DEFINE_SYSTEM_ELEMENT VA !
 TYPE-DEF % SEQ * !
 TYPE-DEF A GES AMEND_PHASE_DESCRIPTION @ MAGNETIC -3 0.28 !
 TYPE-DEF B GES AMEND_PHASE_DESCRIPTION @ MAGNETIC -1 0.4 !
 FUNCTION ZERO      298.15  0;                                         6000 N !
 FUNCTION UN_ASS    298.15  0;                                         6000 N !
 FUNCTION R         298.15  +8.31451;                                  6000 N !
$ ------------------------------------------------------------------------------
$ Element data
$ ------------------------------------------------------------------------------
$ Au
$
$ DHCP added in unary 5.0
$ DHCP replaced by the value from 92Ans in SGSOL 5.0
$
$ HCP_A3 and BCT_A5 from 88Che1 not included in unary
$
$ The DHCP phase is labelled D0_24 in 03Liu and alpha-prime in 92Ans. The
$ phase is present between the fcc and hcp phases in the Au-Sn and Au-In
$ systems. The value for DHCP from 92Ans was used to model these systems,
$ thus this value must be included in the unary database and not the 04Du
$ value.
$
 PAR  G(FCC_A1,AU:VA),,                 +GHSERAU;                3200 N 91Din !
 PAR  G(HCP_A3,AU:VA),,                 +GHSERAU+240.75+1.6*T;   3200 N 91Din !
$PAR  G(HCP_A3,AU:VA),,                 +GHSERAU+550+0.3*T;      3200 N 88Che1 !
 PAR  G(BCC_A2,AU:VA),,                 +GHSERAU+4250-1.1*T;     3200 N 91Din !
$PAR  G(BCT_A5,AU),,                    +GHSERAU+4184;           3200 N 88Che1 !
$PAR  G(DHCP,AU),,                      +GHSERAU+125+0.79*T;     3200 N 92Ans !
$PAR  G(DHCP,AU),,                      +GHSERAU+5000;           3200 N 04Du !
 PAR  G(LIQUID,AU),,                    +GHSERAU
             +12552-9.385866*T;                                  3200 N 91Din !
$
 FUNCTION GHSERAU   298.15  -6938.856+106.830098*T-22.75455*T*LN(T)
       -0.00385924*T**2+3.79625E-07*T**3-25097*T**(-1);
       929.40  Y  -93586.481+1021.69543*T-155.706745*T*LN(T)
       +0.08756015*T**2-1.1518713E-05*T**3+10637210*T**(-1);
      1337.33  Y  +314067.829-2016.37825*T+263.252259*T*LN(T)
       -0.118216828*T**2+8.923844E-06*T**3-67999832*T**(-1);
      1735.80  Y  -12133.783+165.272524*T-30.9616*T*LN(T);
      3200.00  N !
$ ------------------------------------------------------------------------------
$ Lu
$
$ FCC_A1 from 13Wan not in unary
$
 PAR  G(HCP_A3,LU:VA),,                 +GHSERLU;                3700 N 91Din !
 PAR  G(FCC_A1,LU:VA),,                 +GHSERLU+5000;           3700 N 13Wan !
 PAR  G(LIQUID,LU),,                    +GLIQLU;                 3700 N 91Din !
$
 FUNCTION GHSERLU   298.15  -8788.329+146.536283*T-29.812*T*LN(T)
       +0.00519165*T**2-1.790717E-06*T**3+39723*T**(-1);
       700.00  Y  -9043.057+142.327643*T-29.0095*T*LN(T)
       +0.00371416*T**2-1.50147E-06*T**3+141549*T**(-1);
      1700.00  Y  +6940.092-46.91844*T-1.83986*T*LN(T)-0.0119001*T**2;
      1936.00  Y  -404023.691+1829.37943*T-239.019502*T*LN(T)
       +0.041800748*T**2-1.661174E-06*T**3+1.24825465E+08*T**(-1);
      3700.00  N !
 FUNCTION GLIQLU    298.15  +12772.12-4.998883*T+GHSERLU;
       600.00  Y  +30389.863-198.378793*T+20.9392663*T*LN(T)
       -0.034238743*T**2+2.890636E-06*T**3-2398650*T**(-1);
      1936.00  Y  -18994.687+292.091104*T-47.9068*T*LN(T);
      3700.00  N !
$ ------------------------------------------------------------------------------
$ Binary system
$
$ S.L. Wang, J.L. Li, L.L. Qiu, L.J. Zhou, Y.H. Li, C.Q. Ren, C.Y. Fu,
$ Y.H. Lin, C.P. Wang, X.J. Liu, J. Phase Equilib Diffus., 37, 319-26(2016).
$
$ Checked against paper. Checked at 6000 K.
$
 PAR  L(LIQUID,AU,LU;0),,               -292100-3*T;,,                N 16Wan !
 PAR  L(LIQUID,AU,LU;1),,               -86670;,,                     N 16Wan !
 PAR  L(LIQUID,AU,LU;2),,               +59930;,,                     N 16Wan !
 PAR  L(LIQUID,AU,LU;3),,               +7000+19.3*T;,,               N 16Wan !
$
 PAR  L(FCC_A1,AU,LU:VA;0),,            -278000+2.8*T;,,              N 16Wan !
 PAR  L(FCC_A1,AU,LU:VA;1),,            -32300-14*T;,,                N 16Wan !
 PAR  L(FCC_A1,AU,LU:VA;2),,            +32900;,,                     N 16Wan !
$
 PAR  L(HCP_A3,AU,LU:VA;0),,            +UN_ASS;,,                    N !
$
 PAR  G(AU4LU_D1A,AU:LU),,              +4*GHSERAU+GHSERLU
             -301125+8.35*T+1.55*T*LN(T);,,                           N 16Wan !
 PAR  G(AU3LU_D0A,AU:LU),,              +3*GHSERAU+GHSERLU
             -269680+4.4*T+0.4*T*LN(T)-0.00044*T**2;,,                N 16Wan !
 PAR  G(AU2LU_C11B,AU:LU),,             +2*GHSERAU+GHSERLU
             -246258+3.3*T+1.44*T*LN(T)-0.00159*T**2;,,               N 16Wan !
 PAR  G(AULU_B2,AU:LU),,                +GHSERAU+GHSERLU
             -198040+T+0.98*T*LN(T);,,                                N 16Wan !
 PAR  G(AULU2_C37,AU:LU),,              +GHSERAU+2*GHSERLU
             -203364+3.93*T;,,                                        N 16Wan !
$ ------------------------------------------------------------------------------
$
$
 LIST-OF-REFERENCE
 NUMBER  SOURCE
  Null   'Unknown source'
  Same   'Same or similar interaction as in the corresponding stable phase'
  COST   'COST 507 database'
  88Che1 'P.-Y. Chevalier, Thermochim. Acta, 130, 1-13(1988); Au, Sn'
  91Din  'A.T. Dinsdale, Calphad, 15, 317-425(1991).'
  92Ans  'I. Ansara, J.-Ph. Nabot, Calphad, 16, 13-18(1992); Au'
  04Du   'Z. Du, C. Guo, D. Lu, J. Alloys Compd., 364, 117-20(2004),
          SGTE unary database V.5.0, 2009; Au'
  13Wan  'D. Wang, Y. Yu, X.J. Liu, C.P. Wang, Calphad, 41, 20-25(2013); Lu'
  16Wan  'S.L. Wang, J.L. Li, L.L. Qiu, L.J. Zhou, Y.H. Li, C.Q. Ren, C.Y. Fu,
          Y.H. Lin, C.P. Wang, X.J. Liu,
          J. Phase Equilib Diffus., 37, 319-26(2016); Au-Lu'
!
