$
$ Database for Re-W from S.G. Fries and B. Sundman 2002.
$
$ S.G. Fries, B. Sundman, Phys. Rev. B, 66, 012203(2002).
$
$ Dataset created 2024.10.21 by Bengt Hallstedt.
$
$ Old data for Re used.
$
$ The paramaters were taken from a tdb provided by the authors.
$
$ 5SL sigma completely derived from DFT calculations using an add-on model.
$
$ The parameter G(CHI_A12,RE:W:W) is incorrect (GBCCRE instead of GFCCWW).
$
$ ------------------------------------------------------------------------------
 TEMP-LIM 298.15 6000.00 !
$
$ELEMENT NAME  REF. STATE               ATOMIC MASS H298-H0    S298    !
$
 ELEMENT VA   VACUUM                      0.0          0.0      0.0    ! 
 ELEMENT RE   HCP_A3                    186.207     5333.      36.4820 ! 
 ELEMENT W    BCC_A2                    183.85      4970.0     32.6176 ! 
$ ------------------------------------------------------------------------------
$ Phase definitions
$
 PHASE LIQUID:L % 1 1 !
 CONST LIQUID:L : RE W : !
$
$ Fcc (cF4, Fm-3m) and MeX (cF8, Fm-3m)
$
 PHASE FCC_A1 %A 2 1 1 !
 CONST FCC_A1 : RE W : VA : !
$
$ Bcc (cI2, Im-3m)
$
 PHASE BCC_A2 %B 2 1 3 !
 CONST BCC_A2 : RE W% : VA : !
$
$ Hcp (hP2, P6_3/mmc) and Me2X (NiAs-type, hP4, P6_3/mmc, B8_1)
$
 PHASE HCP_A3 %A 2 1 0.5 !
 CONST HCP_A3 : RE% W : VA : !
$
$ Prototype alpha-Mn (cI58, I-43m)
$
 PHASE CHI_A12 % 3 24 10 24 !
 CONST CHI_A12 : RE : W : RE W : !
$
$ Disordered contribution to SIGMA_D8B
$
 PHASE DIS_SIGMA % 1 1 !
 CONST DIS_SIGMA : RE W : !
$
$ Prototype CrFe (tP30, P4_2/mnm)
$
 PHASE SIGMA_D8B %P 5 2 4 8 8 8 !
 CONST SIGMA_D8B : RE W : RE W : RE W : RE W : RE W : !
$ ------------------------------------------------------------------------------
$ Defaults
$
 DEFINE-SYSTEM-DEFAULT ELEMENT 2 !
 DEFAULT-COM DEFINE_SYSTEM_ELEMENT VA !
 TYPE-DEF % SEQ * !
 TYPE-DEF A GES AMEND_PHASE_DESCRIPTION @ MAGNETIC -3 0.28 !
 TYPE-DEF B GES AMEND_PHASE_DESCRIPTION @ MAGNETIC -1 0.4 !
 TYPE-DEF P GES AMEND_PHASE_DESCRIPTION SIGMA_D8B NEVER_DIS_PAR DIS_SIGMA !
 FUNCTION ZERO      298.15  0;                                         6000 N !
 FUNCTION UN_ASS    298.15  0;                                         6000 N !
 FUNCTION R         298.15  +8.31451;                                  6000 N !
$ ------------------------------------------------------------------------------
$ Element data
$ ------------------------------------------------------------------------------
$ Re
$
$ Warning! Old data for hcp and Liquid used.
$
$ HCP_A3 and LIQUID revised in unary 3.0
$ BCC_A2 revised in unary 4.4
$
 PAR  G(HCP_A3,RE:VA),,                 +GHSERRE;,,                   N 91Din !
 PAR  G(FCC_A1,RE:VA),,                 +GHSERRE+11000-1.5*T;,,       N 91Din !
 PAR  G(BCC_A2,RE:VA),,                 +GHSERRE+17000-3.7*T;,,       N 01SGUN !
$PAR  G(BCC_A2,RE:VA),,                 +GHSERRE+29200-6*T;,,         N 91Din !
 PAR  G(LIQUID,RE),,                    +GLIQRE;,,                    N 91Din !
$
 PAR  G(DIS_SIGMA,RE),,                 +GHSERRE+16300-2.62*T;,,      N 02Fri !
$
 FUNCTION GHSERRE   298.15  -7305.045+123.758773*T-23.6892641*T*LN(T)
       -0.002723387*T**2;
      3459.00  Y  +38514.17-65.920606*T+.0645635*T*LN(T)
       -0.008050184*T**2+2.19551E-07*T**3-15938253*T**(-1);
      6000.00  N !
 FUNCTION GLIQRE    298.15  +45296.708-11.184298*T+GHSERRE;  
      1000.00  Y  +66060.979-113.540121*T+7.4580354*T*LN(T)
       -0.016183804*T**2+7.69496E-07*T**3-4421721*T**(-1);
      3459.00  Y  -5301.43+328.158541*T-50*T*LN(T);
      6000.00  N !
 FUNCTION GFCCRE    298.15  +GHSERRE+11000-1.5*T;                      6000 N !
 FUNCTION GBCCRE    298.15  +GHSERRE+17000-3.7*T;                      6000 N !
$ ------------------------------------------------------------------------------
$ W
$
 PAR  G(BCC_A2,W:VA),,                  +GHSERWW;,,                   N 91Din !
 PAR  G(FCC_A1,W:VA),,                  +GHSERWW+19300+0.63*T;,,      N 91Din !
 PAR  G(HCP_A3,W:VA),,                  +GHSERWW+14750;,,             N 91Din !
 PAR  G(LIQUID,W),,                     +GLIQWW;,,                    N 91Din !
$
 PAR  G(DIS_SIGMA,W),,                  +GHSERWW+20200-4.55*T;,,      N 02Fri !
$
 FUNCTION GHSERWW   298.15  -7646.311+130.4*T-24.1*T*LN(T)
       -0.001936*T**2+2.07E-07*T**3+44500*T**(-1)-5.33E-11*T**4;
      3695.00  Y  -82868.801+389.362335*T-54*T*LN(T)+1.528621E+33*T**(-9);
      6000.00  N !
 FUNCTION GLIQWW    298.15  +52160.584-14.10999*T+GHSERWW-2.713468E-24*T**7;
      3695.00  Y  -30436.051+375.175*T-54*T*LN(T);
      6000.00  N !
 FUNCTION GFCCWW    298.15  +GHSERWW+19300+0.63*T;                     6000 N !
$ ------------------------------------------------------------------------------
$ Binary system
$
$ S.G. Fries, B. Sundman, Phys. Rev. B, 66, 012203(2002).
$
$ Checked against paper and author's tdb. Checked at 6000 K.
$
$ Old data for Re used.
$
$ The paramaters were taken from a tdb provided by the authors.
$
$ 5SL sigma completely derived from DFT calculations using an add-on model.
$
$ The parameter G(CHI_A12,RE:W:W) is incorrect (GBCCRE instead of GFCCWW).
$
 PAR  L(LIQUID,RE,W;0),,                -51420;,,                     N 01Dup !
$
 PAR  L(BCC_A2,RE,W:VA;0),,             +9087-14.82*T;,,              N 01Dup !
 PAR  L(HCP_A3,RE,W:VA;0),,             +21550-18.68*T;,,             N 01Dup !
$
 PAR  G(CHI_A12,RE:W:RE),,              +48*GFCCRE+10*GHSERWW
             -374622-199.868*T;,,                                     N 02Fri !
 PAR  G(CHI_A12,RE:W:W),,               +24*GFCCRE+10*GHSERWW
             +24*GBCCRE-293538-74.3*T;,,                              N 01Dup !
$
 PAR  L(DIS_SIGMA,RE,W;0),,             -24700-5.4*T;,,               N 02Fri !
$
 PAR  G(SIGMA_D8B,RE:RE:RE:RE:RE),,     +ZERO;,,                      N 02Fri !
 PAR  G(SIGMA_D8B,RE:RE:RE:RE:W),,      -128751;,,                    N 02Fri !
 PAR  G(SIGMA_D8B,RE:RE:RE:W:RE),,      +46663;,,                     N 02Fri !
 PAR  G(SIGMA_D8B,RE:RE:RE:W:W),,       +1098;,,                      N 02Fri !
 PAR  G(SIGMA_D8B,RE:RE:W:RE:RE),,      -171332;,,                    N 02Fri !
 PAR  G(SIGMA_D8B,RE:RE:W:RE:W),,       -232629;,,                    N 02Fri !
 PAR  G(SIGMA_D8B,RE:RE:W:W:RE),,       +25377;,,                     N 02Fri !
 PAR  G(SIGMA_D8B,RE:RE:W:W:W),,        +19628;,,                     N 02Fri !
 PAR  G(SIGMA_D8B,RE:W:RE:RE:RE),,      -121754;,,                    N 02Fri !
 PAR  G(SIGMA_D8B,RE:W:RE:RE:W),,       -251683;,,                    N 02Fri !
 PAR  G(SIGMA_D8B,RE:W:RE:W:RE),,       -59889;,,                     N 02Fri !
 PAR  G(SIGMA_D8B,RE:W:RE:W:W),,        -92100;,,                     N 02Fri !
 PAR  G(SIGMA_D8B,RE:W:W:RE:RE),,       -249690;,,                    N 02Fri !
 PAR  G(SIGMA_D8B,RE:W:W:RE:W),,        -311760;,,                    N 02Fri !
 PAR  G(SIGMA_D8B,RE:W:W:W:RE),,        -48339;,,                     N 02Fri !
 PAR  G(SIGMA_D8B,RE:W:W:W:W),,         -62840;,,                     N 02Fri !
 PAR  G(SIGMA_D8B,W:RE:RE:RE:RE),,      +17349;,,                     N 02Fri !
 PAR  G(SIGMA_D8B,W:RE:RE:RE:W),,       -84887;,,                     N 02Fri !
 PAR  G(SIGMA_D8B,W:RE:RE:W:RE),,       +90295;,,                     N 02Fri !
 PAR  G(SIGMA_D8B,W:RE:RE:W:W),,        +63101;,,                     N 02Fri !
 PAR  G(SIGMA_D8B,W:RE:W:RE:RE),,       -146792;,,                    N 02Fri !
 PAR  G(SIGMA_D8B,W:RE:W:RE:W),,        -178438;,,                    N 02Fri !
 PAR  G(SIGMA_D8B,W:RE:W:W:RE),,        +74907;,,                     N 02Fri !
 PAR  G(SIGMA_D8B,W:RE:W:W:W),,         +70616;,,                     N 02Fri !
 PAR  G(SIGMA_D8B,W:W:RE:RE:RE),,       -100593;,,                    N 02Fri !
 PAR  G(SIGMA_D8B,W:W:RE:RE:W),,        -196378;,,                    N 02Fri !
 PAR  G(SIGMA_D8B,W:W:RE:W:RE),,        -2769;,,                      N 02Fri !
 PAR  G(SIGMA_D8B,W:W:RE:W:W),,         -22933;,,                     N 02Fri !
 PAR  G(SIGMA_D8B,W:W:W:RE:RE),,        -204589;,,                    N 02Fri !
 PAR  G(SIGMA_D8B,W:W:W:RE:W),,         -247505;,,                    N 02Fri !
 PAR  G(SIGMA_D8B,W:W:W:W:RE),,         +16812;,,                     N 02Fri !
 PAR  G(SIGMA_D8B,W:W:W:W:W),,          +ZERO;,,                      N 02Fri !
$
$ metastable
$
 PAR  L(FCC_A1,RE,W:VA;0),,             +21550-18.68*T;,,             N 01Dup !
$ ------------------------------------------------------------------------------
$
 ASSESSED_SYSTEM
  RE-W(TDB -* +LIQUID +BCC_A2 +HCP_A3 +CHI_A12 +SIGMA_D8B +DIS_SIGMA
  ;P3 TMM:1000/4000 *) !
$
$
 LIST-OF-REFERENCE
 NUMBER  SOURCE
  Null   'Unknown source'
  Same   'Same or similar interaction as in the corresponding stable phase'
  REFLAV 'Laves phase convention: G(LAVES,X:X)=+3*GHSERXX+15000'
  91Din  'A.T. Dinsdale, Calphad, 15, 317-425(1991).'
  96Arb  'J.W. Arblaster, Calphad, 20, 343-52(1996),
          SGTE unary database V.3.0, 1996; Re'
  01Dup  'N. Dupin, B. Sundman, Scand. J. Metall., 30, 184-92(2001); Re-W'
  01SGUN 'SGTE unary database V.4.4, 2001.'
  02Fri  'S.G. Fries, B. Sundman, Phys. Rev. B, 66, 012203(2002); Re-W'
!
