$
$ Database for La-Pu from X.J. Liu et al. 2014.
$
$ X.J. Liu, Q. He, D. Wang, Y. Lu, M.H. Chen, J.P. Jia, C.P. Wang,
$ J. Nucl. Mater., 453, 169-75(2014).
$
$ Dataset created 2023.01.28 by Bengt Hallstedt.
$
$ Invariant equilibria differ by up to 2 K. Parameter rounding?
$
$ ------------------------------------------------------------------------------
 TEMP-LIM 298.15 6000.00 !
$
$ELEMENT NAME  REF. STATE               ATOMIC MASS H298-H0    S298    !
$
 ELEMENT VA   VACUUM                      0.0          0.0      0.0    ! 
 ELEMENT LA   DHCP                      138.9055    6665.112   56.9024 ! 
 ELEMENT PU   ALPHA_PU                  244.        6902.0     54.4610 ! 
$ ------------------------------------------------------------------------------
$ Phase definitions
$
 PHASE LIQUID:L % 1 1 !
 CONST LIQUID:L : LA PU : !
$
$ Fcc (cF4, Fm-3m) and MeX (cF8, Fm-3m)
$
 PHASE FCC_A1 %A 2 1 1 !
 CONST FCC_A1 : LA% PU% : VA : !
$
$ Bcc (cI2, Im-3m)
$
 PHASE BCC_A2 %B 2 1 3 !
 CONST BCC_A2 : LA% PU : VA : !
$
$ Hcp (hP2, P6_3/mmc) and Me2X (NiAs-type, hP4, P6_3/mmc, B8_1)
$
 PHASE HCP_A3 %A 2 1 0.5 !
 CONST HCP_A3 : PU : VA : !
$
$ Prototype alpha-La (SB A3', hP4, P6_3/mmc)
$
 PHASE DHCP % 1 1 !
 CONST DHCP : LA : !
$
$ Prototype In (tI2, I4/mmm), delta-prime
$
 PHASE TETRAGONAL_A6 % 1 1 !
 CONST TETRAGONAL_A6 : LA PU% : !
$
$ Prototype alpha-Pu (mP16, P2_1/m)
$
 PHASE ALPHA_PU % 1 1 !
 CONST ALPHA_PU : PU : !
$
$ Prototype beta-Pu (mC34, C2/m)
$
 PHASE BETA_PU % 1 1 !
 CONST BETA_PU : PU : !
$
$ Prototype gamma-Pu (oF8, Fddd)
$
 PHASE GAMMA_PU % 1 1 !
 CONST GAMMA_PU : PU : !
$ ------------------------------------------------------------------------------
$ Defaults
$
 DEFINE-SYSTEM-DEFAULT ELEMENT 2 !
 DEFAULT-COM DEFINE_SYSTEM_ELEMENT VA !
 TYPE-DEF % SEQ * !
 TYPE-DEF A GES AMEND_PHASE_DESCRIPTION @ MAGNETIC -3 0.28 !
 TYPE-DEF B GES AMEND_PHASE_DESCRIPTION @ MAGNETIC -1 0.4 !
 FUNCTION ZERO      298.15  0;                                         6000 N !
 FUNCTION UN_ASS    298.15  0;                                         6000 N !
 FUNCTION R         298.15  +8.31451;                                  6000 N !
$ ------------------------------------------------------------------------------
$ Element data
$ ------------------------------------------------------------------------------
$ La
$
$ TETRAGONAL_A6 from 14Liu not included in unary
$
 PAR  G(DHCP,LA),,                      +GHSERLA;                4000 N 91Din !
 PAR  G(FCC_A1,LA:VA),,                 +GFCCLA;                 4000 N 91Din !
 PAR  G(BCC_A2,LA:VA),,                 +GBCCLA;                 4000 N 91Din !
 PAR  G(TETRAGONAL_A6,LA),,             +GHSERLA+5000;           4000 N 14Liu !
 PAR  G(LIQUID,LA),,                    +GLIQLA;                 4000 N 91Din !
$
 FUNCTION GHSERLA   298.15  -7968.403+120.284604*T-26.34*T*LN(T)
       -0.001295165*T**2;
       550.00  Y  -3381.413+59.06113*T-17.1659411*T*LN(T)
       -0.008371705*T**2+6.8932E-07*T**3-399448*T**(-1);
      2000.00  Y  -15608.882+181.390071*T-34.3088*T*LN(T);
      4000.00  N !
 FUNCTION GFCCLA    298.15  -6109.797+89.878761*T-21.7919*T*LN(T)
       -0.004045175*T**2-5.25865E-07*T**3;
      1134.00  Y  -124598.976+955.878375*T-139.346741*T*LN(T)
       +0.042032405*T**2-3.066199E-06*T**3+20994153*T**(-1);
      2000.00  Y  +3009.496-2.846081*T+GHSERLA;
      4000.00  N !
 FUNCTION GBCCLA    298.15  -3952.161+88.072353*T-21.7919*T*LN(T)
       -0.004045175*T**2-5.25865E-07*T**3;
       800.00  Y  +321682.673-3565.08252*T+513.440708*T*LN(T)
       -0.387295093*T**2+4.9547989E-05*T**3-36581228*T**(-1);
      1134.00  Y  -16377.894+218.492988*T-39.5388*T*LN(T);
      1193.00  Y  -136609.91+1123.34397*T-163.413074*T*LN(T)
       +0.053968535*T**2-4.056395E-06*T**3+21167204*T**(-1);
      2000.00  Y  +7402.894-6.553756*T+GHSERLA;
      4000.00  N !
 FUNCTION GLIQLA    298.15  +5332.653+18.23012*T-11.0188191*T*LN(T)
       -0.020171603*T**2+2.93775E-06*T**3-133541*T**(-1);
      1134.00  Y  -3942.004+171.018431*T-34.3088*T*LN(T);
      4000.00  N !
$ ------------------------------------------------------------------------------
$ Pu
$
$ HCP_A3, ORTHORHOMBIC_A20 and TETRAGONAL_U from 99Kur and 10Kur1
$ not included in unary
$ DHCP, ORTHO_AC and TETRAG_AD from 10Kur2 not included in unary
$ HCP_A3 and DHCP from 11Tur not included in unary
$
 PAR  G(ALPHA_PU,PU),,                  +GHSERPU;                3000 N 91Din !
 PAR  G(BCC_A2,PU:VA),,                 +GBCCPU;                 3000 N 91Din !
 PAR  G(BETA_PU,PU),,                   +GBETPU;                 3000 N 91Din !
 PAR  G(FCC_A1,PU:VA),,                 +GFCCPU;                 3000 N 91Din !
 PAR  G(GAMMA_PU,PU),,                  +GGAMPU;                 3000 N 91Din !
 PAR  G(TETRAGONAL_A6,PU),,             +GTETPU;                 3000 N 91Din !
$PAR  G(HCP_A3,PU:VA),,                 +GBCCPU+5000;            3000 N 99Kur !
$PAR  G(HCP_A3,PU:VA),,                 +GFCCPU+5000;            3000 N 10Kur1 !
 PAR  G(HCP_A3,PU:VA),,                 +GFCCPU+2945;            3000 N 11Tur !
$PAR  G(DHCP,PU),,                      +GFCCPU+5000;            3000 N 10Kur2 !
$PAR  G(DHCP,PU),,                      +GFCCPU+1680;            3000 N 11Tur !
$PAR  G(ORTHO_AC,PU),,                  +GHSERPU+1248.6;         3000 N 10Kur2 !
$PAR  G(TETRAG_AD,PU),,                 +GTETPU+575.1;           3000 N 10Kur2 !
$PAR  G(ORTHORHOMBIC_A20,PU),,          +GHSERPU+2026;           3000 N 99Kur !
$PAR  G(ORTHORHOMBIC_A20,PU),,          +GBETPU+652.7;           3000 N 10Kur1 !
$PAR  G(TETRAGONAL_U,PU),,              +GFCCPU+227.5;           3000 N 99Kur !
$PAR  G(TETRAGONAL_U,PU),,              +GTETPU+209.6;           3000 N 10Kur1 !
 PAR  G(LIQUID,PU),,                    +GHSERPU
             +6608.1-12.5133*T;                                  3000 N 91Din !
$
 FUNCTION GHSERPU   298.15  -7396.309+80.301382*T-18.1258*T*LN(T)
       -0.02241*T**2;
       400.00  Y  -16605.962+236.786603*T-42.4187*T*LN(T)
       -0.00134493*T**2+2.63443E-07*T**3+579325*T**(-1);
       944.00  Y  -14462.156+232.961553*T-42.248*T*LN(T);
      3000.00  N !
 FUNCTION GBCCPU    298.15  -1358.984+116.603882*T-27.094*T*LN(T)
       -0.009105*T**2+2.061667E-06*T**3+20863*T**(-1);
       745.00  Y  -2890.817+156.878957*T-33.72*T*LN(T);
       956.00  Y  +29313.619-132.788248*T+6.921*T*LN(T)
       -0.02023305*T**2+1.426922E-06*T**3-4469245*T**(-1);
      2071.00  Y  -938.429-5.539698*T+GHSERPU;
      3000.00  N !
 FUNCTION GBETPU    298.15  -4873.654+123.249151*T-27.416*T*LN(T)
       -0.00653*T**2;
       679.50  Y  +2435.094+43.566585*T-15.7351*T*LN(T)
       -0.0154772*T**2+1.524942E-06*T**3-864940*T**(-1);
      1464.00  Y  +503.094-4.739938*T+GHSERPU;
      3000.00  N !
 FUNCTION GFCCPU    298.15  -3920.781+127.586536*T-28.4781*T*LN(T)
       -0.0054035*T**2;
       990.00  Y  +3528.208+41.52572*T-15.7351*T*LN(T)
       -0.0154772*T**2+1.524942E-06*T**3-864940*T**(-1);
      1464.00  Y  +1596.208-6.780803*T+GHSERPU;
      3000.00  N !
 FUNCTION GGAMPU    298.15  -16766.303+419.402655*T-77.5802*T*LN(T)
       +0.0816415*T**2-2.8103833E-05*T**3+574825*T**(-1);
       487.90  Y  -2942.77+88.325069*T-22.0233*T*LN(T)-0.0114795*T**2;
       593.90  Y  -9336.967+160.314641*T-32.3405*T*LN(T)
       -0.0070383*T**2+6.92887E-07*T**3+630600*T**(-1);
      1179.00  Y  +2026.406-6.829936*T+GHSERPU;
      3000.00  N !
 FUNCTION GTETPU    298.15  -496.178+54.586547*T-16.43*T*LN(T)
       -0.024006*T**2+5.166667E-06*T**3-158470*T**(-1);
       736.00  Y  -6122.307+173.35008*T-35.56*T*LN(T);
       757.00  Y  +3982.078+63.890352*T-19.756*T*LN(T)
       -0.00937295*T**2+6.59882E-07*T**3-1112565*T**(-1);
      2157.00  Y  -738.383-4.905143*T+GHSERPU;
      3000.00  N !
$ ------------------------------------------------------------------------------
$ Binary system
$
$ X.J. Liu, Q. He, D. Wang, Y. Lu, M.H. Chen, J.P. Jia, C.P. Wang,
$ J. Nucl. Mater., 453, 169-75(2014).
$
$ Checked against paper. Checked at 6000 K.
$
$ Invariant equilibria differ by up to 2 K. Parameter rounding?
$
 PAR  L(LIQUID,LA,PU;0),,               +29020-5*T;,,                 N 14Liu !
 PAR  L(LIQUID,LA,PU;1),,               -7000;,,                      N 14Liu !
 PAR  L(LIQUID,LA,PU;2),,               +2200-T;,,                    N 14Liu !
$
 PAR  L(FCC_A1,LA,PU:VA;0),,            +25250-1.9*T;,,               N 14Liu !
 PAR  L(FCC_A1,LA,PU:VA;1),,            -15400+6.3*T;,,               N 14Liu !
 PAR  L(FCC_A1,LA,PU:VA;2),,            +4300+1.05*T;,,               N 14Liu !
$
 PAR  L(BCC_A2,LA,PU:VA;0),,            +30780-6.8*T;,,               N 14Liu !
 PAR  L(BCC_A2,LA,PU:VA;1),,            -6410;,,                      N 14Liu !
 PAR  L(BCC_A2,LA,PU:VA;2),,            +7490-4.1*T;,,                N 14Liu !
$
 PAR  L(TETRAGONAL_A6,LA,PU;0),,        +52900-25.03*T;,,             N 14Liu !
$ ------------------------------------------------------------------------------
$
$
 LIST-OF-REFERENCE
 NUMBER  SOURCE
  Null   'Unknown source'
  COST   'COST 507 database'
  91Din  'A.T. Dinsdale, Calphad, 15, 317-425(1991).'
  99Kur  'M. Kurata, Calphad, 23, 305-37(1999); Pu, U'
  10Kur1 'M. Kurata, IOP Conf. Ser.: Mater. Sci. Eng., 9, 012022(2010); Pu, U'
  10Kur2 'M. Kurata, IOP Conf. Ser.: Mater. Sci. Eng., 9, 012023(2010); Pu'
  11Tur  'P.E.A. Turchi, A.I. Landa, P.A. Soderlind,
          J. Nucl. Mater., 418, 165-73(2011); Am, Pu'
  14Liu  'X.J. Liu, Q. He, D. Wang, Y. Lu, M.H. Chen, J.P. Jia, C.P. Wang,
          J. Nucl. Mater., 453, 169-75(2014); La, La-Pu'
!
