$
$ Database for Ga-Se from F. Zheng et al. 2008
$
$ F. Zheng, J.Y. Shen, Y.Q. Liu, W.K. Kim, M.Y. Chu, M. Ider, X.H. Bao,
$ T.J. Anderson, Calphad, 32, 432-38(2008).
$
$ Dataset created 2010.01.24 by Bengt Hallstedt.
$ 2021.01.03: Modified for use with GES6.
$
$ Modelling GA2SE3_B3 with Va on both sublattices is not a great idea.
$ TCR does not like this at all. TCS refuses to calculate anything useful.
$ It was necessary to edit the TCR output to get a correct phase diagram.
$ According to the paper nothing is known about the defect chemistry of Ga2Se3.
$ The authors have, thus, made the worst of all possible choices.
$ At 6000 K vacuum is stable. Removing vacuum, i.e. GA2SE3_B3, reveals a large
$ inverse miscibility gap with a minimum at x(Se)=0.68 and 2080 K.
$
$ Pure Se has been drastically changed compared to the SGTE unary database.
$ The changes are documented in a PhD Thesis from 1999 by C.H. Chang,
$ which I don't have.
$
$ In spite of the changed Se data, the calculated phase diagram
$ does not change.
$
$ ------------------------------------------------------------------------------
 TEMP-LIM 298.15 6000.00 !
$
$ELEMENT NAME  REF. STATE               ATOMIC MASS H298-H0    S298    !
$
 ELEMENT /-   ELECTRON_GAS                0.0          0.0      0.0    ! 
 ELEMENT VA   VACUUM                      0.0          0.0      0.0    ! 
 ELEMENT GA   ORTHORHOMBIC_GA            69.72      5572.0     40.7271 ! 
 ELEMENT SE   HEXAGONAL_A8               78.96      5514.512   41.9655 ! 
$ ------------------------------------------------------------------------------
$ Species
$
 SPECIE  GA+3                               GA/+3 !
 SPECIE  SE-2                               SE/-2 !
$ ------------------------------------------------------------------------------
$ Phase definitions
$
 PHASE ION:Y % 2 1 1 !
 CONST ION:Y : GA+3 : SE SE-2 VA : !
$
$ Fcc (cF4, Fm-3m) and MeX (cF8, Fm-3m)
$
 PHASE FCC_A1 %A 2 1 1 !
 CONST FCC_A1 : GA : VA : !
$
$ Bcc (cI2, Im-3m)
$
 PHASE BCC_A2 %B 2 1 3 !
 CONST BCC_A2 : GA : VA : !
$
$ Hcp (hP2, P6_3/mmc) and Me2X (hP3 or hP9, P6_3/mmc or P-31m ?)
$
 PHASE HCP_A3 %A 2 1 0.5 !
 CONST HCP_A3 : GA : VA : !
$
$ gamma-Se (hP3, P3_121)
$
 PHASE HEXAGONAL_A8 % 1 1 !
 CONST HEXAGONAL_A8 : SE : !
$
$ alpha-Ga (oC8, Cmca)
$
 PHASE ORTHORHOMBIC_A11 % 1 1 !
 CONST ORTHORHOMBIC_A11 : GA : !
$
$ GaSe (hP8, P-6m2)
$ There are several different stacking variants
$
 PHASE GASE % 2 1 1 !
 CONST GASE : GA : SE : !
$
$ Prototype Ga2Se3 (mC20, Cc)
$ beta is the low-temperature form!
$
 PHASE GA2SE3_BETA % 2 2 3 !
 CONST GA2SE3_BETA : GA : SE : !
$
$ Prototype ZnS (cF8, F-43m)
$
 PHASE GA2SE3_B3 % 2 2 3 !
 CONST GA2SE3_B3 : GA VA : SE VA : !
$ ------------------------------------------------------------------------------
$ Defaults
$
 DEFINE-SYSTEM-DEFAULT ELEMENT 2 !
 DEFAULT-COM DEFINE_SYSTEM_ELEMENT VA /- !
 TYPE-DEF % SEQ * !
 TYPE-DEF A GES AMEND_PHASE_DESCRIPTION @ MAGNETIC -3 0.28 !
 TYPE-DEF B GES AMEND_PHASE_DESCRIPTION @ MAGNETIC -1 0.4 !
 FUNCTION ZERO      298.15  0;                                         6000 N !
 FUNCTION UN_ASS    298.15  0;                                         6000 N !
 FUNCTION R         298.15  +8.31451;                                  6000 N !
$ ------------------------------------------------------------------------------
$ Element data
$ ------------------------------------------------------------------------------
$ Ga
$
$ DIAMOND_A4 added in unary 5.0
$
$ Changed name from ORTHORHOMBIC_GA to ORTHORHOMBIC_A11
$
 PAR  G(ORTHORHOMBIC_A11,GA)    200.00  +GHSERGA;                4000 N 91Din !
 PAR  G(FCC_A1,GA:VA)           200.00  +GHSERGA+3800-10.2*T;    4000 N 91Din !
 PAR  G(BCC_A2,GA:VA)           200.00  +GHSERGA+4500-11.7*T;    4000 N 91Din !
 PAR  G(HCP_A3,GA:VA)           200.00  +GHSERGA+4500-9.5*T;     4000 N 91Din !
$PAR  G(DIAMOND_A4,GA)          200.00  +GHSERGA+20900-2*T;      4000 N 09SGUN !
$PAR  G(BCT_A5,GA)              200.00  +GHSERGA+3846-9.8*T;     4000 N 91Din !
$PAR  G(TETRAGONAL_A6,GA)       200.00  +GHSERGA+3500-10*T;      4000 N 91Din !
$PAR  G(LIQUID,GA)              200.00  +GLIQGA;                 4000 N 91Din !
$
 PAR  G(ION,GA+3:VA)            200.00  +GLIQGA;                 4000 N 91Din !
$
 PAR  G(GA2SE3_B3,GA:VA),,              +2*GHSERGA+332398+230*T;,,    N 08Zhe !
 PAR  L(GA2SE3_B3,GA,VA:VA;0),,         -88127;,,                     N 08Zhe !
 PAR  L(GA2SE3_B3,GA,VA:VA;1),,         -23907;,,                     N 08Zhe !
$
 FUNCTION GHSERGA   200.00  -21312.331+585.263691*T-108.228783*T*LN(T)
       +0.227155636*T**2-1.18575257E-04*T**3+439954*T**(-1);
       302.91  Y  -7055.643+132.73019*T-26.0692906*T*LN(T)
       +1.506E-04*T**2-4.0173E-08*T**3-118332*T**(-1)+1.64547E+23*T**(-9);
      4000.00  N !
 FUNCTION GLIQGA    200.00  +5491.298-18.073995*T+GHSERGA-7.0171E-17*T**7;
       302.91  Y  +5666.455-18.681147*T+GHSERGA-1.64547E+23*T**(-9);
      4000.00  N !
$ ------------------------------------------------------------------------------
$ Se
$
 PAR  G(HEXAGONAL_A8,SE),,              +GHSERSE;                1000 N 91Din !
$PAR  G(LIQUID,SE),,                    +GLIQSE;                 1000 N 91Din !
$
 PAR  G(ION,SE),,                       +GLIQSE;                 1000 N 91Din !
$
 PAR  G(GA2SE3_B3,VA:SE),,              +3*GHSERSE+129500;,,          N 08Zhe !
 PAR  L(GA2SE3_B3,VA:SE,VA;0),,         -629518;,,                    N 08Zhe !
$
$FUNCTION GHSERSE   298.15  -9376.371+174.205877*T-33.6527*T*LN(T)
$      +0.02424314*T**2-1.5318461E-05*T**3+102249*T**(-1);
$      494.00  Y  -37546.134+507.111538*T-81.2006585*T*LN(T)
$      +0.037144892*T**2-5.611026E-06*T**3+2614263*T**(-1);
$      800.00  Y  -12193.47+197.770166*T-35.1456*T*LN(T);
$     1000.00  N !
$ Function below from C.H. Chang 1999 (PhD Thesis), taken from F. Zheng 2008
 FUNCTION GHSERSE   298.15  -6657.653+92.539695*T-19.14*T*LN(T)
       -0.012295*T**2+2.6766666E-06*T**3;
       760.00  Y  -9059.16586+150.334216*T-28.552*T*LN(T);
      1500.00  N !
$FUNCTION GLIQSE    298.15  +50533.347-1178.28824*T+194.107439*T*LN(T)
$      -0.390268991*T**2+1.19219297E-04*T**3-2224398*T**(-1); 
$      494.00  Y  -5228.304+183.72559*T-35.1456*T*LN(T);
$     1000.00  N !
$ Function below from C.H. Chang 1999 (PhD Thesis), taken from F. Zheng 2008
 FUNCTION GLIQSE    298.15  -9809.19613+288.813417*T-52.4*T*LN(T)
       +0.024925*T**2-5.455E-06*T**3; 
       918.00  Y  +8433.1372-78.4769299*T+5.399*T*LN(T)
       -0.035945*T**2+5.2016666E-06*T**3;
      1150.00  Y  -7460.61988+192.646347*T-36*T*LN(T);
      1500.00  N !
$ ------------------------------------------------------------------------------
$ Va
$
 PAR  G(GA2SE3_B3,VA:VA),,              +ZERO;,,                      N 08Zhe !
$ ------------------------------------------------------------------------------
$ Binary system
$
$ F. Zheng, J.Y. Shen, Y.Q. Liu, W.K. Kim, M.Y. Chu, M. Ider, X.H. Bao,
$ T.J. Anderson, Calphad, 32, 432-38(2008).
$
$ Checked against paper. Checked at 6000 K.
$
$ Modelling GA2SE3_B3 with Va on both sublattices is not a great idea.
$ TCR  not like this at all. TCS refuses to calculate anything useful.
$ It was necessary to edit the TCR output to get a correct phase diagram.
$ According to the paper nothing is known about the defect chemistry of Ga2Se3.
$ The authors have, thus, made the worst of all possible choices.
$ At 6000 K vacuum is stable. Removing vacuum, i.e. GA2SE3_B3, reveals a large
$ inverse miscibility gap with a minimum at x(Se)=0.68 and 2080 K.
$
$ Pure Se has been drastically changed compared to the SGTE unary database.
$ The changes are documented in a PhD Thesis from 1999 by C.H. Chang,
$ which I don't have.
$
$ In spite of the changed Se data, the calculated phase diagram
$ does not change.
$
 PAR  G(ION,GA+3:SE-2),,                +GGA2SE3B
             +104510-82.824104*T;,,                                   N 08Zhe !
 PAR  L(ION,GA+3:SE-2,SE;0),,           +54342.2395-18.755369*T;,,    N 08Zhe !
 PAR  L(ION,GA+3:SE-2,SE;1),,           -31547.4021+8.32255587*T;,,   N 08Zhe !
 PAR  L(ION,GA+3:SE-2,VA;0),,           +427496.439-384.012113*T;,,   N 08Zhe !
 PAR  L(ION,GA+3:SE-2,VA;1),,           +4656.70437-100.194451*T;,,   N 08Zhe !
 PAR  L(ION,GA+3:SE-2,VA;2),,           -69084.2637;,,                N 08Zhe !
 PAR  L(ION,GA+3:SE-2,VA;3),,           -19483.2614;,,                N 08Zhe !
$
 PAR  G(GASE,GA:SE),,                   +GGASE;,,                     N 08Zhe !
$
 PAR  G(GA2SE3_BETA,GA:SE),,            +GGA2SE3B;,,                  N 08Zhe !
$
 PAR  G(GA2SE3_B3,GA:SE),,              +GGA2SE3B
             +17190-17.758264*T;,,                                    N 08Zhe !
 PAR  L(GA2SE3_B3,GA,VA:SE;0),,         -88127;,,                     N 08Zhe !
 PAR  L(GA2SE3_B3,GA,VA:SE;1),,         -23907;,,                     N 08Zhe !
 PAR  L(GA2SE3_B3,GA:SE,VA;0),,         -629518;,,                    N 08Zhe !
$
 FUNCTION GGASE      10.00  -167923.156-16.555*T+6.47715*T*LN(T)
       -0.255535*T**2+2.2E-04*T**3-3.96626*T**(-1);
       150.00  Y  -172930+246.86952*T-46.71833*T*LN(T)
       -0.005285*T**2+87978.84*T**(-1);
      1210.00  N !
 FUNCTION GGA2SE3B   10.00  -423618.3568-26.37*T+11.7477*T*LN(T)
       -0.61834*T**2+5.31667E-04*T**3+391.21983*T**(-1);
       150.00  Y  -433687.01371+564.05*T-109.57*T*LN(T)
       -0.01565*T**2+138605.625*T**(-1);
      1210.00  N !
$ ------------------------------------------------------------------------------
$
$
 LIST-OF-REFERENCE
 NUMBER  SOURCE
  Null   'Unknown source'
  Same   'Same or similar interaction as in the corresponding stable phase'
  REFLAV 'Laves phase convention: G(LAVES,X:X)=+3*GHSERXX+15000'
  91Din  'A.T. Dinsdale, Calphad, 15, 317-425(1991).'
  08Zhe  'F. Zheng, J.Y. Shen, Y.Q. Liu, W.K. Kim, M.Y. Chu, M. Ider, X.H. Bao,
          T.J. Anderson, Calphad, 32, 432-38(2008); Ga-Se'
  09SGUN 'SGTE unary database V.5.0, 2009.'
!
