$
$ Database for Al-Gd from H. Bo et al. 2014.
$
$ H. Bo, L.B. Liu, J.L. Hu, X.D. Zhang, Z.P. Jin,
$ Thermochim. Acta, 591, 51-56(2014).
$
$ Dataset created 2019.05.25 by Bengt Hallstedt.
$ 2020.12.20: Modified for use with GES6.
$
$ There is an inverse miscibility gap with a min at 5812 K and x(Gd)=0.16.
$
$ ------------------------------------------------------------------------------
 TEMP-LIM 298.15 6000.00 !
$
$ELEMENT NAME  REF. STATE               ATOMIC MASS H298-H0    S298    !
$
 ELEMENT VA   VACUUM                      0.0          0.0      0.0    ! 
 ELEMENT AL   FCC_A1                     26.98154   4540.      28.30   ! 
 ELEMENT GD   HCP_A3                    157.25      9087.648   68.0894 ! 
$ ------------------------------------------------------------------------------
$ Phase definitions
$
 PHASE LIQUID:L % 1 1 !
 CONST LIQUID:L : AL GD : !
$
$ Fcc (cF4, Fm-3m) and MeX (cF8, Fm-3m)
$
 PHASE FCC_A1 %A 2 1 1 !
 CONST FCC_A1 : AL% GD : VA : !
$
$ Bcc (cI2, Im-3m)
$
 PHASE BCC_A2 %B 2 1 3 !
 CONST BCC_A2 : AL GD% : VA : !
$
$ Hcp (hP2, P6_3/mmc) and Me2X (NiAs-type, hP4, P6_3/mmc, B8_1)
$
 PHASE HCP_A3 %A 2 1 0.5 !
 CONST HCP_A3 : AL GD% : VA : !
$
$ Prototype CdMg3 (hP8, P6_3/mmc)
$
 PHASE AL3GD_D019 % 2 3 1 !
 CONST AL3GD_D019 : AL : GD : !
$
$ Prototype Cu2Mg (cF24, Fd-3m)
$
 PHASE C15_LAVES % 2 2 1 !
 CONST C15_LAVES : AL% GD : AL GD% : !
$
$ Prototype AlDy (oP16, Pbcm)
$
 PHASE ALGD % 2 1 1 !
 CONST ALGD : AL : GD : !
$
$ Prototype Al2Zr3 (tP20, P4_2/mnm)
$ (Prototype Al2Gd3 (tP20, P4_2nm) according to Pauling file)
$
 PHASE AL2GD3 % 2 2 3 !
 CONST AL2GD3 : AL : GD : !
$
$ Prototype Co2Si (oP12, Pnma)
$
 PHASE ALGD2_C37 % 2 1 2 !
 CONST ALGD2_C37 : AL : GD : !
$ ------------------------------------------------------------------------------
$ Defaults
$
 DEFINE-SYSTEM-DEFAULT ELEMENT 2 !
 DEFAULT-COM DEFINE_SYSTEM_ELEMENT VA !
 TYPE-DEF % SEQ * !
 TYPE-DEF A GES AMEND_PHASE_DESCRIPTION @ MAGNETIC -3 0.28 !
 TYPE-DEF B GES AMEND_PHASE_DESCRIPTION @ MAGNETIC -1 0.4 !
 FUNCTION ZERO      298.15  0;                                         6000 N !
 FUNCTION UN_ASS    298.15  0;                                         6000 N !
 FUNCTION R         298.15  +8.31451;                                  6000 N !
$ ------------------------------------------------------------------------------
$ Element data
$ ------------------------------------------------------------------------------
$ Al
$
$ BCT_A5 and DIAMOND_A4 added in unary 3.0
$
 PAR  G(FCC_A1,AL:VA),,                 +GHSERAL;                2900 N 91Din !
 PAR  G(BCC_A2,AL:VA),,                 +GHSERAL+10083-4.813*T;  2900 N 91Din !
 PAR  G(HCP_A3,AL:VA),,                 +GHSERAL+5481-1.8*T;     2900 N 91Din !
$PAR  G(CBCC_A12,AL:VA),,               +GHSERAL
$            +10083.4-4.813*T;                                   2900 N 91Din !
$PAR  G(CUB_A13,AL:VA),,                +GHSERAL
$            +10920.44-4.8116*T;                                 2900 N 91Din !
$PAR  G(BCT_A5,AL),,                    +GHSERAL+10083-4.813*T;  2900 N SGCOST !
$PAR  G(DIAMOND_A4,AL),,                +GHSERAL+30*T;           2900 N SGCOST !
 PAR  G(LIQUID,AL),,                    +GLIQAL;                 2900 N 91Din !
$
 PAR  G(C15_LAVES,AL:AL),,              +3*GHSERAL+15000;,,           N REFLAV !
$
 FUNCTION GHSERAL   298.15  -7976.15+137.093038*T-24.3671976*T*LN(T)
       -0.001884662*T**2-8.77664E-07*T**3+74092*T**(-1);
       700.00  Y  -11276.24+223.048446*T-38.5844296*T*LN(T)
       +0.018531982*T**2 -5.764227E-06*T**3+74092*T**(-1);
       933.47  Y  -11278.361+188.684136*T-31.748192*T*LN(T)
       -1.230622E+28*T**(-9);
      2900.00  N !
 FUNCTION GLIQAL    298.15  +11005.045-11.84185*T+GHSERAL+7.9337E-20*T**7;
       933.47  Y  -795.991+177.430209*T-31.748192*T*LN(T);
      2900.00  N !
 FUNCTION GBCCAL    298.15  +GHSERAL+10083-4.813*T;                    2900 N !
$ ------------------------------------------------------------------------------
$ Gd
$
$ HCP_A3, BCC_A2 and LIQUID revised in unary 3.0
$ Small correction made to top two temperature ranges of bcc_A2 to ensure 
$ continuity in Gibbs energy, AD, Dec 2002
$ FCC_A1 added in unary 4.4
$
$ FCC_A1 from 03Cac not included in unary
$
 PAR  G(HCP_A3,GD:VA)           200.00  +GHSERGD;                3600 N 95She2 !
 PAR  TC(HCP_A3,GD:VA)          200.00    293.4;                 3600 N 95She2 !
 PAR  BM(HCP_A3,GD:VA)          200.00      3.0;                 3600 N 95She2 !
$PAR  TC(HCP_A3,GD:VA)          200.00    291.8;                 3600 N 91Din !
$PAR  BMAG(HCP_A3,GD:VA)        200.00      3.0;                 3600 N 91Din !
 PAR  G(FCC_A1,GD:VA)           200.00  +GHSERGD+500;            3600 N 00Zin !
$PAR  G(FCC_A1,GD:VA)           200.00  +GHSERGD
$            +1800-0.831451*T;                                   3600 N 03Cac !
 PAR  G(BCC_A2,GD:VA)           200.00  +GBCCGD;                 3600 N 95She2 !
 PAR  G(LIQUID,GD)              200.00  +GLIQGD;                 3600 N 95She2 !
$
 PAR  G(C15_LAVES,GD:GD),,              +3*GHSERGD+15000;,,           N REFLAV !
$
 FUNCTION GHSERGD   200.00  -6834.5855+97.13101*T-24.7214131*T*LN(T)
       -0.00285240521*T**2-3.14674076E-07*T**3-8665.73348*T**(-1);
      1000.00  Y  -6483.25362+95.6919924*T-24.6598297*T*LN(T)
       -0.00185225011*T**2-6.61211607E-07*T**3;
      1508.15  Y  -123124.992+699.125537*T-101.800197*T*LN(T)
       +0.0150644246*T**2-6.39165948E-07*T**3+29356890.3*T**(-1);
      3600.00  N !
 FUNCTION GBCCGD    200.00  +3233.80866-2.11184585*T+GHSERGD;
      1000.00  Y  +152792.743-1349.58873*T+180.097094*T*LN(T)
       -0.119550229*T**2+1.17915728E-05*T**3-22038836*T**(-1);
      1508.15  Y  -15783.7618+202.222183*T-38.960425*T*LN(T);
      1586.15  Y  -19850.5562+224.818035*T-41.904333*T*LN(T)
       +8.58222759E-04*T**2-3.77570269E-08*T**3+995428.573*T**(-1);
      3600.00  N !
 FUNCTION GLIQGD    200.00  +13060.0262-8.32179974*T+GHSERGD;
      1000.00  Y  +146262.037-1208.70685*T+159.352082*T*LN(T)
       -0.108247135*T**2+1.06945505E-05*T**3-19678357*T**(-1);
      1508.15  Y  -5397.314+192.336215*T-38.5075*T*LN(T);
      3600.00  N !
$ ------------------------------------------------------------------------------
$ Binary system
$
$ H. Bo, L.B. Liu, J.L. Hu, X.D. Zhang, Z.P. Jin,
$ Thermochim. Acta, 591, 51-56(2014).
$
$ Checked against paper. Checked at 6000 K.
$
$ There is an inverse miscibility gap with a min at 5812 K and x(Gd)=0.16.
$
 PAR  L(LIQUID,AL,GD;0),,               -136000+25*T;,,               N 14Bo !
 PAR  L(LIQUID,AL,GD;1),,               -50000+18*T;,,                N 14Bo !
 PAR  L(LIQUID,AL,GD;2),,               +10000+4*T;,,                 N 14Bo !
$
 PAR  L(BCC_A2,AL,GD:VA;0),,            -52900+5*T;,,                 N 14Bo !
$
 PAR  G(AL3GD_D019,AL:GD),,             +3*GHSERAL+GHSERGD
             -176008+32*T;,,                                          N 14Bo !
$
 PAR  G(C15_LAVES,AL:GD),,              +2*GHSERAL+GHSERGD
             -153464+22.5*T;,,                                        N 14Bo !
 PAR  G(C15_LAVES,GD:AL),,              +2*GHSERGD+GHSERAL
             +183464-22.5*T;,,                                        N 14Bo !
$
 PAR  G(ALGD,AL:GD),,                   +GHSERAL+GHSERGD
             -81000+7.9*T;,,                                          N 14Bo !
 PAR  G(AL2GD3,AL:GD),,                 +2*GHSERAL+3*GHSERGD
             -168000+12.3*T;,,                                        N 14Bo !
 PAR  G(ALGD2_C37,AL:GD),,              +GHSERAL+2*GHSERGD
             -86537+5.8*T;,,                                          N 14Bo !
$ ------------------------------------------------------------------------------
$
 ASSESSED_SYSTEM
   AL-GD(TDB -* +LIQUID +FCC_A1 +BCC_A2 +HCP_A3 +C15_LAVES +AL2GD3 +AL3GD
   +ALGD +ALGD2_C37 ;P3 *) !
$
$
 LIST-OF-REFERENCE
 NUMBER  SOURCE
  Null   'Unknown source'
  REFLAV 'Laves phase convention: G(LAVES,X:X)=+3*GHSERXX+15000'
  COST   'COST 507 database'
  SGCOST 'COST 507 database, SGTE unary database V.3.0, 1996; Al, B, Nd, Ti, Zn'
  91Din  'A.T. Dinsdale, Calphad, 15, 317-425(1991).'
  95She2 'H. Shen, W. Zhang, G. Liu, R. Wang, Z. Du, Report F-95-02,
          University of Science and Technology, Beijing, May 1995,
          SGTE unary database V.3.0, 1996; Gd'
  98Sac  'A. Saccone, G. Cacciamani, D. Maccio, G. Borzone, R. Ferro,
          Intermetallics, 6, 201-15(1998); Al'
  00Zin  'M. Zinkevich, N. Mattern, H. J Seifert,
          J. Phase Equilib., 21, 385-94(2000),
          SGTE unary database V.4.4, 2001; Gd'
  01Yin  'F. Yin, X. Su, Z. Li, P. Zhang,
          Z. Metallkd., 92, 447-50(2001); Al'
  03Cac  'G. Cacciamani, S. De Negri, A. Saccone, R. Ferro,
          Intermetallics, 11, 1135-51(2003); Gd'
  14Bo   'H. Bo, L.B. Liu, J.L. Hu, X.D. Zhang, Z.P. Jin,
          Thermochim. Acta, 591, 51-56(2014); Al-Gd'
!
