$
$ Database for Fe-Nb from H. Sun et al. 2024.
$
$ H. Sun, C. Wang, S.-L. Shang, A.M. Beese, J.-C. Zhao, Z.-K. Liu,
$ Acta Mater., 268, 119747(2024).
$
$ Dataset created 2024.07.27 by Bengt Hallstedt.
$
$ Complete remodelling. 3-sl model for C14 and 5-sl model for mu.
$
$ There are no parameters in the paper. The parameters were taken from a 
$ supplemental tdb.
$
$ ------------------------------------------------------------------------------
 TEMP-LIM 298.15 6000.00 !
$
$ELEMENT NAME  REF. STATE               ATOMIC MASS H298-H0    S298    !
$
 ELEMENT VA   VACUUM                      0.0          0.0      0.0    ! 
 ELEMENT FE   BCC_A2                     55.847     4489.0     27.2797 ! 
 ELEMENT NB   BCC_A2                     92.9064    5220.0     36.27   ! 
$ ------------------------------------------------------------------------------
$ Phase definitions
$
 PHASE LIQUID:L % 1 1 !
 CONST LIQUID:L : FE NB : !
$
$ Fcc (cF4, Fm-3m) and MeX (cF8, Fm-3m)
$
 PHASE FCC_A1 %A 2 1 1 !
 CONST FCC_A1 : FE% NB : VA : !
$
$ Bcc (cI2, Im-3m)
$
 PHASE BCC_A2 %B 2 1 3 !
 CONST BCC_A2 : FE% NB% : VA : !
$
$ Hcp (hP2, P6_3/mmc) and Me2X (NiAs-type, hP4, P6_3/mmc, B8_1)
$
 PHASE HCP_A3 %A 2 1 0.5 !
 CONST HCP_A3 : FE NB : VA : !
$
$ Prototype MgZn2 (hP12, P6_3/mmc)
$
 PHASE C14_LAVES % 3 2 1 3 !
 CONST C14_LAVES : FE NB : FE NB : FE NB : !
$
$ Prototype Fe7W6 (hR13, R-3m)
$
 PHASE MU_D85 % 5 2 2 2 6 1 !
 CONST MU_D85 : FE NB : FE NB : FE NB : FE NB : FE NB : !
$ ------------------------------------------------------------------------------
$ Defaults
$
 DEFINE-SYSTEM-DEFAULT ELEMENT 2 !
 DEFAULT-COM DEFINE_SYSTEM_ELEMENT VA !
 TYPE-DEF % SEQ * !
 TYPE-DEF A GES AMEND_PHASE_DESCRIPTION @ MAGNETIC -3 0.28 !
 TYPE-DEF B GES AMEND_PHASE_DESCRIPTION @ MAGNETIC -1 0.4 !
 FUNCTION ZERO      298.15  0;                                         6000 N !
 FUNCTION UN_ASS    298.15  0;                                         6000 N !
 FUNCTION R         298.15  +8.31451;                                  6000 N !
$ ------------------------------------------------------------------------------
$ Element data
$ ------------------------------------------------------------------------------
$ Fe
$
$ ORTHORHOMBIC_A20 and TETRAGONAL_U added im unary 4.1
$
 PAR  G(BCC_A2,FE:VA),,                 +GHSERFE;,,                   N 91Din !
 PAR  TC(BCC_A2,FE:VA),,                 1043.00;,,                   N 91Din !
 PAR  BM(BCC_A2,FE:VA),,                    2.22;,,                   N 91Din !
 PAR  G(FCC_A1,FE:VA),,                 +GFCCFE;,,                    N 91Din !
 PAR  TC(FCC_A1,FE:VA),,                 -201.00;,,                   N 91Din !
 PAR  BM(FCC_A1,FE:VA),,                   -2.10;,,                   N 91Din !
 PAR  G(HCP_A3,FE:VA),,                 +GHCPFE;,,                    N 91Din !
$PAR  G(CBCC_A12,FE:VA),,               +GHSERFE+4745;,,              N 91Din !
$PAR  G(CUB_A13,FE:VA),,                +GHSERFE+3745;,,              N 91Din !
$PAR  G(ORTHORHOMBIC_A20,FE),,          +GHSERFE+5000;,,              N 99SGUN !
$PAR  G(TETRAGONAL_U,FE),,              +GHSERFE+5000;,,              N 99SGUN !
 PAR  G(LIQUID,FE),,                    +GLIQFE;,,                    N 91Din !
$
 PAR  G(C14_LAVES,FE:FE:FE),,           +6*GHSERFE+86349.8;,,         N 24Sun !
 PAR  G(MU_D85,FE:FE:FE:FE:FE),,        +13*GHSERFE+149500;,,         N 24Sun ! 
$
 FUNCTION GHSERFE   298.15  +1225.7+124.134*T-23.5143*T*LN(T)
       -0.00439752*T**2-5.8927E-08*T**3+77359*T**(-1);
      1811.00  Y  -25383.581+299.31255*T-46*T*LN(T)+2.29603E+31*T**(-9);
      6000.00  N !
 FUNCTION GFCCFE    298.15  -1462.4+8.282*T-1.15*T*LN(T)
       +6.4E-04*T**2+GHSERFE;
      1811.00  Y  -1713.815+0.940009*T+GHSERFE+4.9251E+30*T**(-9);
      6000.00  N !
 FUNCTION GHCPFE    298.15  -3705.78+12.591*T-1.15*T*LN(T)
       +6.4E-04*T**2+GHSERFE;
      1811.00  Y  -3957.195+5.249009*T+GHSERFE+4.9251E+30*T**(-9);
      6000.00  N !
 FUNCTION GLIQFE    298.15  +12040.17-6.55843*T+GHSERFE-3.67516E-21*T**7;
      1811.00  Y  -10838.83+291.302*T-46*T*LN(T);
      6000.00  N !
$ ------------------------------------------------------------------------------
$ Nb
$
 PAR  G(BCC_A2,NB:VA),,                 +GHSERNB;,,                   N 91Din !
 PAR  G(FCC_A1,NB:VA),,                 +GHSERNB+13500+1.7*T;,,       N 91Din !
 PAR  G(HCP_A3,NB:VA),,                 +GHSERNB+10000+2.4*T;,,       N 91Din !
$PAR  G(CBCC_A12,NB:VA;0),,             +GHSERNB+17600;,,             N 06Slu !
$PAR  G(CUB_A13,NB:VA),,                +GHSERNB+22000;,,             N 06Slu !
 PAR  G(LIQUID,NB),,                    +GLIQNB;,,                    N 91Din !
$
 PAR  G(C14_LAVES,NB:NB:NB),,           +6*GHSERNB+93811.9;,,         N 24Sun !
 PAR  G(MU_D85,NB:NB:NB:NB:NB),,        +13*GHSERNB+213770;,,         N 24Sun ! 
$
 FUNCTION GHSERNB   298.15  -8519.353+142.045475*T-26.4711*T*LN(T)
       +2.03475E-04*T**2-3.5012E-07*T**3+93399*T**(-1);
      2750.00  Y  -37669.3+271.720843*T-41.77*T*LN(T)+1.528238E+32*T**(-9);
      6000.00  N !
 FUNCTION GLIQNB    298.15  +29781.555-10.816418*T+GHSERNB-3.06098E-23*T**7;
      2750.00  Y  -7499.398+260.756148*T-41.77*T*LN(T);
      6000.00  N !
$ ------------------------------------------------------------------------------
$ Binary system
$
$ H. Sun, C. Wang, S.-L. Shang, A.M. Beese, J.-C. Zhao, Z.-K. Liu,
$ Acta Mater., 268, 119747(2024).
$
$ Checked against paper and author's tdb. Checked at 6000 K.
$
$ Complete remodelling. 3-sl model for C14 and 5-sl model for mu.
$
$ There are no parameters in the paper. The parameters were taken from a 
$ supplemental tdb.
$
 PAR  L(LIQUID,FE,NB;0),,               -48231.518+11.2225*T;,,       N 24Sun !
 PAR  L(LIQUID,FE,NB;1),,               -14786.6216+5.1445*T;,,       N 24Sun !
 PAR  L(LIQUID,FE,NB;2),,               +26181.806-14.6036*T;,,       N 24Sun !
$
 PAR  L(FCC_A1,FE,NB:VA;0),,            -26500+7.55*T;,,              N 24Sun !
$
 PAR  L(BCC_A2,FE,NB:VA;0),,            -17516.944+15.00995*T;,,      N 24Sun !
 PAR  L(BCC_A2,FE,NB:VA;1),,            -4837.8048-2.5*T;,,           N 24Sun !
$
 PAR  G(C14_LAVES,FE:FE:NB),,            +3*GHSERFE+3*GHSERNB
             +252230;,,                                               N 24Sun !
 PAR  G(C14_LAVES,FE:NB:FE),,            +5*GHSERFE+GHSERNB
             +114122;,,                                               N 24Sun !
 PAR  G(C14_LAVES,FE:NB:NB),,            +2*GHSERFE+4*GHSERNB
             +482162;,,                                               N 24Sun !
 PAR  G(C14_LAVES,NB:FE:FE),,            +4*GHSERFE+2*GHSERNB
             -126255.6+223.4*T-32.9551*T*LN(T)+0.0258249*T**2
             +519587*T**(-1);,,                                       N 24Sun !
 PAR  G(C14_LAVES,NB:FE:NB),,            +GHSERFE+5*GHSERNB
             +62514.3;,,                                              N 24Sun !
 PAR  G(C14_LAVES,NB:NB:FE),,            +3*GHSERFE+3*GHSERNB
             -25309.8;,,                                              N 24Sun !
 PAR  L(C14_LAVES,FE,NB:FE:FE;0),,       -85000+10*T;,,               N 24Sun !
 PAR  L(C14_LAVES,NB:FE:FE,NB;0),,       +10*T;,,                     N 24Sun !
$
 PAR  G(MU_D85,FE:FE:FE:FE:NB),,         +12*GHSERFE+GHSERNB
             +191808;,,                                               N 24Sun !
 PAR  G(MU_D85,FE:FE:FE:NB:FE),,         +7*GHSERFE+6*GHSERNB
             +559749;,,                                               N 24Sun !
 PAR  G(MU_D85,FE:FE:FE:NB:NB),,         +6*GHSERFE+7*GHSERNB
             +656143;,,                                               N 24Sun !
 PAR  G(MU_D85,FE:FE:NB:FE:FE),,         +11*GHSERFE+2*GHSERNB
             +124240;,,                                               N 24Sun !
 PAR  G(MU_D85,FE:FE:NB:FE:NB),,         +10*GHSERFE+3*GHSERNB
             +125395;,,                                               N 24Sun !
 PAR  G(MU_D85,FE:FE:NB:NB:FE),,         +5*GHSERFE+8*GHSERNB
             +627019;,,                                               N 24Sun !
 PAR  G(MU_D85,FE:FE:NB:NB:NB),,         +4*GHSERFE+9*GHSERNB
             +765633;,,                                               N 24Sun !
 PAR  G(MU_D85,FE:NB:FE:FE:FE),,         +11*GHSERFE+2*GHSERNB
             +11315.7;,,                                              N 24Sun !
 PAR  G(MU_D85,FE:NB:FE:FE:NB),,         +10*GHSERFE+3*GHSERNB
             +111698;,,                                               N 24Sun !
 PAR  G(MU_D85,FE:NB:FE:NB:FE),,         +5*GHSERFE+8*GHSERNB
             +374604;,,                                               N 24Sun !
 PAR  G(MU_D85,FE:NB:FE:NB:NB),,         +4*GHSERFE+9*GHSERNB
             +394887;,,                                               N 24Sun !
 PAR  G(MU_D85,FE:NB:NB:FE:FE),,         +9*GHSERFE+4*GHSERNB
             -18020.4;,,                                              N 24Sun !
 PAR  G(MU_D85,FE:NB:NB:FE:NB),,         +8*GHSERFE+5*GHSERNB
             +40017;,,                                                N 24Sun !
 PAR  G(MU_D85,FE:NB:NB:NB:FE),,         +3*GHSERFE+10*GHSERNB
             +417440;,,                                               N 24Sun !
 PAR  G(MU_D85,FE:NB:NB:NB:NB),,         +2*GHSERFE+11*GHSERNB
             +437585;,,                                               N 24Sun !
 PAR  G(MU_D85,NB:FE:FE:FE:FE),,         +11*GHSERFE+2*GHSERNB
             +82911.1;,,                                              N 24Sun !
 PAR  G(MU_D85,NB:FE:FE:FE:NB),,         +10*GHSERFE+3*GHSERNB
             +120140;,,                                               N 24Sun !
 PAR  G(MU_D85,NB:FE:FE:NB:FE),,         +5*GHSERFE+8*GHSERNB
             +496108;,,                                               N 24Sun !
 PAR  G(MU_D85,NB:FE:FE:NB:NB),,         +4*GHSERFE+9*GHSERNB
             +591323;,,                                               N 24Sun !
 PAR  G(MU_D85,NB:FE:NB:FE:FE),,         +9*GHSERFE+4*GHSERNB
             -6092.03;,,                                              N 24Sun !
 PAR  G(MU_D85,NB:FE:NB:FE:NB),,         +8*GHSERFE+5*GHSERNB
             -19248.7;,,                                              N 24Sun !
 PAR  G(MU_D85,NB:FE:NB:NB:FE),,         +3*GHSERFE+10*GHSERNB
             +366014;,,                                               N 24Sun !
 PAR  G(MU_D85,NB:FE:NB:NB:NB),,         +2*GHSERFE+11*GHSERNB
             +479692;,,                                               N 24Sun !
 PAR  G(MU_D85,NB:NB:FE:FE:FE),,         +9*GHSERFE+4*GHSERNB
             -107364;,,                                               N 24Sun !
 PAR  G(MU_D85,NB:NB:FE:FE:NB),,         +8*GHSERFE+5*GHSERNB
             -20164.3;,,                                              N 24Sun !
 PAR  G(MU_D85,NB:NB:FE:NB:FE),,         +3*GHSERFE+10*GHSERNB
             +341844;,,                                               N 24Sun !
 PAR  G(MU_D85,NB:NB:FE:NB:NB),,         +2*GHSERFE+11*GHSERNB
             +371923;,,                                               N 24Sun !
 PAR  G(MU_D85,NB:NB:NB:FE:FE),,         +7*GHSERFE+6*GHSERNB
             -235271+256.4*T-39.444*T*LN(T)+0.0470426*T**2;,,         N 24Sun !
 PAR  G(MU_D85,NB:NB:NB:FE:NB),,         +6*GHSERFE+7*GHSERNB
             -89357-18*T;,,                                           N 24Sun !
 PAR  G(MU_D85,NB:NB:NB:NB:FE),,         +GHSERFE+12*GHSERNB
             +183365;,,                                               N 24Sun !
 PAR  L(MU_D85,NB:NB:FE,NB:FE:FE;0),,    -30000;,,                    N 24Sun !
$
$ Metastable
$
 PAR  L(HCP_A3,FE,NB:VA;0),,            -4784;,,                      N 24Sun !
$ ------------------------------------------------------------------------------
$
 ASSESSED_SYSTEM
  FE-NB(TDB -* +LIQUID +FCC_A1 +BCC_A2 +C14_LAVES +MU_D85
  ;P3 TMM:300/3000 STP:.1/1800/-2) !
$
$
 LIST-OF-REFERENCE
 NUMBER  SOURCE
  Null   'Unknown source'
  Same   'Same or similar interaction as in the corresponding stable phase'
  REFLAV 'Laves phase convention: G(LAVES,X:X)=+3*GHSERXX+15000'
  COST   'COST 507 database'
  91Din  'A.T. Dinsdale, Calphad, 15, 317-425(1991).'
  99SGUN 'SGTE unary database V.4.1, 1999.'
  24Sun  'H. Sun, C. Wang, S.-L. Shang, A.M. Beese, J.-C. Zhao, Z.-K. Liu,
          Acta Mater., 268, 119747(2024); Fe-Nb'
!
