$
$ Database for Si-V from M.H. Rand and N. Saunders 1998 (Included in LB Vol. 4)
$
$ M.H. Rand, N. Saunders, COST 507, Final report round 2, 1998.
$
$ Dataset created 2010.07.10 by Bengt Hallstedt.
$ 2021.02.05: Modified for use with GES6.
$
$ ------------------------------------------------------------------------------
 TEMP-LIM 298.15 6000.00 !
$
$ELEMENT NAME  REF. STATE               ATOMIC MASS H298-H0    S298    !
$
 ELEMENT VA   VACUUM                      0.0          0.0      0.0    ! 
 ELEMENT SI   DIAMOND_A4                 28.0855    3217.      18.81   ! 
 ELEMENT V    BCC_A2                     50.9415    4507.0     30.89   ! 
$ ------------------------------------------------------------------------------
$ Phase definitions
$
 PHASE LIQUID:L % 1 1 !
 CONST LIQUID:L : SI V : !
$
$ Fcc (cF4, Fm-3m) and MeX (cF8, Fm-3m)
$
 PHASE FCC_A1 %A 2 1 1 !
 CONST FCC_A1 : SI V : VA : !
$
$ Bcc (cI2, Im-3m)
$
 PHASE BCC_A2 %B 2 1 3 !
 CONST BCC_A2 : SI V% : VA : !
$
$ Hcp (hP2, P6_3/mmc) and Me2X (NiAs-type, hP4, P6_3/mmc, B8_1)
$
 PHASE HCP_A3 %A 2 1 0.5 !
 CONST HCP_A3 : SI V : VA : !
$
$ Prototype C (cF8, Fd-3m)
$
 PHASE DIAMOND_A4 % 1 1 !
 CONST DIAMOND_A4 : SI : !
$
$ Prototype CrSi2 (hP9, P6_222)
$
 PHASE SI2V_C40 % 2 2 1 !
 CONST SI2V_C40 : SI : V : !
$
$ Prototype W5Si3 (tI32, I4/mcm)
$
 PHASE SI3V5_D8M % 2 3 5 !
 CONST SI3V5_D8M : SI : V : !
$
$ Prototype Si5V6 (oI44, Ibam)
$
 PHASE SI5V6 % 2 5 6 !
 CONST SI5V6 : SI : V : !
$
$ Prototype Cr3Si (cP8, Pm-3n)
$
 PHASE SIV3_A15 % 2 1 3 !
 CONST SIV3_A15 : SI% V : SI V% : !
$ ------------------------------------------------------------------------------
$ Defaults
$
 DEFINE-SYSTEM-DEFAULT ELEMENT 2 !
 DEFAULT-COM DEFINE_SYSTEM_ELEMENT VA !
 TYPE-DEF % SEQ * !
 TYPE-DEF A GES AMEND_PHASE_DESCRIPTION @ MAGNETIC -3 0.28 !
 TYPE-DEF B GES AMEND_PHASE_DESCRIPTION @ MAGNETIC -1 0.4 !
 FUNCTION ZERO      298.15  0;                                         6000 N !
 FUNCTION UN_ASS    298.15  0;                                         6000 N !
 FUNCTION R         298.15  +8.31451;                                  6000 N !
$ ------------------------------------------------------------------------------
$ Element data
$ ------------------------------------------------------------------------------
$ Si
$
 PAR  G(DIAMOND_A4,SI),,                +GHSERSI;                3600 N 91Din !
 PAR  G(FCC_A1,SI:VA),,                 +GHSERSI+51000-21.8*T;   3600 N 91Din !
 PAR  G(BCC_A2,SI:VA),,                 +GHSERSI+47000-22.5*T;   3600 N 91Din !
 PAR  G(HCP_A3,SI:VA),,                 +GHSERSI+49200-20.8*T;   3600 N 91Din !
$PAR  G(CBCC_A12,SI:VA),,               +GHSERSI+50208-20.377*T; 3600 N 91Din !
$PAR  G(CUB_A13,SI:VA),,                +GHSERSI+47279-20.377*T; 3600 N 91Din !
 PAR  G(LIQUID,SI),,                    +GLIQSI;                 3600 N 91Din !
$
 PAR  G(SIV3_A15,SI:SI),,               +4*GHSERSI+208000-80*T;,,     N 98Ran !
$
 FUNCTION GHSERSI   298.15  -8162.609+137.236859*T-22.8317533*T*LN(T)
       -0.001912904*T**2-3.552E-09*T**3+176667*T**(-1);
      1687.00  Y  -9457.642+167.281367*T-27.196*T*LN(T)-4.20369E+30*T**(-9);
      3600.00  N !
 FUNCTION GLIQSI    298.15  +50696.36-30.099439*T+GHSERSI+2.09307E-21*T**7;
      1687.00  Y  +40370.523+137.722298*T-27.196*T*LN(T);
      3600.00  N !
 FUNCTION GBCCSI    298.15  +GHSERSI+47000-22.5*T;               3600 N 91Din !
$ ------------------------------------------------------------------------------
$ V
$
 PAR  G(BCC_A2,V:VA),,                  +GHSERVV;                4000 N 91Din !
 PAR  G(FCC_A1,V:VA),,                  +GHSERVV+7500+1.7*T;     4000 N 91Din !
 PAR  G(HCP_A3,V:VA),,                  +GHSERVV+4000+2.4*T;     4000 N 91Din !
$PAR  G(CBCC_A12,V:VA),,                +GHSERVV+9000;           4000 N 91Din !
$PAR  G(CUB_A13,V:VA),,                 +GHSERVV+10000;          4000 N 91Din !
 PAR  G(LIQUID,V),,                     +GLIQVV;                 4000 N 91Din !
$
 PAR  G(SIV3_A15,V:V),,                 +4*GHSERVV+18000+10*T;,,      N 98Ran !
$
 FUNCTION GHSERVV   298.15  -7930.43+133.346053*T-24.134*T*LN(T)
       -0.003098*T**2+1.2175E-07*T**3+69460*T**(-1);
       790.00  Y  -7967.842+143.291093*T-25.9*T*LN(T)
       +6.25E-05*T**2-6.8E-07*T**3;
      2183.00  Y  -41689.864+321.140783*T-47.43*T*LN(T)+6.44389E+31*T**(-9);
      4000.00  N !
 FUNCTION GLIQVV    298.15  +20764.117-9.455552*T+GHSERVV-5.19136E-22*T**7;
      2183.00  Y  -19617.51+311.055983*T-47.43*T*LN(T);
      4000.00  N !
$ ------------------------------------------------------------------------------
$ Binary system
$
$ From M.H. Rand and N. Saunders 1998 (Included in LB Vol. 4)
$
$ M.H. Rand, N. Saunders, COST 507, Final report round 2, 1998.
$
$ Checked against LB and COST. Checked at 6000K.
$
 PAR  L(LIQUID,SI,V;0),,                -180900+40*T;,,               N 98Ran !
 PAR  L(LIQUID,SI,V;1),,                +37000;,,                     N 98Ran !
 PAR  L(LIQUID,SI,V;2),,                +20000;,,                     N 98Ran !
$
 PAR  L(BCC_A2,SI,V:VA;0),,             -164505+30.1*T;,,             N 98Ran !
 PAR  L(BCC_A2,SI,V:VA;1),,             +37000;,,                     N 98Ran !
 PAR  L(BCC_A2,SI,V:VA;2),,             +20000;,,                     N 98Ran !
$
 PAR  G(SI2V_C40,SI:V),,                -143160+401.98*T-67.8*T*LN(T)
             -0.0075*T**2+330000*T**(-1);,,                           N 98Ran !
 PAR  G(SI3V5_D8M,SI:V),,               -504000+1259.03*T
             -211.04*T*LN(T)-0.00748*T**2+1680000*T**(-1);,,          N 98Ran !
 PAR  G(SI5V6,SI:V),,                   -641675+1665.98*T
             -280.28*T*LN(T)-0.013915*T**2+2310000*T**(-1);,,         N 98Ran !
$
 PAR  G(SIV3_A15,V:SI),,                +3*GHSERSI+GHSERVV
             +166000-60*T;,,                                          N 98Ran !
 PAR  G(SIV3_A15,SI:V),,                -216397+516.532*T
             -90.44*T*LN(T)-0.008346*T**2+358000*T**(-1);,,           N 98Ran !
 PAR  L(SIV3_A15,SI,V:SI;0),,           +9794.5-21.8*T;,,             N 98Ran !
 PAR  L(SIV3_A15,SI,V:V;0),,            +9794.5-21.8*T;,,             N 98Ran !
 PAR  L(SIV3_A15,SI:SI,V;0),,           -150000;,,                    N 98Ran !
 PAR  L(SIV3_A15,V:SI,V;0),,            +ZERO;,,                      N 98Ran !
$
$ Metastable
$
 PAR  L(FCC_A1,SI,V:VA;0),,            -164505+30.1*T;,,             N Same !
 PAR  L(FCC_A1,SI,V:VA;1),,            +37000;,,                     N Same !
 PAR  L(FCC_A1,SI,V:VA;2),,            +20000;,,                     N Same !
$
 PAR  L(HCP_A3,SI,V:VA;0),,            -164505+30.1*T;,,             N Same !
 PAR  L(HCP_A3,SI,V:VA;1),,            +37000;,,                     N Same !
 PAR  L(HCP_A3,SI,V:VA;2),,            +20000;,,                     N Same !
$ ------------------------------------------------------------------------------
$
 ASSESSED_SYSTEM
  SI-V(TDB -* +LIQUID +BCC_A2 +DIAMOND +SI2V_C40 +SI3V5_D8M +SI5V6 +SIV3_A15 
  ;P3 TMM:300/3000 STP:.5/2500/-2) !
$
$
 LIST-OF-REFERENCE
 NUMBER  SOURCE
  Null   'Unknown source'
  Same   'Same or similar interaction as in the corresponding stable phase'
  REFLAV 'Laves phase convention: G(LAVES,X:X)=+3*GHSERXX+15000'
  COST   'COST 507 database'
  91Din  'A.T. Dinsdale, Calphad, 15, 317-425(1991).'
  98Ran  'M.H. Rand, N. Saunders, COST 507, Final report round 2, 1998; Si-V'
!
