$
$ Database for Sb-S from J. Cui et al. 2021.
$
$ J. Cui, Y. Zhang, X. Hao, X. Liu, Y. Shen, Calphad, 75, 102362(2021).
$
$ Dataset created 2024.04.29 by Bengt Hallstedt.
$
$ Associate liquid with Sb2S3 associates.
$
$ The parameter list has a sign error for L(LIQUID,SB,SB2S3;0).
$
$ ------------------------------------------------------------------------------
 TEMP-LIM 298.15 6000.00 !
$
$ELEMENT NAME  REF. STATE               ATOMIC MASS H298-H0    S298    !
$
 ELEMENT VA   VACUUM                      0.0          0.0      0.0    ! 
 ELEMENT S    ORTHORHOMBIC_A16           32.06      4412.0     32.07   ! 
 ELEMENT SB   RHOMBOHEDRAL_A7           121.75      5870.152   45.5219 ! 
$ ------------------------------------------------------------------------------
$ Species
$
 SPECIE  SB2S3                              SB2S3 !
$ ------------------------------------------------------------------------------
$ Phase definitions
$
 PHASE LIQUID:L % 1 1 !
 CONST LIQUID:L : S SB2S3 SB : !
$
$ Fcc (cF4, Fm-3m) and MeX (cF8, Fm-3m)
$
 PHASE FCC_A1 %A 2 1 1 !
 CONST FCC_A1 : S SB : VA : !
$
$ Bcc (cI2, Im-3m)
$
 PHASE BCC_A2 %B 2 1 3 !
 CONST BCC_A2 : S SB : VA : !
$
$ Hcp (hP2, P6_3/mmc) and Me2X (NiAs-type, hP4, P6_3/mmc, B8_1)
$
 PHASE HCP_A3 %A 2 1 0.5 !
 CONST HCP_A3 : SB : VA: !
$
$ Prototype alpha-As (hR2, R-3m)
$
 PHASE RHOMBOHEDRAL_A7 % 1 1 !
 CONST RHOMBOHEDRAL_A7 : SB : !
$
$ Prototype alpha-S (oF128, Fddd)
$
 PHASE ORTHORHOMBIC_A16 % 1 1 !
 CONST ORTHORHOMBIC_A16 : S : !
$
$ Prototype beta-S (mP48, P2_1/a)
$
 PHASE MONOCLINIC_S % 1 1 !
 CONST MONOCLINIC_S : S : !
$
$ Prototype Sb2S3 (oP20, Pnma), stibnite
$
 PHASE SB2S3_D58 % 2 2 3 !
 CONST SB2S3_D58 : SB : S : !
$ ------------------------------------------------------------------------------
$ Defaults
$
 DEFINE-SYSTEM-DEFAULT ELEMENT 2 !
 DEFAULT-COM DEFINE_SYSTEM_ELEMENT VA !
 TYPE-DEF % SEQ * !
 TYPE-DEF A GES AMEND_PHASE_DESCRIPTION @ MAGNETIC -3 0.28 !
 TYPE-DEF B GES AMEND_PHASE_DESCRIPTION @ MAGNETIC -1 0.4 !
 FUNCTION ZERO      298.15  0;                                         6000 N !
 FUNCTION UN_ASS    298.15  0;                                         6000 N !
 FUNCTION R         298.15  +8.31451;                                  6000 N !
$ ------------------------------------------------------------------------------
$ Element data
$ ------------------------------------------------------------------------------
$ S
$
$ FCC_A1 and BCC_A2 revised in unary 3.0
$ ORTHORHOMBIC_A16 and LIQUID modified in unary 4.1
$ MONOCLINIC revised in unary 4.1
$ ORTHORHOMBIC_A16 and LIQUID revised in unary 4.4
$
 PAR  G(ORTHORHOMBIC_A16,S),,           +GHSERSS;                1300 N 01SGUN !
 PAR  G(MONOCLINIC_S,S),,               +GMONSS;                 1300 N 01SGUN !
 PAR  G(FCC_A1,S:VA),,                  +GHSERSS+105000;         1300 N Sundm !
$PAR  G(FCC_A1,S:VA),,                  +GHSERSS+30000+32*T;     1300 N 91Din !
 PAR  G(BCC_A2,S:VA),,                  +GHSERSS+105000;         1300 N Sundm !
$PAR  G(BCC_A2,S:VA),,                  +GHSERSS+31000+32*T;     1300 N 91Din !
 PAR  G(LIQUID,S),,                     +GLIQSS;                 1300 N 01SGUN !
$
 FUNCTION GHSERSS   298.15  -5198.294+53.913855*T-10.726*T*LN(T)
       -0.0273801*T**2+8.179537E-6*T**3; 
       368.30  Y  -6475.706+94.182332*T-17.8693298*T*LN(T)
       -0.010936877*T**2+1.406467E-6*T**3+36871*T**(-1); 
      1300.00  Y  -12485.546+188.304687*T-32*T*LN(T); 
      1301.00  N !
 FUNCTION GMONSS    298.15  -5725.422+89.544275*T-17.413*T*LN(T)
       -0.00993935*T**2-0.070062E-6*T**3+1250*T**(-1); 
       388.36  Y  -7455.008+114.782945*T-21.1531404*T*LN(T)
       -0.008566163*T**2+1.112484E-6*T**3+122167*T**(-1); 
      1300.00  Y  -11779.415+186.699065*T-32*T*LN(T); 
      1301.00  N !
 FUNCTION GLIQSS    298.15  -4196.575+85.63027*T-17.413*T*LN(T)
       -0.00993935*T**2-0.070062E-6*T**3+1250*T**(-1); 
       335.00  Y  1790361.982-44195.451432*T+7511.6194258*T*LN(T)
       -13.985517511*T**2+4838.738601E-6*T**3-79880891*T**(-1); 
       388.36  Y  -876313.954+23366.872986*T-4028.756*T*LN(T)
       +7.954595*T**2-2908.513333E-6*T**3+33980035*T**(-1); 
       432.25  Y  454088.687-7814.670231*T+1237.001*T*LN(T)
       -1.5607295*T**2+359.883667E-6*T**3-31765395*T**(-1); 
       500.00  Y  18554.561-144.895285*T+16.535*T*LN(T)
       -0.0454119*T**2+8.327402E-6*T**3-2705030*T**(-1); 
       700.00  Y  21243.126-113.298877*T+9.944*T*LN(T)
       -0.0288384*T**2+3.791365E-6*T**3-3507570*T**(-1); 
       900.00  Y  16117.849-32.79523*T-2.425*T*LN(T)
       -0.01712545*T**2+1.84974E-6*T**3-3215170*T**(-1); 
      1300.00  Y  -6461.814+175.590536*T-32*T*LN(T); 
      1301.00  N !
$ ------------------------------------------------------------------------------
$ Sb
$
$ BCT_A5 revised in unary 3.0
$
$ BCT_A5 the value from 91Din is used in LBall-v7+fun.tdb.
$ BCT_A5 the value from 96SGUN is used in SGSOL 5.0.
$ It is only needed in Sb-Sn.
$
 PAR  G(RHOMBOHEDRAL_A7,SB),,           +GHSERSB;                2000 N 91Din !
 PAR  G(FCC_A1,SB:VA),,                 +GHSERSB+19874-13.7*T;   2000 N 91Din !
 PAR  G(BCC_A2,SB:VA),,                 +GHSERSB+19874-15.1*T;   2000 N 91Din !
 PAR  G(HCP_A3,SB:VA),,                 +GHSERSB+19874-13*T;     2000 N 91Din !
$PAR  G(BCT_A5,SB),,                    +GHSERSB+13000-8*T;      2000 N 96SGUN !
$PAR  G(BCT_A5,SB),,                    +GHSERSB+1000;           2000 N 91Din !
 PAR  G(LIQUID,SB),,                    +GLIQSB;                 2000 N 91Din !
$
 FUNCTION GHSERSB   298.15  -9242.858+156.154689*T-30.5130752*T*LN(T)
       +0.007748768*T**2-3.003415E-06*T**3+100625*T**(-1);
       903.78  Y  -11738.83+169.485872*T-31.38*T*LN(T)+1.616849E+27*T**(-9);
      2000.00  N !
 FUNCTION GLIQSB    298.15  +19822.328-21.923164*T+GHSERSB-1.74847E-20*T**7;
       903.78  Y  +8175.359+147.455986*T-31.38*T*LN(T);
      2000.00  N !
$ ------------------------------------------------------------------------------
$ Binary system
$
$ J. Cui, Y. Zhang, X. Hao, X. Liu, Y. Shen, Calphad, 75, 102362(2021).
$
$ Checked against paper and author's tdb. Checked at 6000 K.
$
$ Associate liquid with Sb2S3 associates.
$
$ The parameter list has a sign error for L(LIQUID,SB,SB2S3;0).
$
 PAR  G(LIQUID,SB2S3),,                 +2*GLIQSB+3*GLIQSS
             -69839.551-65.8052953*T;,,                               N 21Cui !
 PAR  L(LIQUID,SB,SB2S3;0),,            +17345.3185-9.09*T;,,         N 21Cui !
 PAR  L(LIQUID,SB,SB2S3;1),,            +11148.09+1.2*T;,,            N 21Cui !
 PAR  L(LIQUID,SB,SB2S3;2),,            +24110.24-18.68*T;,,          N 21Cui !
 PAR  L(LIQUID,S,SB2S3;0),,             +32411.46-21.14*T;,,          N 21Cui !
 PAR  L(LIQUID,S,SB2S3;1),,             +11697.12+5.24*T;,,           N 21Cui !
$
 PAR  G(SB2S3_D58,SB:S),,               +2*GHSERSB+3*GHSERSS
             -124425.4-11.8*T;,,                                      N 21Cui !
$ ------------------------------------------------------------------------------
$
$
 LIST-OF-REFERENCE
 NUMBER  SOURCE
  Null   'Unknown source'
  Same   'Same or similar interaction as in the corresponding stable phase'
  Sundm  'Bosse Sundman, unpublished, SGTE unary database V.3.0, 1996; S'
  COST   'COST 507 database'
  91Din  'A.T. Dinsdale, Calphad, 15, 317-425(1991).'
  96SGUN 'SGTE unary database V.3.0, 1996.'
  01SGUN 'SGTE unary database V.4.4, 2001.'
  21Cui  'J. Cui, Y. Zhang, X. Hao, X. Liu, Y. Shen,
          Calphad, 75, 102362(2021); Sb-S'
!
