$
$ Database for Mo-Si from A.K. Czerny et al. 2024.
$
$ A.K. Czerny, W. Ma, C.S. Hausner, P. Franke, M. Rohde, H.J. Seifert,
$ Adv. Eng. Mater., 26, 2302085(2024).
$
$ Dataset created 2024.01.11 by Bengt Hallstedt.
$
$ There are two models for Mo3Si; one stoichiometric Mo0.77Si0.23 and one
$ solid solution model. The latter is included here.
$
$ There is an inverse miscibility gap with a minimum at 4626 K and x(Si)=0.81.
$
$ Invariant equilibria differ by up to 3 K. Rounding errors?
$
$ ------------------------------------------------------------------------------
 TEMP-LIM 298.15 6000.00 !
$
$ELEMENT NAME  REF. STATE               ATOMIC MASS H298-H0    S298    !
$
 ELEMENT VA   VACUUM                      0.0          0.0      0.0    ! 
 ELEMENT MO   BCC_A2                     95.94      4589.0     28.56   ! 
 ELEMENT SI   DIAMOND_A4                 28.0855    3217.      18.81   ! 
$ ------------------------------------------------------------------------------
$ Phase definitions
$
 PHASE LIQUID:L % 1 1 !
 CONST LIQUID:L : MO SI : !
$
$ Fcc (cF4, Fm-3m) and MeX (cF8, Fm-3m)
$
 PHASE FCC_A1 %A 2 1 1 !
 CONST FCC_A1 : MO SI : VA : !
$
$ Bcc (cI2, Im-3m)
$
 PHASE BCC_A2 %B 2 1 3 !
 CONST BCC_A2 : MO% SI : VA : !
$
$ Hcp (hP2, P6_3/mmc) and Me2X (NiAs-type, hP4, P6_3/mmc, B8_1)
$
 PHASE HCP_A3 %A 2 1 0.5 !
 CONST HCP_A3 : MO SI : VA : !
$
$ Prototype C (cF8, Fd-3m)
$
 PHASE DIAMOND_A4 % 1 1 !
 CONST DIAMOND_A4 : SI : !
$
$ Prototype Cr3Si (cP8, Pm-3n)
$
$PHASE MO3SI_A15 % 2 0.77 0.23 !
$CONST MO3SI_A15 : MO : SI : !
$
$ Prototype Cr3Si (cP8, Pm-3n)
$
 PHASE MO3SI_A15 % 3 6 1 1 !
 CONST MO3SI_A15 : MO : SI : SI% VA : !
$
$ Prototype Si3W5 (tI32, I4/mcm)
$
 PHASE MO5SI3_D8M % 4 4 1 1 2 !
 CONST MO5SI3_D8M : MO : MO% SI : MO SI% : SI : !
$
$ Prototype MoSi2 (tI6, I4/mmm)
$
 PHASE MOSI2_C11B % 2 1 2 !
 CONST MOSI2_C11B : MO : SI : !
$ ------------------------------------------------------------------------------
$ Defaults
$
 DEFINE-SYSTEM-DEFAULT ELEMENT 2 !
 DEFAULT-COM DEFINE_SYSTEM_ELEMENT VA !
 TYPE-DEF % SEQ * !
 TYPE-DEF A GES AMEND_PHASE_DESCRIPTION @ MAGNETIC -3 0.28 !
 TYPE-DEF B GES AMEND_PHASE_DESCRIPTION @ MAGNETIC -1 0.4 !
 FUNCTION ZERO      298.15  0;                                         6000 N !
 FUNCTION UN_ASS    298.15  0;                                         6000 N !
 FUNCTION R         298.15  +8.31451;                                  6000 N !
$ ------------------------------------------------------------------------------
$ Element data
$ ------------------------------------------------------------------------------
$ Mo
$
 PAR  G(BCC_A2,MO:VA),,                 +GHSERMO;                5000 N 91Din !
 PAR  G(FCC_A1,MO:VA),,                 +GHSERMO+15200+0.63*T;   5000 N 91Din !
 PAR  G(HCP_A3,MO:VA),,                 +GHSERMO+11550;          5000 N 91Din !
 PAR  G(LIQUID,MO),,                    +GLIQMO;                 5000 N 91Din !
$
 FUNCTION GHSERMO   298.15  -7746.302+131.9197*T-23.56414*T*LN(T)
       -0.003443396*T**2+5.66283E-07*T**3+65812*T**(-1)-1.30927E-10*T**4;
      2896.00  Y  -30556.41+283.559746*T-42.63829*T*LN(T)-4.849315E+33*T**(-9);
      5000.00  N !
 FUNCTION GLIQMO    298.15  +41831.347-14.694912*T+GHSERMO+4.24519E-22*T**7;
      2896.00  Y  +3538.963+271.6697*T-42.63829*T*LN(T);
      5000.00  N !
 FUNCTION GFCCMO    298.15  +GHSERMO+15200+0.63*T;                     6000 N !
$ ------------------------------------------------------------------------------
$ Si
$
 PAR  G(DIAMOND_A4,SI),,                +GHSERSI;                3600 N 91Din !
 PAR  G(FCC_A1,SI:VA),,                 +GHSERSI+51000-21.8*T;   3600 N 91Din !
 PAR  G(BCC_A2,SI:VA),,                 +GHSERSI+47000-22.5*T;   3600 N 91Din !
 PAR  G(HCP_A3,SI:VA),,                 +GHSERSI+49200-20.8*T;   3600 N 91Din !
$PAR  G(CBCC_A12,SI:VA),,               +GHSERSI+50208-20.377*T; 3600 N 91Din !
$PAR  G(CUB_A13,SI:VA),,                +GHSERSI+47279-20.377*T; 3600 N 91Din !
 PAR  G(LIQUID,SI),,                    +GLIQSI;                 3600 N 91Din !
$
 FUNCTION GHSERSI   298.15  -8162.609+137.236859*T-22.8317533*T*LN(T)
       -0.001912904*T**2-3.552E-09*T**3+176667*T**(-1);
      1687.00  Y  -9457.642+167.281367*T-27.196*T*LN(T)-4.20369E+30*T**(-9);
      3600.00  N !
 FUNCTION GLIQSI    298.15  +50696.36-30.099439*T+GHSERSI+2.09307E-21*T**7;
      1687.00  Y  +40370.523+137.722298*T-27.196*T*LN(T);
      3600.00  N !
 FUNCTION GBCCSI    298.15  +GHSERSI+47000-22.5*T;               3600 N 91Din !
$ ------------------------------------------------------------------------------
$ Binary system
$
$ A.K. Czerny, W. Ma, C.S. Hausner, P. Franke, M. Rohde, H.J. Seifert,
$ Adv. Eng. Mater., 26, 2302085(2024).
$
$ Checked against paper. Checked at 6000 K.
$
$ There are two models for Mo3Si; one stoichiometric Mo0.77Si0.23 and one
$ solid solution model. The latter is included here.
$
$ There is an inverse miscibility gap with a minimum at 4626 K and x(Si)=0.81.
$
$ Invariant equilibria differ by up to 3 K. Rounding errors?
$
 PAR  L(LIQUID,MO,SI;0),,               -172591.292+27.6145*T;,,      N 24Cze !
 PAR  L(LIQUID,MO,SI;1),,               +26612.6661-20.6586*T;,,      N 24Cze !
 PAR  L(LIQUID,MO,SI;2),,               +38731.7034;,,                N 24Cze !
 PAR  L(LIQUID,MO,SI;3),,               +19624.2756;,,                N 24Cze !
$
 PAR  L(BCC_A2,MO,SI:VA;0),,            -114632.117+26.9372*T;,,      N 24Cze !
$
 PAR  G(MO3SI_A15,MO:SI:SI),,           +8*GMO3SIA;,,                 N 24Cze !
 PAR  G(MO3SI_A15,MO:SI:VA),,           +8*GMO3SIB;,,                 N 24Cze !
 PAR  L(MO3SI_A15,MO:SI:SI,VA;0),,      +ZERO;,,                      N 24Cze !
 PAR  L(MO3SI_A15,MO:SI:SI,VA;1),,      -86000+20*T;,,                N 24Cze !
$
 PAR  G(MO5SI3_D8M,MO:MO:MO:SI),,       +8*GMO5SI3+75272+24*T;,,      N 24Cze !
 PAR  G(MO5SI3_D8M,MO:MO:SI:SI),,       +8*GMO5SI3;,,                 N 24Cze !
 PAR  G(MO5SI3_D8M,MO:SI:MO:SI),,       +8*GMO5SI3+98568-24*T;,,      N 24Cze !
 PAR  G(MO5SI3_D8M,MO:SI:SI:SI),,       +8*GMO5SI3-8344+32*T;,,       N 24Cze !
$
 PAR  G(MOSI2_C11B,MO:SI),,             -156216.6066+444.2883*T
             -75.7102*T*LN(T)+0.0016413*T**2-1.0682E-06*T**3
             +402590*T**(-1);,,                                       N 24Cze !
$
$ Metastable
$
 PAR  L(FCC_A1,MO,SI:VA;0),,            -114632.117+26.9372*T;,,      N Same !
 PAR  L(HCP_A3,MO,SI:VA;0),,            -114632.117+26.9372*T;,,      N Same !
$
 FUNCTION GMO3SIA   298.15  -37759.2536+149.3282*T-26.059*T*LN(T)
       +9.6142E-04*T**2-4.8262E-07*T**3+113220*T**(-1);
      6000.00  N !
 FUNCTION GMO3SIB   298.15  -21414.3469+129.4122*T-22.8016*T*LN(T)
       +8.4124E-04*T**2-4.2229E-07*T**3+99067.5*T**(-1);
      6000.00  N !
 FUNCTION GMO5SI3   298.15  -46722+143*T-25.2693*T*LN(T)
       +3.2382E-04*T**2-3.9528E-07*T**3+174540*T**(-1);
      6000.00  N !
$ ------------------------------------------------------------------------------
$
 ASSESSED_SYSTEM
  MO-SI(TDB -* +LIQUID +BCC_A2 +DIAMOND +M3SI_A15 +M5SI3_D8M +MOSI2_C11B
  ;P3 TMM:300/5000 STP:.5/2000/-2) !
$
$
 LIST-OF-REFERENCE
 NUMBER  SOURCE
  Null   'Unknown source'
  Lin    'Linear combination of lattice stabilities'
  Same   'Same or similar interaction as in the corresponding stable phase'
  REFLAV 'Laves phase convention: G(LAVES,X:X)=+3*GHSERXX+15000'
  NIST   'NIST-Ni0209 Database, Ursula Kattner, 2002'
  91Din  'A.T. Dinsdale, Calphad, 15, 317-425(1991).'
  10Gen  'T. Geng, C. Li, X. Zhao, H. Xu, Z. Du, C. Guo,
          Calphad, 34, 363-76(2010); Mo-Si'
  12Guo  'C. Guo, C. Li, P.J. Masset, Z. Du, Calphad, 36, 100-109(2012); Mo-Si'
  24Cze  'A.K. Czerny, W. Ma, C.S. Hausner, P. Franke, M. Rohde, H.J. Seifert,
          Adv. Eng. Mater., 26, 2302085(2024); Mo-Si'
!
