$
$ Database for Cu-O from H. Magnusson and K. Frisk 2014
$
$ H. Magnusson, K. Frisk, Calphad, 47, 148-60(2014).
$
$ Dataset created 2016.05.27 by Bengt Hallstedt.
$ 2020.11.14: Modified for use with GES6.
$
$ Data (Delta-H) for Cu4O3 added from K.J. Blobaum et al. 2003.
$
$ This dataset does not reproduce the phase diagram well. There is nothing
$ to compare with in the paper.
$
$ ------------------------------------------------------------------------------
 TEMP-LIM 298.15 6000.00 !
$
$ELEMENT NAME  REF. STATE               ATOMIC MASS H298-H0    S298    !
$
 ELEMENT /-   ELECTRON_GAS                0.0          0.0      0.0    ! 
 ELEMENT VA   VACUUM                      0.0          0.0      0.0    ! 
 ELEMENT CU   FCC_A1                     63.546     5004.      33.15   !
 ELEMENT O    1/2_MOLE_O2(G)             15.999     4341.0    102.52   ! 
$ ------------------------------------------------------------------------------
$ Species
$
 SPECIE  CU2                                CU2 !
 SPECIE  CU+1                               CU/+1 !
 SPECIE  CU+2                               CU/+2 !
 SPECIE  CU2O                               CU2O1 !
 SPECIE  CUO                                CU1O1 !
 SPECIE  O-2                                O/-2 !
 SPECIE  O2                                 O2 !
 SPECIE  O3                                 O3 !
$ ------------------------------------------------------------------------------
$ Phase definitions
$
 PHASE LIQUID:L % 1 1 !
 CONST LIQUID:L : CU CU2O O : !
$
$ Fcc (cF4, Fm-3m) and MeX (cF8, Fm-3m)
$
 PHASE FCC_A1 %A 2 1 1 !
 CONST FCC_A1 : CU : VA% O : !
$
$ Bcc (cI2, Im-3m)
$
 PHASE BCC_A2 %B 2 1 3 !
 CONST BCC_A2 : CU : VA : !
$
$ Hcp (hP2, P6_3/mmc) and Me2X (NiAs-type, hP4, P6_3/mmc, B8_1)
$
 PHASE HCP_A3 %A 2 1 0.5 !
 CONST HCP_A3 : CU : VA : !
$
$ Prototype Cu2O (cP6, Pn-3m)
$
 PHASE CUPRITE_C3:I % 2 2 1 !
 CONST CUPRITE_C3:I : CU+1 : O-2 : !
$
$ Prototype CuO (mC8, C2/c); Tenorite
$
 PHASE CUO % 2 1 1 !
 CONST CUO : CU+2 : O-2 : !
$
$ Prototype Cu4O3 (tI28, I4_1/amd); Paramelaconite, a metastable phase
$
 PHASE CU4O3:I % 3 2 2 3 !
 CONST CU4O3:I : CU+1 : CU+2 : O-2 : !
$
 PHASE O2GAS % 1 1 !
 CONST O2GAS : O2 :!
$
 PHASE GAS:G % 1 1 !
 CONST GAS:G : CU CU2 CUO O O2 O3 : !
$ ------------------------------------------------------------------------------
$ Defaults
$
 DEFINE-SYSTEM-DEFAULT ELEMENT 2 !
 DEFAULT-COM DEFINE_SYSTEM_ELEMENT VA /- !
 TYPE-DEF % SEQ * !
 TYPE-DEF A GES AMEND_PHASE_DESCRIPTION @ MAGNETIC -3 0.28 !
 TYPE-DEF B GES AMEND_PHASE_DESCRIPTION @ MAGNETIC -1 0.4 !
 DEFAULT-COM REJECT_PHASE BCC_A2 HCP_A3 !
 FUNCTION ZERO      298.15  0;                                         6000 N !
 FUNCTION UN_ASS    298.15  0;                                         6000 N !
 FUNCTION R         298.15  +8.31451;                                  6000 N !
 FUNCTION RTLNP     298.15  +8.31451*T*LN(1E-05*P);                    6000 N !
$ ------------------------------------------------------------------------------
$ Element data
$ ------------------------------------------------------------------------------
$ Cu
$
 PAR  G(FCC_A1,CU:VA),,                 +GHSERCU;                3200 N 91Din !
 PAR  G(BCC_A2,CU:VA),,                 +GHSERCU+4017-1.255*T;   3200 N 91Din !
 PAR  G(HCP_A3,CU:VA),,                 +GHSERCU+600+0.2*T;      3200 N 91Din !
 PAR  G(LIQUID,CU),,                    +GLIQCU;                 3200 N 91Din !
$
 PAR  G(GAS,CU),,                       +F8005T+RTLNP;,,              N 97SUB !
 PAR  G(GAS,CU2),,                      +F8130T+RTLNP;,,              N 97SUB !
$
 FUNCTION GHSERCU   298.15  -7770.458+130.485235*T-24.112392*T*LN(T)
       -0.00265684*T**2+1.29223E-07*T**3+52478*T**(-1);
      1357.77  Y  -13542.026+183.803828*T-31.38*T*LN(T)+3.642E+29*T**(-9);
      3200.00  N !
 FUNCTION GLIQCU    298.15  +12964.735-9.511904*T+GHSERCU-5.8489E-21*T**7;
      1357.77  Y  -46.545+173.881484*T-31.38*T*LN(T);
      3200.00  N !
$ Cu(g)
 FUNCTION F8005T    298.15  +331712.276-25.4355932*T-21.044*T*LN(T)
       +2.776E-04*T**2-4.9305E-08*T**3+5295*T**(-1);
      1600.00  Y  +336105.82-35.4351873*T-20.115*T*LN(T)
       +0.00118285*T**2-2.18138333E-07*T**3-1572935*T**(-1);
      3000.00  Y  +390707.537-303.006732*T+14.175*T*LN(T)
       -0.0079804*T**2+2.27558333E-07*T**3-16772955*T**(-1);
      5300.00  Y  +110975.664+452.828908*T-75.18201*T*LN(T)
       +0.004605*T**2-1.02516667E-07*T**3+1.4589055E+08*T**(-1);
      8400.00  Y  +918206.507-898.334069*T+75.05701*T*LN(T)
       -0.0078504*T**2+9.14616667E-08*T**3-6.694665E+08*T**(-1);
     10000.00  N !
$ Cu2(g)
 FUNCTION F8130T    298.15  +462958.167+11.147823*T-37.642*T*LN(T)
       -1.1515E-04*T**2-6.7015E-08*T**3+51145*T**(-1);
      3500.00  Y  +692156.122-643.599383*T+40.105*T*LN(T)
       -0.01109485*T**2+1.90893333E-07*T**3-1.2151985E+08*T**(-1);
      5500.00  Y  +1198333.43-1966.90368*T+195.893*T*LN(T)
       -0.03229355*T**2+7.29055E-07*T**3-4.2822925E+08*T**(-1);
      6000.00  N !
$ ------------------------------------------------------------------------------
$ O
$
$ GHSEROO modified in unary 3.0
$
 PAR  G(O2GAS,O2),,                     +2*GHSEROO+RTLNP;,,           N 91Din !
 PAR  G(LIQUID,O),,                     +GHSEROO-2648.9+31.44*T;,,    N 91Din !
$
 PAR  G(GAS,O),,                        +O1G+RTLNP;,,                 N 00SUB !
 PAR  G(GAS,O2),,                       +2*GHSEROO+RTLNP;,,           N 91Din !
 PAR  G(GAS,O3),,                       +O3G+RTLNP;,,                 N 00SUB !
$
$ 1/2 O2(g)
 FUNCTION GHSEROO   298.15  -3480.87-25.503038*T-11.1355*T*LN(T)
       -0.005098875*T**2+6.61845833E-07*T**3-38365*T**(-1);
      1000.00  Y  -6568.763+12.659879*T-16.8138*T*LN(T)
       -5.957975E-04*T**2+6.781E-09*T**3+262905*T**(-1);
      3300.00  Y  -13986.728+31.259624*T-18.9536*T*LN(T)
       -4.25243E-04*T**2+1.0721E-08*T**3+4383200*T**(-1);
      6000.00  N !
$ O(g)
 FUNCTION O1G       298.15  +243206.494-20.8612587*T-21.01555*T*LN(T)
       +1.2687055E-04*T**2-1.23131283E-08*T**3-42897.09*T**(-1);
      2950.00  Y  +252301.423-52.0847285*T-17.21188*T*LN(T)
       -5.413565E-04*T**2+7.64520667E-09*T**3-3973170.5*T**(-1);
      6000.00  N !
$ O3(g)
 FUNCTION O3G       298.15  +130696.944-37.9096651*T-27.58118*T*LN(T)
       -0.02763076*T**2+4.60539333E-06*T**3+99530.45*T**(-1);
       700.00  Y  +114760.623+176.626736*T-60.10286*T*LN(T)
       +0.00206456*T**2-5.17486667E-07*T**3+1572175*T**(-1);
      1300.00  Y  +49468.3958+710.094819*T-134.3696*T*LN(T)
       +0.039707355*T**2-4.10457667E-06*T**3+12362250*T**(-1);
      2100.00  Y  +866367.075-3566.80563*T+421.2001*T*LN(T)
       -0.1284109*T**2+5.44768833E-06*T**3-2.1304835E+08*T**(-1);
      2800.00  Y  +409416.384-1950.70834*T+223.4437*T*LN(T)
       -0.0922361*T**2+4.306855E-06*T**3-21589870*T**(-1);
      3500.00  Y  -1866338.6+6101.13383*T-764.8435*T*LN(T)
       +0.09852775*T**2-2.59784667E-06*T**3+9.610855E+08*T**(-1);
      4900.00  Y  +97590.0432+890.79836*T-149.9608*T*LN(T)
       +0.01283575*T**2-3.555105E-07*T**3-2.1699975E+08*T**(-1);
      6000.00  N !
$ ------------------------------------------------------------------------------
$ Binary system
$
$ H. Magnusson, K. Frisk, Calphad, 47, 148-60(2014).
$
$ Data (Delta-H) for Cu4O3 added from K.J. Blobaum et al. 2003.
$
$ This dataset does not reproduce the phase diagram well. There is nothing
$ to compare with in the paper.
$
 PAR  G(LIQUID,CU2O),,                  +2*GHSERCU+GHSEROO
             -119801+90.34*T-6.79*T*LN(T);,,                          N 04Cla !
 PAR  L(LIQUID,CU,CU2O;0),,             +63686-19.9*T;,,              N 14Mag !
 PAR  L(LIQUID,CU,CU2O;1),,             +14100-9.3*T;,,               N 14Mag !
$
 PAR  G(CUPRITE_C3,CU+1:O-2),,          +GCU2OSOL;,,                  N 94Hal !
 PAR  G(CUO,CU+2:O-2),,                 +GCUOSOL;,,                   N 94Hal !
 PAR  G(CU4O3,CU+1:CU+2:O-2),,          +GCU2OSOL+2*GCUOSOL+23000;,,  N 03Hal2 !
$
 PAR  G(FCC_A1,CU:O),,                  +GHSERCU+GHSEROO
             -19400+31*T;,,                                           N 03Hal1 !
$
 PAR  G(GAS,CUO),,                      +F8094T+RTLNP;,,              N 97SUB !
$
 FUNCTION GCU2OSOL  298.15  -193230+360.057*T-66.26*T*LN(T)
       -0.00796*T**2+374000*T**(-1);                                   6000 N !
 FUNCTION GCUOSOL   298.15  -172735+291.777*T-49.03*T*LN(T)
       -0.00347*T**2+390000*T**(-1);                                   6000 N !
$ CuO(g)
 FUNCTION F8094T    298.15  +298450.288+15.0353016*T-37.118*T*LN(T)
       -2.52E-04*T**2-4.76616667E-08*T**3+69775*T**(-1);
      1700.00  Y  +302943.477+4.52193865*T-36.086*T*LN(T)
       +4.1855E-04*T**2-1.70581667E-07*T**3-1637630*T**(-1);
      4000.00  Y  +569254.092-858.114021*T+68.561*T*LN(T)
       -0.0179964*T**2+4.40853333E-07*T**3-1.298339E+08*T**(-1);
      6000.00  N !
$ ------------------------------------------------------------------------------
$
$
 LIST-OF-REFERENCE
 NUMBER  SOURCE
  Null   'Unknown source'
  91Din  'A.T. Dinsdale, Calphad, 15, 317-425(1991).'
  94Hal  'B. Hallstedt, D. Risold and L.J. Gauckler,
          J. Phase Equilib., 15, 483-99(1994); Cu-O'
  97SUB  'SGTE substance database, version 1997'
  00SUB  'SGTE substance database, version 2000'
  03Hal1 'B. Hallstedt, L.J. Gauckler, Calphad, 27, 177-91(2003); Cu-O'
  03Hal2 'B. Hallstedt, unpublished, 2003; Cu4O3'
  04Cla  'M.T. Clavaguera-Mora, J.L. Touron, J. Rodriguez-Viejo,
          N. Clavaguera, J. Alloys Compd., 377, 8-16(2004); Cu-O'
  14Mag  'H. Magnusson, K. Frisk, Calphad, 47, 148-60(2014); Cu-O'
!
