$
$ Database for Ga-Zr from W. Luo et al. 2014
$
$ W. Luo, S. Liu, Y. Tang, M. Yin, B. Sundman, Y. Du, P. Nash, H. Tao,
$ J. Alloys Compd., 587, 497-505(2014).
$
$ Dataset created 2013.10.21 by Bengt Hallstedt.
$ 2021.01.03: Modified for use with GES6.
$
$ The hcp and bcc interactions are exchanged in the paper (corrected in
$ the present dataset). There are small differences in invariant equilibria,
$ probably because of rounding errors of compound stoichiometries.
$
$ Changed from fractional to integer stoichiometries. This does not fix the
$ rounding errors.
$
$ ------------------------------------------------------------------------------
 TEMP-LIM 298.15 6000.00 !
$
$ELEMENT NAME  REF. STATE               ATOMIC MASS H298-H0    S298    !
$
 ELEMENT VA   VACUUM                      0.0          0.0      0.0    ! 
 ELEMENT GA   ORTHORHOMBIC_A11           69.72      5572.0     40.7271 ! 
 ELEMENT ZR   HCP_A3                     91.22      5566.27    39.1809 ! 
$ ------------------------------------------------------------------------------
$ Phase definitions
$
 PHASE LIQUID:L % 1 1 !
 CONST LIQUID:L : GA ZR : !
$
$ Fcc (cF4, Fm-3m) and MeX (cF8, Fm-3m)
$
 PHASE FCC_A1 %A 2 1 1 !
 CONST FCC_A1 : GA ZR : VA : !
$
$ Bcc (cI2, Im-3m)
$
 PHASE BCC_A2 %B 2 1 3 !
 CONST BCC_A2 : GA ZR% : VA : !
$
$ Hcp (hP2, P6_3/mmc) and Me2X (NiAs-type, hP4, P6_3/mmc, B8_1)
$
 PHASE HCP_A3 % 2 1 0.5 !
 CONST HCP_A3 : GA ZR% : VA : !
$
$ alpha-Ga (oC8, Cmca)
$
 PHASE ORTHORHOMBIC_A11 % 1 1 !
 CONST ORTHORHOMBIC_A11 : GA : !
$
$ Prototype Al3Zr (tI16, I4mmm)
$
 PHASE GA3ZR_D023 % 2 3 1 !
 CONST GA3ZR_D023 : GA : ZR : !
$
$ Prototype Ga2Zr (oC12, Cmmm)
$
 PHASE GA2ZR % 2 2 1 !
 CONST GA2ZR : GA : ZR : !
$
$ Prototype Pd5Pu3 (oC32, Cmcm)
$
 PHASE GA5ZR3 % 2 5 3 !
 CONST GA5ZR3 : GA : ZR : !
$
$ Prototype Al3Zr2 (oF40, Fdd2)
$
 PHASE GA3ZR2 % 2 3 2 !
 CONST GA3ZR2 : GA : ZR : !
$
$ Prototype MoB (tI16, I4_1/amd)
$
 PHASE GAZR_BG % 2 1 1 !
 CONST GAZR_BG : GA : ZR : !
$
$ Unknown structure
$
 PHASE GAZR_BETA % 2 1 1 !
 CONST GAZR_BETA : GA : ZR : !
$
$ Prototype Ga4Ti5 (hP18, P6_3/mcm)
$
 PHASE GA4ZR5 % 2 4 5 !
 CONST GA4ZR5 : GA : ZR : !
$
$ Prototype Si2U3 (tP10, P4/mbm)
$
 PHASE GA2ZR3_D5A % 2 2 3 !
 CONST GA2ZR3_D5A : GA : ZR : !
$
$ Prototype Mn5Si3 (hP16, P6_3/mcm)
$
 PHASE GA3ZR5_D88 % 2 3 5 !
 CONST GA3ZR5_D88 : GA : ZR : !
$
$ Prototype Al2Cu (tI12, I4/mcm)
$
 PHASE GAZR2_C16 % 2 1 2 !
 CONST GAZR2_C16 : GA : ZR : !
$ ------------------------------------------------------------------------------
$ Defaults
$
 DEFINE-SYSTEM-DEFAULT ELEMENT 2 !
 DEFAULT-COM DEFINE_SYSTEM_ELEMENT VA !
 TYPE-DEF % SEQ * !
 TYPE-DEF A GES AMEND_PHASE_DESCRIPTION @ MAGNETIC -3 0.28 !
 TYPE-DEF B GES AMEND_PHASE_DESCRIPTION @ MAGNETIC -1 0.4 !
 FUNCTION ZERO      298.15  0;                                         6000 N !
 FUNCTION UN_ASS    298.15  0;                                         6000 N !
 FUNCTION R         298.15  +8.31451;                                  6000 N !
$ ------------------------------------------------------------------------------
$ Element data
$ ------------------------------------------------------------------------------
$ Ga
$
$ DIAMOND_A4 added in unary 5.0
$
$ Changed name from ORTHORHOMBIC_GA to ORTHORHOMBIC_A11
$
 PAR  G(ORTHORHOMBIC_A11,GA)    200.00  +GHSERGA;                4000 N 91Din !
 PAR  G(FCC_A1,GA:VA)           200.00  +GHSERGA+3800-10.2*T;    4000 N 91Din !
 PAR  G(BCC_A2,GA:VA)           200.00  +GHSERGA+4500-11.7*T;    4000 N 91Din !
 PAR  G(HCP_A3,GA:VA)           200.00  +GHSERGA+4500-9.5*T;     4000 N 91Din !
$PAR  G(DIAMOND_A4,GA)          200.00  +GHSERGA+20900-2*T;      4000 N 09SGUN !
$PAR  G(BCT_A5,GA)              200.00  +GHSERGA+3846-9.8*T;     4000 N 91Din !
$PAR  G(TETRAGONAL_A6,GA)       200.00  +GHSERGA+3500-10*T;      4000 N 91Din !
 PAR  G(LIQUID,GA)              200.00  +GLIQGA;                 4000 N 91Din !
$
 FUNCTION GHSERGA   200.00  -21312.331+585.263691*T-108.228783*T*LN(T)
       +0.227155636*T**2-1.18575257E-04*T**3+439954*T**(-1);
       302.91  Y  -7055.643+132.73019*T-26.0692906*T*LN(T)
       +1.506E-04*T**2-4.0173E-08*T**3-118332*T**(-1)+1.64547E+23*T**(-9);
      4000.00  N !
 FUNCTION GLIQGA    200.00  +5491.298-18.073995*T+GHSERGA-7.0171E-17*T**7;
       302.91  Y  +5666.455-18.681147*T+GHSERGA-1.64547E+23*T**(-9);
      4000.00  N !
$ ------------------------------------------------------------------------------
$ Zr
$
$ CUB_A13, CBCC_A12, ORTHORHOMBIC_A20 and TETRAGONAL_U added in unary 4.1
$
$ ORTHORHOMBIC_A20 and TETRAGONAL_U from 04Che3 not in unary
$
 PAR  G(HCP_A3,ZR:VA)           130.00  +GHSERZR;,,                   N 91Din !
 PAR  G(BCC_A2,ZR:VA)           130.00  +GBCCZR;,,                    N 91Din !
$PAR  G(OMEGA,ZR)               130.00  +GOMEZR;,,                    N 91Din !
 PAR  G(FCC_A1,ZR:VA)           130.00  +GHSERZR+7600-0.9*T;,,        N 91Din !
$PAR  G(CBCC_A12,ZR:VA)         130.00  +GHSERZR+4602.2;,,            N 99SGUN !
$PAR  G(CUB_A13,ZR:VA)          130.00  +GHSERZR+7531.2;,,            N 99SGUN !
$PAR  G(ORTHORHOMBIC_A20,ZR)    130.00  +GBCCZR+5000;,,               N 99SGUN !
$PAR  G(ORTHORHOMBIC_A20,ZR)    130.00  +GHSERZR+38000;,,             N 04Che3 !
$PAR  G(TETRAGONAL_U,ZR)        130.00  +GBCCZR+5000;,,               N 99SGUN !
$PAR  G(TETRAGONAL_U,ZR)        130.00  +GHSERZR+35000;,,             N 04Che3 !
 PAR  G(LIQUID,ZR)              130.00  +GLIQZR;,,                    N 91Din !
$
 FUNCTION GHSERZR   130.00  -7827.595+125.64905*T-24.1618*T*LN(T)
       -0.00437791*T**2+34971*T**(-1);
      2128.00  Y  -26085.921+262.724183*T-42.144*T*LN(T)-1.342896E+31*T**(-9);
      6000.00  N !
 FUNCTION GBCCZR    130.00  -525.539+124.9457*T-25.607406*T*LN(T)
       -3.40084E-04*T**2-9.729E-09*T**3+25233*T**(-1)-7.6143E-11*T**4;
      2128.00  Y  -4620.034+1.55998*T+GHSERZR+1.4103476E+32*T**(-9);
      6000.00  N !
 FUNCTION GOMEZR    130.00  -8878.082+144.432234*T-26.8556*T*LN(T)
       -0.002799446*T**2+38376*T**(-1);
      2128.00  Y  -3414.603+2.566675*T+GHSERZR+8.517346E+31*T**(-9);
      6000.00  N !
 FUNCTION GLIQZR    130.00  +18147.69-9.080812*T+GHSERZR+1.6275E-22*T**7;
      2128.00  Y  -8281.26+253.812609*T-42.144*T*LN(T);
      6000.00  N !
 FUNCTION GFCCZR    130.00  +GHSERZR+7600-0.9*T;                       6000 N !
$ ------------------------------------------------------------------------------
$ Binary system
$
$ W. Luo, S. Liu, Y. Tang, M. Yin, B. Sundman, Y. Du, P. Nash, H. Tao,
$ J. Alloys Compd., 587, 497-505(2014).
$
$ Checked against paper. Checked at 6000 K.
$
$ The hcp and bcc interactions are exchanged in the paper (corrected in
$ the present dataset). There are small differences in invariant equilibria,
$ probably because of rounding errors of compound stoichiometries.
$
$ Changed from fractional to integer stoichiometries. This does not fix the
$ rounding errors.
$
 PAR  L(LIQUID,GA,ZR;0),,               -121380.088+2.0373*T;,,       N 14Luo !
 PAR  L(LIQUID,GA,ZR;1),,               -23284.056+15.2206*T;,,       N 14Luo !
 PAR  L(LIQUID,GA,ZR;2),,               +15582.222;,,                 N 14Luo !
$
 PAR  L(HCP_A3,GA,ZR:VA;0),,            -91299.115;,,                 N 14Luo !
 PAR  L(BCC_A2,GA,ZR:VA;0),,            -96174.625;,,                 N 14Luo !
$
 PAR  G(GA3ZR_D023,GA:ZR),,             +3*GHSERGA+GHSERZR
             -214906.296+21.974*T;,,                                  N 14Luo !
 PAR  G(GA2ZR,GA:ZR),,                  +2*GHSERGA+GHSERZR
             -188602.431+24.6045*T;,,                                 N 14Luo !
 PAR  G(GA5ZR3,GA:ZR),,                 +5*GHSERGA+3*GHSERZR
             -540000+77.6944*T;,,                                     N 14Luo !
 PAR  G(GA3ZR2,GA:ZR),,                 +3*GHSERGA+2*GHSERZR
             -349291.675+51.7755*T;,,                                 N 14Luo !
 PAR  G(GAZR_BG,GA:ZR),,                +GHSERGA+GHSERZR
             -141581.486+20.502*T;,,                                  N 14Luo !
 PAR  G(GAZR_BETA,GA:ZR),,              +GHSERGA+GHSERZR
             -139800+19.5*T;,,                                        N 14Luo !
 PAR  G(GA4ZR5,GA:ZR),,                 +4*GHSERGA+5*GHSERZR
             -538483.698+44.28*T;,,                                   N 14Luo !
 PAR  G(GA2ZR3_D5A,GA:ZR),,             +2*GHSERGA+3*GHSERZR
             -310000+34.934*T;,,                                      N 14Luo !
 PAR  G(GA3ZR5_D88,GA:ZR),,             +3*GHSERGA+5*GHSERZR
             -476000+50.2624*T;,,                                     N 14Luo !
 PAR  G(GAZR2_C16,GA:ZR),,              +GHSERGA+2*GHSERZR
             -160200+17.9442*T;,,                                     N 14Luo !
$
$ metastable
$
 PAR  L(FCC_A1,GA,ZR:VA;0),,            -96174.625;,,                 N Same !
$ ------------------------------------------------------------------------------
$
$
 LIST-OF-REFERENCE
 NUMBER  SOURCE
  Null   'Unknown source'
  Same   'Same or similar interaction as in the corresponding stable phase'
  REFLAV 'Laves phase convention: G(LAVES,X:X)=+3*GHSERXX+15000'
  91Din  'A.T. Dinsdale, Calphad, 15, 317-425(1991).'
  99SGUN 'SGTE unary database V.4.1, 1999.'
  04Che3 'P.-Y. Chevalier, E. Fischer, B. Cheynet,
          Calphad, 28, 15-40(2004); U, Zr'
  09SGUN 'SGTE unary database V.5.0, 2009.'
  14Luo  'W. Luo, S. Liu, Y. Tang, M. Yin, B. Sundman, Y. Du, P. Nash, H. Tao,
          J. Alloys Compd., 587, 497-505(2014); Ga-Zr'
!
