$
$ Database for Fe-Pb from A.T. Dinsdale and D.D. Gohil 1987
$ (included in LB Vol. 3)
$
$ A.T. Dinsdale, D.D. Gohil, NPL, unpublished work, 1987.
$
$ Dataset created 2010.12.22 by Bengt Hallstedt.
$ 2021.01.02: Modified for use with GES6.
$
$ The Pb solubility in solid Fe is not known, except that it must be very
$ small. The original dataset from 87Din did not contain any interactions
$ for fcc or bcc, i.e. the solid solubilities were zero. In LBall-v7+fun.tdb
$ an interaction of +100 kJ was selected. This results in a somewhat higher
$ Pb solubility in fcc-Fe and bcc-Fe than in the liquid. In the present
$ dataset an interaction of +150 kJ is selected. This results in a much
$ smaller Pb solubility in fcc-Fe and bcc-Fe than in the liquid. When a
$ better guess is possible this should be changed.
$
$ Current monotectic temperature 1810.1 K with x(Pb,bcc)=2.3E-5 and
$ x(Pb,Liq)=4.8E-4.
$
$ ------------------------------------------------------------------------------
 TEMP-LIM 298.15 6000.00 !
$
$ELEMENT NAME  REF. STATE               ATOMIC MASS H298-H0    S298    !
$
 ELEMENT VA   VACUUM                      0.0          0.0      0.0    ! 
 ELEMENT FE   BCC_A2                     55.847     4489.0     27.2797 ! 
 ELEMENT PB   FCC_A1                    207.2       6870.      64.80   ! 
$ ------------------------------------------------------------------------------
$ Species
$
 SPECIE  FE2                                FE2 !
 SPECIE  PB2                                PB2 !
$ ------------------------------------------------------------------------------
$ Phase definitions
$
 PHASE LIQUID:L % 1 1 !
 CONST LIQUID:L : FE PB : !
$
$ Fcc (cF4, Fm-3m) and MeX (cF8, Fm-3m)
$
 PHASE FCC_A1 %A 2 1 1 !
 CONST FCC_A1 : FE PB : VA : !
$
$ Bcc (cI2, Im-3m)
$
 PHASE BCC_A2 %B 2 1 3 !
 CONST BCC_A2 : FE PB : VA : !
$
$ Hcp (hP2, P6_3/mmc) and Me2X (NiAs-type, hP4, P6_3/mmc, B8_1)
$
 PHASE HCP_A3 % 2 1 0.5 !
 CONST HCP_A3 : FE PB : VA : !
$
 PHASE GAS:G % 1 1 !
 CONST GAS:G : FE FE2 PB PB2 : !
$ ------------------------------------------------------------------------------
$ Defaults
$
 DEFINE-SYSTEM-DEFAULT ELEMENT 2 !
 DEFAULT-COM DEFINE_SYSTEM_ELEMENT VA !
 DEFAULT-COM REJECT_PHASE GAS !
 TYPE-DEF % SEQ * !
 TYPE-DEF A GES AMEND_PHASE_DESCRIPTION @ MAGNETIC -3 0.28 !
 TYPE-DEF B GES AMEND_PHASE_DESCRIPTION @ MAGNETIC -1 0.4 !
 FUNCTION ZERO      298.15  0;                                         6000 N !
 FUNCTION UN_ASS    298.15  0;                                         6000 N !
 FUNCTION R         298.15  +8.31451;                                  6000 N !
 FUNCTION RTLNP     298.15  +8.31451*T*LN(1E-05*P);                    6000 N !
$ ------------------------------------------------------------------------------
$ Element data
$ ------------------------------------------------------------------------------
$ Fe
$
$ ORTHORHOMBIC_A20 and TETRAGONAL_U added im unary 4.1
$
 PAR  G(BCC_A2,FE:VA) 0.01              +GHSERFE;,,                   N 91Din !
 PAR  TC(BCC_A2,FE:VA) 0.01              1043.00;,,                   N 91Din !
 PAR  BM(BCC_A2,FE:VA) 0.01                 2.22;,,                   N 91Din !
 PAR  G(FCC_A1,FE:VA),,                 +GFCCFE;,,                    N 91Din !
 PAR  TC(FCC_A1,FE:VA),,                 -201.00;,,                   N 91Din !
 PAR  BM(FCC_A1,FE:VA),,                   -2.10;,,                   N 91Din !
 PAR  G(HCP_A3,FE:VA),,                 +GHCPFE;,,                    N 91Din !
$PAR  G(CBCC_A12,FE:VA),,               +GHSERFE+4745;,,              N 91Din !
$PAR  G(CUB_A13,FE:VA),,                +GHSERFE+3745;,,              N 91Din !
$PAR  G(ORTHORHOMBIC_A20,FE),,          +GHSERFE+5000;,,              N 99SGUN !
$PAR  G(TETRAGONAL_U,FE),,              +GHSERFE+5000;,,              N 99SGUN !
 PAR  G(LIQUID,FE),,                    +GLIQFE;,,                    N 91Din !
$
 PAR  G(GAS,FE),,                       +F10039T+RTLNP;,,             N 97SUB !
 PAR  G(GAS,FE2),,                      +F10090T+RTLNP;,,             N 97SUB !
$
 FUNCTION GHSERFE   298.15  +1225.7+124.134*T-23.5143*T*LN(T)
       -0.00439752*T**2-5.8927E-08*T**3+77359*T**(-1);
      1811.00  Y  -25383.581+299.31255*T-46*T*LN(T)+2.29603E+31*T**(-9);
      6000.00  N !
 FUNCTION GFCCFE    298.15  -1462.4+8.282*T-1.15*T*LN(T)
       +6.4E-04*T**2+GHSERFE;
      1811.00  Y  -1713.815+0.940009*T+GHSERFE+4.9251E+30*T**(-9);
      6000.00  N !
 FUNCTION GHCPFE    298.15  -3705.78+12.591*T-1.15*T*LN(T)
       +6.4E-04*T**2+GHSERFE;
      1811.00  Y  -3957.195+5.249009*T+GHSERFE+4.9251E+30*T**(-9);
      6000.00  N !
 FUNCTION GLIQFE    298.15  +12040.17-6.55843*T+GHSERFE-3.67516E-21*T**7;
      1811.00  Y  -10838.83+291.302*T-46*T*LN(T);
      6000.00  N !
$ Fe(g)
 FUNCTION F10039T   298.15  +404205.713+35.7374159*T-32.857*T*LN(T)
       +0.00911365*T**2-1.35405833E-06*T**3+109770*T**(-1);
       900.00  Y  +412790.047-53.8374237*T-19.843*T*LN(T)
       +6.96E-05*T**2-1.30683333E-07*T**3-976410*T**(-1);
      2400.00  Y  +409046.151-49.3274618*T-20.125*T*LN(T)
       -5.6655E-04*T**2-5.29033333E-08*T**3+887590*T**(-1);
      5500.00  Y  +511845.843-358.371229*T+16.811*T*LN(T)
       -0.00616325*T**2+1.00678333E-07*T**3-48193220*T**(-1);
     10000.00  N !
$ Fe2(g)
 FUNCTION F10090T   298.15  +704549.823+89.2549323*T-50.743*T*LN(T)
       +0.00803125*T**2-2.18098667E-06*T**3+169270*T**(-1);
       800.00  Y  +717674.096-87.8134515*T-23.957*T*LN(T)
       -0.0157846*T**2+1.723485E-06*T**3-1006505*T**(-1);
      1700.00  Y  +655211.274+352.671354*T-83.82001*T*LN(T)
       +0.0095931*T**2-2.85336667E-07*T**3+11147285*T**(-1);
      4500.00  Y  +780963.168-41.3623277*T-36.245*T*LN(T)
       +0.00155795*T**2-3.05716667E-08*T**3-51729450*T**(-1);
      6000.00  N !
$ ------------------------------------------------------------------------------
$ Pb
$
$ RHOMBOHEDRAL_A7 and TETRAGONAL_A6 added in unary 3.0
$ RHOMBOHEDRAL_A7, TETRAGONAL_A6 and TET_ALPHA1_A6 revised in unary 4.1
$ RHOMBO_A10 added in unary 5.0
$
 PAR  G(FCC_A1,PB:VA),,                 +GHSERPB;                2100 N 91Din !
 PAR  G(BCC_A2,PB:VA),,                 +GHSERPB+2400-1.1*T;     2100 N 91Din !
 PAR  G(HCP_A3,PB:VA),,                 +GHSERPB+300+T;          2100 N 91Din !
$PAR  G(BCT_A5,PB),,                    +GHSERPB+489+3.52*T;     2100 N 91Din !
$PAR  G(TETRAGONAL_A6,PB),,             +GHSERPB+4493.235;       2100 N 98Boa !
$PAR  G(TETRAGONAL_A6,PB),,             +GHSERPB+473.23+3.5531*T
$            -0.0396834*T*LN(T)+2.1489E-05*T**2;                 2100 N 96SGUN !
$PAR  G(TET_ALPHA1_A6,PB),,             +GHSERPB
$            +1903.3-2.0602*T;                                   2100 N 98Boa !
$PAR  G(TET_ALPHA1_A6,PB),,             +GHSERPB+183.2+0.45314*T
$            -0.0396834*T*LN(T)+2.149E-06*T**2;                  2100 N 91Din !
$PAR  G(RHOMBOHEDRAL_A7,PB),,           +GHSERPB+300+T;          2100 N 99SGUN !
$PAR  G(RHOMBOHEDRAL_A7,PB),,           +GHSERPB+4900+3.52*T;    2100 N 96SGUN !
$PAR  G(RHOMBO_A10,PB),,                +GHSERPB+10;             2100 N 09SGUN !
 PAR  G(LIQUID,PB),,                    +GLIQPB;                 2100 N 91Din !
$
 PAR  G(GAS,PB),,                       +PBGAS+RTLNP;,,               N 94SUB !
 PAR  G(GAS,PB2),,                      +PB2GAS+RTLNP;,,              N 94SUB !
$
 FUNCTION GHSERPB   298.15  -7650.085+101.700244*T-24.5242231*T*LN(T)
       -0.00365895*T**2-2.4395E-07*T**3;
       600.61  Y  -10531.095+154.243182*T-32.4913959*T*LN(T)
       +0.00154613*T**2+8.05448E+25*T**(-9);
      1200.00  Y  +4157.616+53.139072*T-18.9640637*T*LN(T)
       -0.002882943*T**2+9.8144E-08*T**3-2696755*T**(-1)+8.05448E+25*T**(-9);
      2100.00  N !
 FUNCTION GLIQPB    298.15  +4672.124-7.750683*T+GHSERPB-6.019E-19*T**7;
       600.61  Y  +4853.137-8.067136*T+GHSERPB-8.05448E+25*T**(-9);
      2100.00  N !
$ Pb(g) : 
 FUNCTION PBGAS     298.15  +188835.507-32.9195926*T-21.30643*T*LN(T)
       +6.551465E-04*T**2-1.4308295E-07*T**3+9337.21*T**(-1);
      1100.00  Y  +186417.546+1.1925361*T-26.43463*T*LN(T)
       +0.004836378*T**2-7.36003167E-07*T**3+151170.2*T**(-1);
      2000.00  Y  +284618.057-556.413056*T+46.90369*T*LN(T)
       -0.01960158*T**2+7.96842E-07*T**3-24599010*T**(-1);
      3700.00  Y  -79601.0582+672.214164*T-102.9479*T*LN(T)
       +0.007928075*T**2-1.55617667E-07*T**3+1.4219575E+08*T**(-1);
      5200.00  Y  -180900.472+937.376132*T-134.2151*T*LN(T)
       +0.01228287*T**2-2.70638667E-07*T**3+2.0490225E+08*T**(-1);
      8200.00  Y  +1427349.52-1723.55876*T+161.2387*T*LN(T)
           -0.011905435*T**2+1.01633317E-07*T**3-1.440972E+09*T**(-1);
     10000.00  N !
$ Pb2(g) : 
 FUNCTION PB2GAS    298.15  +294478.493-30.0067503*T-36.885*T*LN(T)
       -0.001044156*T**2-1.93234833E-08*T**3-834.586*T**(-1);
      1400.00  Y  +308511.945-91.1346139*T-29.46399*T*LN(T)
       -0.001186672*T**2-2.884025E-07*T**3-3780887*T**(-1);
      2300.00  Y  +400773.9-645.007872*T+43.76939*T*LN(T)
       -0.02616466*T**2+1.27101733E-06*T**3-24494475*T**(-1);
      3500.00  Y  -89794.022+1153.00625*T-178.0027*T*LN(T)
       +0.018362105*T**2-4.039735E-07*T**3+1.7883455E+08*T**(-1);
      6000.00  N !
$ ------------------------------------------------------------------------------
$ Binary system
$
$ From A.T. Dinsdale and D.D. Gohil 1987 (included in LB Vol. 3)
$
$ A.T. Dinsdale, D.D. Gohil, NPL, unpublished work, 1987.
$
$ The Pb solubility in solid Fe is not known, except that it mus be very
$ small. The original dataset from 87Din did not contain any interactions
$ for fcc or bcc, i.e. the solid solubilities were zero. In LBall-v7+fun.tdb
$ an interaction of +100 kJ was selected. This results in a somewhat higher
$ Pb solubility in fcc-Fe and bcc-Fe than in the liquid. In the present
$ dataset an interaction of +150 kJ is selected. This results in a much
$ smaller Pb solubility in fcc-Fe and bcc-Fe than in the liquid. When a
$ better guess is possible this should be changed.
$
$ Current monotectic temperature is 1810.1 K with x(Pb,bcc)=2.3E-5 and
$ x(Pb,Liq)=4.8E-4 .
$
 PAR  L(LIQUID,FE,PB;0),,               +96500;,,                     N 87Din !
 PAR  L(LIQUID,FE,PB;1),,               +18500;,,                     N 87Din !
$
 PAR  L(FCC_A1,FE,PB:VA;0),,            +150000;,,                    N 10Hal !
 PAR  L(BCC_A2,FE,PB:VA;0),,            +150000;,,                    N 10Hal !
$
$ metastable
$
 PAR  L(HCP_A3,FE,PB:VA;0),,            +150000;,,                    N Same !
$ ------------------------------------------------------------------------------
$
 ASSESSED_SYSTEM
  FE-PB(TDB -* +LIQUID +FCC_A1 +BCC_A2 ;G5 C_S:LIQ/PB MAJ:LIQ/FE C_S:FCC/PB:VA
  MAJ:FCC/FE:VA ;P3 TMM:300/2000 STP:.5/500) !
$
$
 LIST-OF-REFERENCE
 NUMBER  SOURCE
  Null   'Unknown source'
  Same   'Same or similar interaction as in the corresponding stable phase'
  REFLAV 'Laves phase convention: G(LAVES,X:X)=+3*GHSERXX+15000'
  87Din  'A.T. Dinsdale, D.D. Gohil, NPL, unpublished work, 1987; Fe-Pb'
  91Din  'A.T. Dinsdale, Calphad, 15, 317-425(1991).'
  94SUB  'SGTE substance database, version 1994'
  96SGUN 'SGTE unary database V.3.0, 1996.'
  97SUB  'SGTE substance database, version 1997'
  98Boa  'D. Boa, I. Ansara, Thermochim. Acta, 314, 79-86(1998),
          SGTE unary database V.4.1, 1999; In, Pb'
  99SGUN 'SGTE unary database V.4.1, 1999.'
  09SGUN 'SGTE unary database V.5.0, 2009.'
  10Hal  'B. Hallstedt, fcc and bcc interactions changed, 2010; Fe-Pb'
!
