$
$ Database for Pd-Pt from H. Okamoto 1991.
$
$ H. Okamoto, J. Phase Equilib., 12, 617-18(1991).
$
$ Dataset created 2024.03.25 by Bengt Hallstedt.
$
$ The interactions were estimated based on the Miedema model.
$
$ Experimental data (calorimetry and vapour pressure) from Darby and Myles
$ (J.B. Darby, K.M. Myles, Metall. Trans., 3, 653-57(1972)) in contrast
$ indicate weak negative interactions. 
$
$ ------------------------------------------------------------------------------
 TEMP-LIM 298.15 6000.00 !
$
$ELEMENT NAME  REF. STATE               ATOMIC MASS H298-H0    S298    !
$
 ELEMENT VA   VACUUM                      0.0          0.0      0.0    ! 
 ELEMENT PD   FCC_A1                    106.42      5468.488   37.8234 ! 
 ELEMENT PT   FCC_A1                    195.08      5723.712   41.6308 !
$ ------------------------------------------------------------------------------
$ Phase definitions
$
 PHASE LIQUID:L % 1 1 !
 CONST LIQUID:L : PD PT : !
$
$ Fcc (cF4, Fm-3m) and MeX (cF8, Fm-3m)
$
 PHASE FCC_A1 %A 2 1 1 !
 CONST FCC_A1 : PD PT : VA : !
$
$ Bcc (cI2, Im-3m)
$
 PHASE BCC_A2 %B 2 1 3 !
 CONST BCC_A2 : PD PT : VA : !
$
$ Hcp (hP2, P6_3/mmc) and Me2X (NiAs-type, hP4, P6_3/mmc, B8_1)
$
 PHASE HCP_A3 %A 2 1 0.5 !
 CONST HCP_A3 : PD PT : VA : !
$ ------------------------------------------------------------------------------
$ Defaults
$
 DEFINE-SYSTEM-DEFAULT ELEMENT 2 !
 DEFAULT-COM DEFINE_SYSTEM_ELEMENT VA !
 TYPE-DEF % SEQ * !
 TYPE-DEF A GES AMEND_PHASE_DESCRIPTION @ MAGNETIC -3 0.28 !
 TYPE-DEF B GES AMEND_PHASE_DESCRIPTION @ MAGNETIC -1 0.4 !
 FUNCTION ZERO      298.15  0;                                         6000 N !
 FUNCTION UN_ASS    298.15  0;                                         6000 N !
 FUNCTION R         298.15  +8.31451;                                  6000 N !
$ ------------------------------------------------------------------------------
$ Element data
$ ------------------------------------------------------------------------------
$ Pd
$
$ RHOMBOHEDRAL_A7 added in unary 5.0
$
 PAR  G(FCC_A1,PD:VA),,                 +GHSERPD;                4000 N 91Din !
 PAR  G(BCC_A2,PD:VA),,                 +GHSERPD+10500-1.8*T;    4000 N 91Din !
 PAR  G(HCP_A3,PD:VA),,                 +GHSERPD+2000+0.1*T;     4000 N 91Din !
$PAR  G(RHOMBOHEDRAL_A7,PD),,           +GHSERPD+4000;           4000 N 06Vre !
 PAR  G(LIQUID,PD),,                    +GLIQPD;                 4000 N 91Din !
$
 FUNCTION GHSERPD   298.15  -10204.027+176.076315*T-32.211*T*LN(T)
       +0.007120975*T**2-1.919875E-06*T**3+168687*T**(-1);
       900.00  Y  +917.062+49.659892*T-13.5708*T*LN(T)
       -0.00717522*T**2+1.91115E-07*T**3-1112465*T**(-1);
      1828.00  Y  -67161.018+370.102147*T-54.2067086*T*LN(T)
       +0.002091396*T**2-6.2811E-08*T**3+18683526*T**(-1);
      4000.00  N !
 FUNCTION GLIQPD    298.15  +11506.758-5.112162*T+GHSERPD;
       600.00  Y  +23405.778-116.918419*T+10.8922031*T*LN(T)
       -0.027266568*T**2+2.430675E-06*T**3-1853674*T**(-1);
      1828.00  Y  -12373.637+251.416903*T-41.17*T*LN(T);
      4000.00  N !
$ ------------------------------------------------------------------------------
$ Pt
$
 PAR  G(FCC_A1,PT:VA),,                 +GHSERPT;                4000 N 91Din !
 PAR  G(BCC_A2,PT:VA),,                 +GHSERPT+15000-2.4*T;    4000 N 91Din !
 PAR  G(HCP_A3,PT:VA),,                 +GHSERPT+2500+0.1*T;     4000 N 91Din !
 PAR  G(LIQUID,PT),,                    +GLIQPT;                 4000 N 91Din !
$
 FUNCTION GHSERPT   298.15  -7595.631+124.388275*T-24.5526*T*LN(T)
       -0.00248297*T**2-2.0138E-08*T**3+7974*T**(-1);
      1300.00  Y  -9253.174+161.529615*T-30.2527*T*LN(T)
       +0.002321665*T**2-6.56946E-07*T**3-272106*T**(-1);
      2041.50  Y  -222048.216+1019.35892*T-136.192996*T*LN(T)
       +0.020454938*T**2-7.59259E-07*T**3+71539020*T**(-1);
      4000.00  N !
 FUNCTION GLIQPT    298.15  +20114.016-9.275183*T+GHSERPT;
       600.00  Y  +19023.491+32.94182*T-12.3403769*T*LN(T)
       -0.011551507*T**2+9.31516E-07*T**3-601426*T**(-1);
      2041.50  Y  +1404.468+205.858962*T-36.5*T*LN(T);
      4000.00  N !
 FUNCTION GBCCPT    298.15  +GHSERPT+15000-2.4*T;                      6000 N !
$ ------------------------------------------------------------------------------
$ Binary system
$
$ H. Okamoto, J. Phase Equilib., 12, 617-18(1991).
$
$ Checked against paper. Checked at 6000 K.
$
$ The interactions were estimated based on the Miedema model.
$
$ Experimental data (calorimetry and vapour pressure) from Darby and Myles
$ (J.B. Darby, K.M. Myles, Metall. Trans., 3, 653-57(1972)) in contrast
$ indicate weak negative interactions. 
$
 PAR  L(LIQUID,PD,PT;0),,               +8000;,,                      N 91Oka !
$
 PAR  L(FCC_A1,PD,PT:VA;0),,            +6840;,,                      N 91Oka !
 PAR  L(FCC_A1,PD,PT:VA;1),,            -1150;,,                      N 91Oka !
$
$ Metastable
$
 PAR  L(BCC_A2,PD,PT:VA;0),,            +6840;,,                      N Same !
 PAR  L(BCC_A2,PD,PT:VA;1),,            -1150;,,                      N Same !
$
 PAR  L(HCP_A3,PD,PT:VA;0),,            +6840;,,                      N Same !
 PAR  L(HCP_A3,PD,PT:VA;1),,            -1150;,,                      N Same !
$ ------------------------------------------------------------------------------
$
$
 LIST-OF-REFERENCE
 NUMBER  SOURCE
  Null   'Unknown source'
  Same   'Same or similar interaction as in the corresponding stable phase'
  COST   'COST 507 database'
  91Din  'A.T. Dinsdale, Calphad, 15, 317-425(1991).'
  91Oka  'H. Okamoto, J. Phase Equilib., 12, 617-18(1991); Pd-Pt'
  06Vre  'J. Vrestal, J. Pinkas, A. Watson, A. Scott, J. Houserova, A. Kroupa,
          Calphad, 30, 14-17(2006), SGTE unary database V.5.0, 2009; Pd'
!
