$
$ Database for Fe-Ni from Z.-T. Zhang et al. 2023.
$
$ Z.-T. Zhang, J.-J. Wang, W. Liu, X.-G. Lu,
$ J. Iron Steel Res. Int., 30, 660-76(2023).
$
$ Dataset created 2023.03.14 by Bengt Hallstedt.
$
$ There are no parameters in the paper. The parameters are taken from the
$ supplemental tdb.
$
$ Modified from 10Cac with a 2-sl model for L1_2 and changed interactions.
$
$ ------------------------------------------------------------------------------
 TEMP-LIM 298.15 6000.00 !
$
$ELEMENT NAME  REF. STATE               ATOMIC MASS H298-H0    S298    !
$
 ELEMENT VA   VACUUM                      0.0          0.0      0.0    ! 
 ELEMENT FE   BCC_A2                     55.847     4489.0     27.2797 ! 
 ELEMENT NI   FCC_A1                     58.69      4787.0     29.7955 ! 
$ ------------------------------------------------------------------------------
$ Phase definitions
$
 PHASE LIQUID:L % 1 1 !
 CONST LIQUID:L : FE NI : !
$
$ Fcc (cF4, Fm-3m) and MeX (cF8, Fm-3m)
$
 PHASE FCC_A1 %A 2 1 1 !
 CONST FCC_A1 : FE NI : VA : !
$
$ Disordered part of FCC_4SL, identical to FCC_A1
$
 PHASE A1_FCC %A 2 1 1 !
 CONST A1_FCC : FE NI : VA : !
$
$ Prototype AuCu3 (cP4, Pm-3m, L1_2)
$
 PHASE L12_FCC %AY 3 0.75 0.25 1 !
 CONST L12_FCC : FE NI% : FE% NI : VA :  !
$
$ Bcc (cI2, Im-3m)
$
 PHASE BCC_A2 %B 2 1 3 !
 CONST BCC_A2 : FE% NI : VA : !
$
$ Hcp (hP2, P6_3/mmc) and Me2X (NiAs-type, hP4, P6_3/mmc, B8_1)
$
 PHASE HCP_A3 %A 2 1 0.5 !
 CONST HCP_A3 : FE NI : VA : !
$ ------------------------------------------------------------------------------
$ Defaults
$
 DEFINE-SYSTEM-DEFAULT ELEMENT 2 !
 DEFAULT-COM DEFINE_SYSTEM_ELEMENT VA !
 TYPE-DEF % SEQ * !
 TYPE-DEF A GES AMEND_PHASE_DESCRIPTION @ MAGNETIC -3 0.28 !
 TYPE-DEF B GES AMEND_PHASE_DESCRIPTION @ MAGNETIC -1 0.4 !
 TYPE-DEF Y GES AMEND_PHASE_DESCRIPTION L12_FCC DIS_PART A1_FCC !
 FUNCTION ZERO      298.15  0;                                         6000 N !
 FUNCTION UN_ASS    298.15  0;                                         6000 N !
 FUNCTION R         298.15  +8.31451;                                  6000 N !
$ ------------------------------------------------------------------------------
$ Element data
$ ------------------------------------------------------------------------------
$ Fe
$
$ ORTHORHOMBIC_A20 and TETRAGONAL_U added im unary 4.1
$
 PAR  G(BCC_A2,FE:VA),,                 +GHSERFE;,,                   N 91Din !
 PAR  TC(BCC_A2,FE:VA),,                 1043.00;,,                   N 91Din !
 PAR  BMAG(BCC_A2,FE:VA),,                    2.22;,,                 N 91Din !
 PAR  G(FCC_A1,FE:VA),,                 +GFCCFE;,,                    N 91Din !
 PAR  TC(FCC_A1,FE:VA),,                 -201.00;,,                   N 91Din !
 PAR  BMAG(FCC_A1,FE:VA),,                   -2.10;,,                 N 91Din !
 PAR  G(A1_FCC,FE:VA),,                 +GFCCFE;,,                    N 91Din !
 PAR  TC(A1_FCC,FE:VA),,                 -201.00;,,                   N 91Din !
 PAR  BMAG(A1_FCC,FE:VA),,                   -2.10;,,                 N 91Din !
 PAR  G(HCP_A3,FE:VA),,                 +GHCPFE;,,                    N 91Din !
$PAR  G(CBCC_A12,FE:VA),,               +GHSERFE+4745;,,              N 91Din !
$PAR  G(CUB_A13,FE:VA),,                +GHSERFE+3745;,,              N 91Din !
$PAR  G(ORTHORHOMBIC_A20,FE),,          +GHSERFE+5000;,,              N 99SGUN !
$PAR  G(TETRAGONAL_U,FE),,              +GHSERFE+5000;,,              N 99SGUN !
 PAR  G(LIQUID,FE),,                    +GLIQFE;,,                    N 91Din !
$
 FUNCTION GHSERFE   298.15  +1225.7+124.134*T-23.5143*T*LN(T)
       -0.00439752*T**2-5.8927E-08*T**3+77359*T**(-1);
      1811.00  Y  -25383.581+299.31255*T-46*T*LN(T)+2.29603E+31*T**(-9);
      6000.00  N !
 FUNCTION GFCCFE    298.15  -1462.4+8.282*T-1.15*T*LN(T)
       +6.4E-04*T**2+GHSERFE;
      1811.00  Y  -1713.815+0.940009*T+GHSERFE+4.9251E+30*T**(-9);
      6000.00  N !
 FUNCTION GHCPFE    298.15  -3705.78+12.591*T-1.15*T*LN(T)
       +6.4E-04*T**2+GHSERFE;
      1811.00  Y  -3957.195+5.249009*T+GHSERFE+4.9251E+30*T**(-9);
      6000.00  N !
 FUNCTION GLIQFE    298.15  +12040.17-6.55843*T+GHSERFE-3.67516E-21*T**7;
      1811.00  Y  -10838.83+291.302*T-46*T*LN(T);
      6000.00  N !
$ ------------------------------------------------------------------------------
$ Ni
$
$ FCC_A1 and LIQUID modified in unary 5.0 (slight change in upper T interval)
$ BCT_A5 added in unary 5.0
$
 PAR  G(FCC_A1,NI:VA),,                 +GHSERNI;                3000 N 91Din !
 PAR  TC(FCC_A1,NI:VA),,                  633.00;                3000 N 91Din !
 PAR  BMAG(FCC_A1,NI:VA),,                    0.52;              3000 N 91Din !
 PAR  G(A1_FCC,NI:VA),,                 +GHSERNI;                3000 N 91Din !
 PAR  TC(A1_FCC,NI:VA),,                  633.00;                3000 N 91Din !
 PAR  BMAG(A1_FCC,NI:VA),,                    0.52;              3000 N 91Din !
 PAR  G(BCC_A2,NI:VA),,                 +GHSERNI
             +8715.084-3.556*T;                                  3000 N 91Din !
 PAR  TC(BCC_A2,NI:VA),,                  575.00;                3000 N 91Din !
 PAR  BMAG(BCC_A2,NI:VA),,                    0.85;              3000 N 91Din !
 PAR  G(HCP_A3,NI:VA),,                 +GHSERNI+1046+1.255*T;   3000 N 91Din !
 PAR  TC(HCP_A3,NI:VA),,                  633.00;                3000 N 91Din !
 PAR  BMAG(HCP_A3,NI:VA),,                    0.52;              3000 N 91Din !
$PAR  G(BCT_A5,NI),,                    +GHSERNI+10023-4.556*T;  3000 N 99Gho !
$PAR  G(CUB_A13,NI:VA),,                +GHSERNI+2092;           3000 N 91Din !
$PAR  G(CBCC_A12,NI:VA),,               +GHSERNI+3556;           3000 N 91Din !
 PAR  G(LIQUID,NI),,                    +GLIQNI;                 3000 N 91Din !
$
 FUNCTION GHSERNI   298.15  -5179.159+117.854*T-22.096*T*LN(T)-0.0048407*T**2;
      1728.00  Y  -27840.62+279.134977*T-43.1*T*LN(T)+1.12754E+31*T**(-9);
      3000.00  N !
 FUNCTION GLIQNI    298.15  +16414.686-9.397*T+GHSERNI-3.82318E-21*T**7;
      1728.00  Y  -9549.817+268.597977*T-43.1*T*LN(T);
      3000.00  N !
 FUNCTION GBCCNI    298.15  +GHSERNI+8715.084-3.556*T;                 6000 N !
$ ------------------------------------------------------------------------------
$ Binary system
$
$ Z.-T. Zhang, J.-J. Wang, W. Liu, X.-G. Lu,
$ J. Iron Steel Res. Int., 30, 660-76(2023).
$
$ Checked against paper and author's tdb. Checked at 6000 K.
$
$ There are no parameters in the paper. The parameters are taken from the
$ supplemental tdb.
$
$ Modified from 10Cac with a 2-sl model for L1_2 and changed interactions.
$
 PAR  L(LIQUID,FE,NI;0),,               -16777+2.899*T;,,             N 23Zha !
 PAR  L(LIQUID,FE,NI;1),,               +10374-2.2796*T;,,            N 23Zha !
 PAR  L(LIQUID,FE,NI;2),,               -1256;,,                      N 23Zha !
$
 PAR  L(FCC_A1,FE,NI:VA;0),,            -14804+2.705*T;,,             N 23Zha !
 PAR  L(FCC_A1,FE,NI:VA;1),,            +12459-3.37*T;,,              N 23Zha !
 PAR  L(FCC_A1,FE,NI:VA;2),,            -1555;,,                      N 23Zha !
 PAR  TC(FCC_A1,FE,NI:VA;0),,           +2200;,,                      N 10Cac !
 PAR  TC(FCC_A1,FE,NI:VA;1),,            -700;,,                      N 10Cac !
 PAR  TC(FCC_A1,FE,NI:VA;2),,            -800;,,                      N 10Cac !
 PAR  BMAG(FCC_A1,FE,NI:VA;0),,           +10;,,                      N 10Cac !
 PAR  BMAG(FCC_A1,FE,NI:VA;1),,            +8;,,                      N 10Cac !
 PAR  BMAG(FCC_A1,FE,NI:VA;2),,            +4;,,                      N 10Cac !
$
 PAR  L(A1_FCC,FE,NI:VA;0),,            -14804+2.705*T;,,             N 23Zha !
 PAR  L(A1_FCC,FE,NI:VA;1),,            +12459-3.37*T;,,              N 23Zha !
 PAR  L(A1_FCC,FE,NI:VA;2),,            -1555;,,                      N 23Zha !
 PAR  TC(A1_FCC,FE,NI:VA;0),,           +2200;,,                      N 10Cac !
 PAR  TC(A1_FCC,FE,NI:VA;1),,            -700;,,                      N 10Cac !
 PAR  TC(A1_FCC,FE,NI:VA;2),,            -800;,,                      N 10Cac !
 PAR  BMAG(A1_FCC,FE,NI:VA;0),,           +10;,,                      N 10Cac !
 PAR  BMAG(A1_FCC,FE,NI:VA;1),,            +8;,,                      N 10Cac !
 PAR  BMAG(A1_FCC,FE,NI:VA;2),,            +4;,,                      N 10Cac !
$
 PAR  G(L12_FCC,FE:NI:VA),,             +GFE3NI;,,                    N 23Zha !
 PAR  G(L12_FCC,NI:FE:VA),,             +GFENI3;,,                    N 23Zha !
 PAR  L(L12_FCC,FE,NI:FE:VA;0),,        -1.5*GFENI3+1.5*GFE2NI2
             +1.5*GFE3NI;,,                                           N 23Zha !
 PAR  L(L12_FCC,FE,NI:NI:VA;0),,        +1.5*GFENI3+1.5*GFE2NI2
             -1.5*GFE3NI;,,                                           N 23Zha !
 PAR  L(L12_FCC,FE,NI:FE:VA;1),,        +0.5*GFENI3-1.5*GFE2NI2
             +1.5*GFE3NI;,,                                           N 23Zha !
 PAR  L(L12_FCC,FE,NI:NI:VA;1),,        -1.5*GFENI3+1.5*GFE2NI2
             -0.5*GFE3NI;,,                                           N 23Zha !
 PAR  L(L12_FCC,FE,NI:*:VA;0),,         +3*U3FENI;,,                  N 23Zha !
 PAR  L(L12_FCC,FE,NI:*:VA;1),,         +3*U4FENI;,,                  N 23Zha !
 PAR  L(L12_FCC,*:FE,NI:VA;0),,         +U3FENI;,,                    N 23Zha !
 PAR  L(L12_FCC,*:FE,NI:VA;1),,         +U4FENI;,,                    N 23Zha !
$
 PAR  L(BCC_A2,FE,NI:VA;0),,            -5018-0.8664*T;,,             N 23Zha !
 PAR  L(BCC_A2,FE,NI:VA;1),,            +7726-4*T;,,                  N 23Zha !
 PAR  TC(BCC_A2,FE,NI:VA;0),,           -1000;,,                      N 10Cac !
 PAR  TC(BCC_A2,FE,NI:VA;1),,           +1500;,,                      N 10Cac !
 PAR  BMAG(BCC_A2,FE,NI:VA;0),,            -0.5;,,                    N 10Cac !
 PAR  BMAG(BCC_A2,FE,NI:VA;1),,            +3.5;,,                    N 10Cac !
$
$ metastable
$
 PAR  L(HCP_A3,FE,NI:VA;0),,            -14804+2.705*T;,,             N Same !
 PAR  L(HCP_A3,FE,NI:VA;1),,            +12459-3.37*T;,,              N Same !
 PAR  L(HCP_A3,FE,NI:VA;2),,            -1555;,,                      N Same !
$
$PAR  L(CBCC_A12,FE,NI:VA;0),,          +ZERO;,,                      N 09Zha !
$PAR  L(CUB_A13,FE,NI:VA;0),,           -7000;,,                      N 09Zha ! 
$
 FUNCTION U3FENI    298.15  -458.9;                                    6000 N !
 FUNCTION U4FENI    298.15  +ZERO;                                     6000 N !
 FUNCTION GFENI3    298.15  -16978+15.1875*T;                          6000 N !
 FUNCTION GFE3NI    298.15  +13906;                                    6000 N !
 FUNCTION GFE2NI2   298.15  +ZERO;                                     6000 N !
$ ------------------------------------------------------------------------------
$
$
 LIST-OF-REFERENCE
 NUMBER  SOURCE
  Null   'Unknown source'
  Same   'Same or similar interaction as in the corresponding stable phase'
  REFLAV 'Laves phase convention: G(LAVES,X:X)=+3*GHSERXX+15000'
  91Din  'A.T. Dinsdale, Calphad, 15, 317-425(1991).'
  99Gho  'G. Ghosh, Metall. Mater. Trans. A, 30A, 1481-94(1999),
          SGTE unary database V.5.0, 2009; Ni'
  99SGUN 'SGTE unary database V.4.1, 1999.'
  09Zha  'L. Zhang, Y. Du, H. Xu, S. Liu, Y. Liu, F. Zheng, N. Dupin, H. Zhou,
          C. Tang, Int. J. Mater. Res., 100, 160-75(2009); Fe-Mn-Ni'
  10Cac  'G. Cacciamani, A. Dinsdale, M. Palumbo, A. Pasturel,
          Intermetallics, 18, 1148-62(2010); Fe-Ni'
  23Zha  'Z.-T. Zhang, J.-J. Wang, W. Liu, X.-G. Lu,
          J. Iron Steel Res. Int., 30, 660-76(2023); Fe-Ni'
!
