$
$ Database for Ag-Os from I. Karakaya and W.T. Thompson 1986.
$ (included in LB Vol. 1).
$
$ I. Karakaya, W.T. Thompson, Bull. Alloy Phase Diag., 7, 360-62(1986).
$
$ Dataset created 2011.04.08 by Bengt Hallstedt.
$ 2020.12.20: Modified for use with GES6.
$ 2021.10.09: Reassigned to 86Kar instead of 98Spe.
$
$ The eutectic is at 1234.4 K instead of 1234.6 K.
$
$ ------------------------------------------------------------------------------
 TEMP-LIM 298.15 6000.00 !
$
$ELEMENT NAME  REF. STATE               ATOMIC MASS H298-H0    S298    !
$
 ELEMENT VA   VACUUM                      0.0          0.0      0.0    ! 
 ELEMENT AG   FCC_A1                    107.8682    5745.      42.55   ! 
 ELEMENT OS   HCP_A3                    190.20         0.      32.6352 ! 
$ ------------------------------------------------------------------------------
$ Phase definitions
$
 PHASE LIQUID:L % 1 1 !
 CONST LIQUID:L : AG OS : !
$
$ Fcc (cF4, Fm-3m) and MeX (cF8, Fm-3m)
$
 PHASE FCC_A1 %A 2 1 1 !
 CONST FCC_A1 : AG% OS : VA : !
$
$ Bcc (cI2, Im-3m)
$
 PHASE BCC_A2 %B 2 1 3 !
 CONST BCC_A2 : AG OS : VA : !
$
$ Hcp (hP2, P6_3/mmc) and Me2X (NiAs-type, hP4, P6_3/mmc, B8_1)
$
 PHASE HCP_A3 %A 2 1 0.5 !
 CONST HCP_A3 : AG OS% : VA : !
$ ------------------------------------------------------------------------------
$ Defaults
$
 DEFINE-SYSTEM-DEFAULT ELEMENT 2 !
 DEFAULT-COM DEFINE_SYSTEM_ELEMENT VA !
 TYPE-DEF % SEQ * !
 TYPE-DEF A GES AMEND_PHASE_DESCRIPTION @ MAGNETIC -3 0.28 !
 TYPE-DEF B GES AMEND_PHASE_DESCRIPTION @ MAGNETIC -1 0.4 !
 FUNCTION ZERO      298.15  0;                                         6000 N !
 FUNCTION UN_ASS    298.15  0;                                         6000 N !
 FUNCTION R         298.15  +8.31451;                                  6000 N !
$ ------------------------------------------------------------------------------
$ Element data
$ ------------------------------------------------------------------------------
$ Ag
$
$ CUB_A13 added in unary 3.0
$ CUB_A13 revised in unary 4.1
$ BCT_A5 added in unary 4.1
$
 PAR  G(FCC_A1,AG:VA),,                 +GHSERAG;                3000 N 91Din !
 PAR  G(HCP_A3,AG:VA),,                 +GHSERAG+300+0.3*T;      3000 N 91Din !
 PAR  G(BCC_A2,AG:VA),,                 +GHSERAG+3400-1.05*T;    3000 N 91Din !
$PAR  G(CUB_A13,AG:VA),,                +GHSERAG+3400-1.05*T;    3000 N 95Lim !
$PAR  G(CUB_A13,AG:VA),,                +GHSERAG
$            +3765.6-1.8826*T;                                   3000 N 96SGUN !
$PAR  G(BCT_A5,AG:VA),,                 +GHSERAG+4184.1;         3000 N 96Oh !
 PAR  G(LIQUID,AG),,                    +GLIQAG;                 3000 N 91Din !
$
 FUNCTION GHSERAG   298.15  -7209.512+118.202013*T-23.8463314*T*LN(T)
       -0.001790585*T**2-3.98587E-07*T**3-12011*T**(-1);
      1234.93  Y  -15095.252+190.266404*T-33.472*T*LN(T)+1.411773E+29*T**(-9);
      3000.00  N !
 FUNCTION GLIQAG    298.15  +11025.076-8.89102*T+GHSERAG-1.033905E-20*T**7;
      1234.93  Y  -3587.111+180.964656*T-33.472*T*LN(T);
      3000.00  N !
$ ------------------------------------------------------------------------------
$ Os
$
$ BCC_A2 revised in unary 4.4
$
 PAR  G(HCP_A3,OS:VA),,                 +GHSEROS;                5500 N 91Din !
 PAR  G(FCC_A1,OS:VA),,                 +GHSEROS+13000-2.5*T;    5500 N 91Din !
 PAR  G(BCC_A2,OS:VA),,                 +GHSEROS+27500-4.4*T;    5500 N 01SGUN !
$PAR  G(BCC_A2,OS:VA),,                 +GHSEROS+43500-9*T;      5500 N 91Din !
 PAR  G(LIQUID,OS),,                    +GLIQOS;                 5500 N 91Din !
$
 FUNCTION GHSEROS   298.15  -7196.978+126.369531*T-23.5710242*T*LN(T)
       -0.00190427*T**2;
      3306.00  Y  +644910.07-1935.2137*T+224.998034*T*LN(T)
       -0.042489827*T**2+1.173861E-06*T**3-3.12569031E+08*T**(-1);
      5500.00  N !
 FUNCTION GLIQOS    298.15  +36460.17-8.473743*T+GHSEROS;
      1000.00  Y  +68715.318-198.324341*T+19.9382156*T*LN(T)
       -0.020464464*T**2+1.014279E-06*T**3-6237261*T**(-1);
      3306.00  Y  -15903.192+336.874526*T-50*T*LN(T);
      5500.00  N !
$ ------------------------------------------------------------------------------
$ Binary system
$
$ From from I. Karakaya and W.T. Thompson 1986 (included in LB Vol. 1)
$
$ I. Karakaya, W.T. Thompson, Bull. Alloy Phase Diag., 7, 360-62(1986).
$
$ Checked against LB and paper. Checked at 6000 K.
$
$ The eutectic is at 1234.4 K instead of 1234.6 K.
$
 PAR  L(LIQUID,AG,OS;0),,               +55975;,,                     N 86Kar !
 PAR  L(LIQUID,AG,OS;1),,               -3375;,,                      N 86Kar !
$
 PAR  L(FCC_A1,AG,OS:VA;0),,            +80*T;,,                      N !
 PAR  L(HCP_A3,AG,OS:VA;0),,            +80*T;,,                      N !
$
$ Metastable
$
 PAR  L(BCC_A2,AG,OS:VA;0),,            +80*T;,,                      N !
$ ------------------------------------------------------------------------------
$
 ASSESSED_SYSTEM
  AG-OS(TDB -* +LIQ +FCC_A1 +HCP_A3 
  ;G5 C_S:LIQ/AG MAJ:LIQ/OS ;P3 TMM:300/3500 STP:.3/3000/-1) !
$
$
 LIST-OF-REFERENCE
 NUMBER  SOURCE
  Null   'Unknown source'
  Same   'Same or similar interaction as in the corresponding stable phase'
  COST   'COST 507 database'
  86Kar  'I. Karakaya, W.T. Thompson,
          Bull. Alloy Phase Diag., 7, 360-62(1986); Ag-Os'
  91Din  'A.T. Dinsdale, Calphad, 15, 317-425(1991).'
  95Lim  'S.S. Lim, P.L. Rossiter, J.W. Tibballs, Calphad, 19, 131-41(1995),
          SGTE unary database V.4.1, 1999; Ag'
  96Oh   'C.-S. Oh, J.-H. Shim, B.-J. Lee, D.N. Lee,
          J. Alloys Compounds, 238, 155-66(1996),
          SGTE unary database V.4.1, 1999; Ag'
  96SGUN 'SGTE unary database V.3.0, 1996.'
  01SGUN 'SGTE unary database V.4.4, 2001.'
!
