$
$ Database for Au-Ni from P. Franke 2005
$
$ P. Franke, unpublished work, 2005.
$
$ Dataset created 2010.06.30 by Bengt Hallstedt.
$ 2020.12.22: Modified for use with GES6.
$
$ ------------------------------------------------------------------------------
 TEMP-LIM 298.15 6000.00 !
$
$ELEMENT NAME  REF. STATE               ATOMIC MASS H298-H0    S298    !
$
 ELEMENT VA   VACUUM                      0.0          0.0      0.0    ! 
 ELEMENT AU   FCC_A1                    196.9665    6016.592   47.4884 ! 
 ELEMENT NI   FCC_A1                     58.69      4787.0     29.7955 ! 
$ ------------------------------------------------------------------------------
$ Phase definitions
$
 PHASE LIQUID:L % 1 1 !
 CONST LIQUID:L : AU NI : !
$
$ Fcc (cF4) and MeX (cF8)
$
 PHASE FCC_A1 %A 2 1 1 !
 CONST FCC_A1 : AU% NI% : VA : !
$
$ Bcc (cI2, Im-3m)
$
 PHASE BCC_A2 %B 2 1 3 !
 CONST BCC_A2 : AU NI : VA : !
$
$ Hcp (hP2, P6_3/mmc) and Me2X (NiAs-type, hP4, P6_3/mmc, B8_1)
$
 PHASE HCP_A3 %A 2 1 0.5 !
 CONST HCP_A3 : AU NI : VA : !
$ ------------------------------------------------------------------------------
$ Defaults
$
 DEFINE-SYSTEM-DEFAULT ELEMENT 2 !
 DEFAULT-COM DEFINE_SYSTEM_ELEMENT VA !
 TYPE-DEF % SEQ * !
 TYPE-DEF A GES AMEND_PHASE_DESCRIPTION @ MAGNETIC -3 0.28 !
 TYPE-DEF B GES AMEND_PHASE_DESCRIPTION @ MAGNETIC -1 0.4 !
 FUNCTION ZERO      298.15  0;                                         6000 N !
 FUNCTION UN_ASS    298.15  0;                                         6000 N !
 FUNCTION R         298.15  +8.31451;                                  6000 N !
$ ------------------------------------------------------------------------------
$ Element data
$ ------------------------------------------------------------------------------
$ Au
$
$ DHCP added in unary 5.0
$
$ DHCP replaced by the value from 92Ans in SGSOL 5.0
$
$ The DHCP phase is labelled D0_24 in 03Liu and alpha-prime in 92Ans. The
$ phase is present between the fcc and hcp phases in the Au-Sn and Au-In
$ systems. The value for DHCP from 92Ans was used to model these systems,
$ thus this value must be included in the unary database and not the 04Du
$ value.
$
 PAR  G(FCC_A1,AU:VA),,                 +GHSERAU;                3200 N 91Din !
 PAR  G(HCP_A3,AU:VA),,                 +GHSERAU+240.75+1.6*T;   3200 N 91Din !
 PAR  G(BCC_A2,AU:VA),,                 +GHSERAU+4250-1.1*T;     3200 N 91Din !
$PAR  G(DHCP,AU),,                      +GHSERAU+125+0.79*T;     3200 N 92Ans !
$PAR  G(DHCP,AU),,                      +GHSERAU+5000;           3200 N 04Du !
 PAR  G(LIQUID,AU),,                    +GHSERAU
             +12552-9.385866*T;                                  3200 N 91Din !
$
 FUNCTION GHSERAU   298.15  -6938.856+106.830098*T-22.75455*T*LN(T)
       -0.00385924*T**2+3.79625E-07*T**3-25097*T**(-1);
       929.40  Y  -93586.481+1021.69543*T-155.706745*T*LN(T)
       +0.08756015*T**2-1.1518713E-05*T**3+10637210*T**(-1);
      1337.33  Y  +314067.829-2016.37825*T+263.252259*T*LN(T)
       -0.118216828*T**2+8.923844E-06*T**3-67999832*T**(-1);
      1735.80  Y  -12133.783+165.272524*T-30.9616*T*LN(T);
      3200.00  N !
$ ------------------------------------------------------------------------------
$ Ni
$
$ FCC_A1 and LIQUID modified in unary 5.0 (slight change in upper T interval)
$ BCT_A5 added in unary 5.0
$
 PAR  G(FCC_A1,NI:VA),,                 +GHSERNI;                3000 N 91Din !
 PAR  TC(FCC_A1,NI:VA),,                  633.00;                3000 N 91Din !
 PAR  BM(FCC_A1,NI:VA),,                    0.52;                3000 N 91Din !
 PAR  G(BCC_A2,NI:VA),,                 +GHSERNI
             +8715.084-3.556*T;                                  3000 N 91Din !
 PAR  TC(BCC_A2,NI:VA),,                  575.00;                3000 N 91Din !
 PAR  BM(BCC_A2,NI:VA),,                    0.85;                3000 N 91Din !
 PAR  G(HCP_A3,NI:VA),,                 +GHSERNI+1046+1.255*T;   3000 N 91Din !
 PAR  TC(HCP_A3,NI:VA),,                  633.00;                3000 N 91Din !
 PAR  BM(HCP_A3,NI:VA),,                    0.52;                3000 N 91Din !
$PAR  G(BCT_A5,NI),,                    +GHSERNI+10023-4.556*T;  3000 N 99Gho !
$PAR  G(CBCC_A12,NI:VA),,               +GHSERNI+3556;           3000 N 91Din !
$PAR  G(CUB_A13,NI:VA),,                +GHSERNI+2092;           3000 N 91Din !
 PAR  G(LIQUID,NI),,                    +GLIQNI;                 3000 N 91Din !
$
 FUNCTION GHSERNI   298.15  -5179.159+117.854*T-22.096*T*LN(T)-0.0048407*T**2;
      1728.00  Y  -27840.62+279.134977*T-43.1*T*LN(T)+1.12754E+31*T**(-9);
      3000.00  N !
 FUNCTION GLIQNI    298.15  +16414.686-9.397*T+GHSERNI-3.82318E-21*T**7;
      1728.00  Y  -9549.817+268.597977*T-43.1*T*LN(T);
      3000.00  N !
 FUNCTION GBCCNI    298.15  +GHSERNI+8715.084-3.556*T;                 3000 N !
$ ------------------------------------------------------------------------------
$ Binary system
$
$ P. Franke, unpublished work, 2005.
$
$ Checked against report. Checked at 6000 K.
$
$ P. Franke presumably assessed this system for the LB binary volumes, but
$ the just published version from J. Wang et al. (2005) was adopted instead.
$ The magnetic contribution is probably modelled better by 05Fra.
$
 PAR  L(LIQUID,AU,NI;0),,               +13162-6.27*T;,,              N 05Fra !
 PAR  L(LIQUID,AU,NI;1),,               +789-0.89*T;,,                N 05Fra !
 PAR  L(LIQUID,AU,NI;2),,               -3456+1.87*T;,,               N 05Fra !
$
 PAR  L(FCC_A1,AU,NI:VA;0),,            +26779-8.3*T;,,               N 05Fra !
 PAR  L(FCC_A1,AU,NI:VA;1),,            -5236+1.47*T;,,               N 05Fra !
 PAR  L(FCC_A1,AU,NI:VA;2),,            +1850-0.2*T;,,                N 05Fra !
 PAR  L(FCC_A1,AU,NI:VA;3),,            -724-0.5*T;,,                 N 05Fra !
 PAR  TC(FCC_A1,AU,NI:VA;0),,           -1075;,,                      N 05Fra !
 PAR  TC(FCC_A1,AU,NI:VA;1),,            -685;,,                      N 05Fra !
 PAR  BM(FCC_A1,AU,NI:VA;0),,              -0.883;,,                  N 05Fra !
 PAR  BM(FCC_A1,AU,NI:VA;1),,              -0.563;,,                  N 05Fra !
$
$ Metastable
$
 PAR  L(BCC_A2,AU,NI:VA;0),,            +26779-8.3*T;,,               N Same !
 PAR  L(BCC_A2,AU,NI:VA;1),,            -5236+1.47*T;,,               N Same !
 PAR  L(BCC_A2,AU,NI:VA;2),,            +1850-0.2*T;,,                N Same !
 PAR  L(BCC_A2,AU,NI:VA;3),,            -724-0.5*T;,,                 N Same !
$
 PAR  L(HCP_A3,AU,NI:VA;0),,            +26779-8.3*T;,,               N Same !
 PAR  L(HCP_A3,AU,NI:VA;1),,            -5236+1.47*T;,,               N Same !
 PAR  L(HCP_A3,AU,NI:VA;2),,            +1850-0.2*T;,,                N Same !
 PAR  L(HCP_A3,AU,NI:VA;3),,            -724-0.5*T;,,                 N Same !
$ ------------------------------------------------------------------------------
$
 ASSESSED_SYSTEM
  AU-NI(TDB -* +LIQUID +FCC ;G5 C_S:FCC_A1/NI:VA MAJ:FCC_A1/AU:VA
    ;P3 TMM:300/2300 STP:.6/600/1 STP:.7/1400/1) !
$
$
 LIST-OF-REFERENCE
 NUMBER  SOURCE
  Null   'Unknown source'
  Same   'Same or similar interaction as in the corresponding stable phase'
  COST   'COST 507 database'
  91Din  'A.T. Dinsdale, Calphad, 15, 317-425(1991).'
  92Ans  'I. Ansara, J.-Ph. Nabot, Calphad, 16, 13-18(1992); Au'
  99Gho  'G. Ghosh, Metall. Mater. Trans. A, 30A, 1481-94(1999),
          SGTE unary database V.5.0, 2009; Ni'
  04Du   'Z. Du, C. Guo, D. Lu, J. Alloys Compd., 364, 117-20(2004),
          SGTE unary database V.5.0, 2009; Au'
  05Fra  'P. Franke, unpublished work, 2005; Au-Ni'
!
