$
$ Database for Al-Tl from A.J. McAlister 1989.
$
$ A.J. McAlister, Bull. Alloy Phase Diag., 10, 112-14(1989).
$
$ Dataset created 2021.10.23 by Bengt Hallstedt.
$ 2024.08.29: Added upper T-interval for GHSERTL and GBCCTL.
$
$ Solid solubilities were not modelled.
$
$ ------------------------------------------------------------------------------
 TEMP-LIM 298.15 6000.00 !
$
$ELEMENT NAME  REF. STATE               ATOMIC MASS H298-H0    S298    !
$
 ELEMENT VA   VACUUM                      0.0          0.0      0.0    ! 
 ELEMENT AL   FCC_A1                     26.98154   4540.      28.30   ! 
 ELEMENT TL   HCP_A3                    204.383     6831.97    64.2997 ! 
$ ------------------------------------------------------------------------------
$ Phase definitions
$
 PHASE LIQUID:L % 1 1 !
 CONST LIQUID:L : AL TL : !
$
$ Fcc (cF4, Fm-3m) and MeX (cF8, Fm-3m)
$
 PHASE FCC_A1 %A 2 1 1 !
 CONST FCC_A1 : AL% TL : VA : !
$
$ Bcc (cI2, Im-3m)
$
 PHASE BCC_A2 %B 2 1 3 !
 CONST BCC_A2 : AL TL% : VA : !
$
$ Hcp (hP2, P6_3/mmc) and Me2X (NiAs-type, hP4, P6_3/mmc, B8_1)
$
 PHASE HCP_A3 %A 2 1 0.5 !
 CONST HCP_A3 : AL TL% : VA : !
$ ------------------------------------------------------------------------------
$ Defaults
$
 DEFINE-SYSTEM-DEFAULT ELEMENT 2 !
 DEFAULT-COM DEFINE_SYSTEM_ELEMENT VA !
 TYPE-DEF % SEQ * !
 TYPE-DEF A GES AMEND_PHASE_DESCRIPTION @ MAGNETIC -3 0.28 !
 TYPE-DEF B GES AMEND_PHASE_DESCRIPTION @ MAGNETIC -1 0.4 !
 FUNCTION ZERO      298.15  0;                                         6000 N !
 FUNCTION UN_ASS    298.15  0;                                         6000 N !
 FUNCTION R         298.15  +8.31451;                                  6000 N !
$ ------------------------------------------------------------------------------
$ Element data
$ ------------------------------------------------------------------------------
$ Al
$
$ BCT_A5 and DIAMOND_A4 added in unary 3.0
$
 PAR  G(FCC_A1,AL:VA),,                 +GHSERAL;                2900 N 91Din !
 PAR  G(BCC_A2,AL:VA),,                 +GHSERAL+10083-4.813*T;  2900 N 91Din !
 PAR  G(HCP_A3,AL:VA),,                 +GHSERAL+5481-1.8*T;     2900 N 91Din !
$PAR  G(CBCC_A12,AL:VA),,               +GHSERAL
$            +10083.4-4.813*T;                                   2900 N 91Din !
$PAR  G(CUB_A13,AL:VA),,                +GHSERAL
$            +10920.44-4.8116*T;                                 2900 N 91Din !
$PAR  G(BCT_A5,AL),,                    +GHSERAL+10083-4.813*T;  2900 N SGCOST !
$PAR  G(DIAMOND_A4,AL),,                +GHSERAL+30*T;           2900 N SGCOST !
 PAR  G(LIQUID,AL),,                    +GLIQAL;                 2900 N 91Din !
$
 FUNCTION GHSERAL   298.15  -7976.15+137.093038*T-24.3671976*T*LN(T)
       -0.001884662*T**2-8.77664E-07*T**3+74092*T**(-1);
       700.00  Y  -11276.24+223.048446*T-38.5844296*T*LN(T)
       +0.018531982*T**2 -5.764227E-06*T**3+74092*T**(-1);
       933.47  Y  -11278.361+188.684136*T-31.748192*T*LN(T)
       -1.230622E+28*T**(-9);
      2900.00  N !
 FUNCTION GLIQAL    298.15  +11005.045-11.84185*T+GHSERAL+7.9337E-20*T**7;
       933.47  Y  -795.991+177.430209*T-31.748192*T*LN(T);
      2900.00  N !
$ ------------------------------------------------------------------------------
$ Tl
$
$ Upper T-interval for GHSERTL and GBCCTL added in Version 5.0
$
 PAR  G(HCP_A3,TL:VA)           200.00  +GHSERTL;                1801 N 91Din !
 PAR  G(BCC_A2,TL:VA)           200.00  +GBCCTL;                 1801 N 91Din !
 PAR  G(FCC_A1,TL:VA)           200.00  +GHSERTL+310;            1801 N 91Din !
 PAR  G(LIQUID,TL)              200.00  +GLIQTL;                 1801 N 91Din !
$
 FUNCTION GHSERTL   200.00  -8104.038+107.140405*T-25.2274*T*LN(T)
       -0.0033063*T**2-1.21807E-07*T**3+42058*T**(-1);
       577.00  Y  -15406.859+196.771926*T-38.4130658*T*LN(T)
       +0.005228106*T**2-5.19136E-07*T**3+729665*T**(-1);
      1800.00  Y  -4885.034+106.361006*T-25.8437*T*LN(T)
       -8.3662E-04*T**2+9E-12*T**3-612570*T**(-1);
      1801.00  N !
 FUNCTION GBCCTL    200.00  -9194.493+150.019517*T-33.0508*T*LN(T)
       +0.0172318*T**2-1.0115933E-05*T**3+82153*T**(-1);
       577.00  Y  -41836.403+482.633817*T-79.2926704*T*LN(T)
       +0.026042993*T**2-2.359101E-06*T**3+3507810*T**(-1);
      1800.00  Y  -623.343+101.120182*T-25.8437*T*LN(T)
       -8.3662E-04*T**2+9E-12*T**3-612570*T**(-1);
      1801.00  N !
 FUNCTION GLIQTL    200.00  -946.623+0.755649*T-7.44455*T*LN(T)
       -0.044350292*T**2+1.4248046E-05*T**3-54228*T**(-1);
       577.00  Y  -614.74+98.472609*T-25.8437*T*LN(T)
       -8.3662E-04*T**2+9E-12*T**3-612570*T**(-1);
      1801.00  N !
$ ------------------------------------------------------------------------------
$ Binary system
$
$ A.J. McAlister, Bull. Alloy Phase Diag., 10, 112-14(1989).
$
$ Checked against paper. Checked at 6000 K.
$
$ Solid solubilities were not modelled.
$
 PAR  L(LIQUID,AL,TL;0),,               +60778.8-17.6404*T;,,         N 89McA !
 PAR  L(LIQUID,AL,TL;1),,               +13937-8.9266*T;,,            N 89McA !
$
 PAR  L(FCC_A1,AL,TL:VA;0),,            +100000;,,                    N !
 PAR  L(BCC_A2,AL,TL:VA;0),,            +100000;,,                    N !
 PAR  L(HCP_A3,AL,TL:VA;0),,            +100000;,,                    N !
$ ------------------------------------------------------------------------------
$
$
 LIST-OF-REFERENCE
 NUMBER  SOURCE
  Null   'Unknown source'
  Same   'Same or similar interaction as in the corresponding stable phase'
  COST   'COST 507 database'
  SGCOST 'COST 507 database, SGTE unary database V.3.0, 1996; Al, B, Nd, Ti, Zn'
  89McA  'A.J. McAlister, Bull. Alloy Phase Diag., 10, 112-14(1989); Al-Tl'
  91Din  'A.T. Dinsdale, Calphad, 15, 317-425(1991).'
!
