$
$ Database for In-Te from C.-S. Oh and D.N. Lee 1993
$
$ C.-S. Oh, D.N. Lee, Calphad, 17, 175-87(1993).
$
$ Dataset created 2017.03.25 by Bengt Hallstedt.
$ 2021.01.17: Modified for use with GES6.
$ 2021.09.05: ION order fixed for GES6.
$
$ Old unary data for Te are used. In order to use current data reoptimization
$ is necessary.
$
$ Compounds are described with constant heat capacties.
$
$ Incorrect reference for G(ION,IN+3:TE-2) in the paper.
$
$ ------------------------------------------------------------------------------
 TEMP-LIM 298.15 6000.00 !
$
$ELEMENT NAME  REF. STATE               ATOMIC MASS H298-H0    S298    !
$
 ELEMENT /-   ELECTRON_GAS                0.0          0.0      0.0    ! 
 ELEMENT VA   VACUUM                      0.0          0.0      0.0    ! 
 ELEMENT IN   TETRAGONAL_A6             114.82      6610.0     57.65   ! 
 ELEMENT TE   HEXAGONAL_A8              127.60      6080.      49.221  ! 
$ ------------------------------------------------------------------------------
$ Species
$
 SPECIE  IN+3                               IN/+3 !
 SPECIE  TE-2                               TE/-2 !
$ ------------------------------------------------------------------------------
$ Phase definitions
$
 PHASE ION:Y % 2 1 1 !
 CONST ION:Y : IN+3 : TE-2 VA TE : !
$
$ Fcc (cF4, Fm-3m) and MeX (cF8, Fm-3m)
$
 PHASE FCC_A1 %A 2 1 1 !
 CONST FCC_A1 : IN : VA : !
$
$ Bcc (cI2, Im-3m)
$
 PHASE BCC_A2 %B 2 1 3 !
 CONST BCC_A2 : IN : VA : !
$
$ Hcp (hP2, P6_3/mmc) and Me2X (NiAs-type, hP4, P6_3/mmc, B8_1)
$
 PHASE HCP_A3 %A 2 1 0.5 !
 CONST HCP_A3 : IN : VA: !
$
$ Prototype In (tI2, I4/mmm)
$
 PHASE TETRAGONAL_A6 % 1 1 !
 CONST TETRAGONAL_A6 : IN : !
$
$ gamma-Se (hP3, P3_121)
$
 PHASE HEXAGONAL_A8 % 1 1 !
 CONST HEXAGONAL_A8 : TE : !
$
$ Prototype In4Se3 (oP28, Pnnm)
$
 PHASE IN9TE7 % 2 9 7 !
 CONST IN9TE7 : IN : TE : !
$
$ Prototype TlSe (tI16, I4/mcm)
$
 PHASE INTE_B37 % 2 1 1 !
 CONST INTE_B37 : IN : TE : !
$
$ Pearson cP*
$
 PHASE IN3TE4 % 2 3 4 !
 CONST IN3TE4 : IN :TE : !
$
$ Prototype In2Te3 (cF180, F-43m)
$
 PHASE IN2TE3_ALPHA % 2 2 3 !
 CONST IN2TE3_ALPHA : IN : TE : !
$
$ Prototype ZnS (cF8, F-43m)
$
 PHASE IN2TE3_B3 % 2 2 3 !
 CONST IN2TE3_B3 : IN% TE : IN TE% : !
$
$ Unknown structure
$
 PHASE IN3TE5 % 2 3 5 !
 CONST IN3TE5 : IN :TE : !
$
$ Prototype In2Te5 (mC84, C2/c)
$
 PHASE IN2TE5 % 2 2 5 !
 CONST IN2TE5 : IN : TE : !
$ ------------------------------------------------------------------------------
$ Defaults
$
 DEFINE-SYSTEM-DEFAULT ELEMENT 2 !
 DEFAULT-COM DEFINE_SYSTEM_ELEMENT VA /- !
 TYPE-DEF % SEQ * !
 TYPE-DEF A GES AMEND_PHASE_DESCRIPTION @ MAGNETIC -3 0.28 !
 TYPE-DEF B GES AMEND_PHASE_DESCRIPTION @ MAGNETIC -1 0.4 !
 FUNCTION ZERO      298.15  0;                                         6000 N !
 FUNCTION UN_ASS    298.15  0;                                         6000 N !
 FUNCTION R         298.15  +8.31451;                                  6000 N !
$ ------------------------------------------------------------------------------
$ Element data
$ ------------------------------------------------------------------------------
$ In
$
$ FCC_A1 and TET_ALPHA1 revised in unary 4.1
$ BCT_A5 and RHOMBOHEDRAL_A7 added in unary 4.1
$ TET_ALPHA1 revised in unary 5.0 (using the value from 99Ans)
$ DHCP added in unary 5.0
$
$ There is quite a bit of confusion about TET_ALPHA1_A6. The structure is
$ the same as In (TETRAGONAL_A6), but with a different (presumably) c/a ratio.
$ TET_ALPHA1_A6 is present in Bi-In, In-Pb and In-Sn (possibly more). Between
$ the TETRAGONAL_A6 (In-ss) and TET_ALPHA1_A6 there is a narrow two-phase
$ region. In each system a different G(TET_ALPHA1_A6,IN) lattice stability
$ was used.
$ In 91Din a value from an unpublished revision of the Bi-In system by
$ P.-Y. Chevalier 1990 is included. In SGTE Unary V 4.4 a value from 98Boa
$ for the In-Pb system is included. 98Boa treated the TET_ALPHA1_A6
$ phase in Bi-In and In-Pb as two different phases and used the lattice
$ stability from 88Che0 for the Bi-In branch of this phase. Finally, SGTE
$ unary V 5.0 uses a value from an unpublished evaluation by 99Ans of the
$ In-Sn system. Due to the close proximity of the TETRAGONAL_A6 and
$ TET_ALPHA1_A6 phases in these systems, any change of lattice stability
$ will cause a distortion of the phase diagram and require reoptimisation.
$
$ The DHCP phase is labelled D0_24 in 03Liu and alpha-prime in 92Ans. The
$ phase is present between the fcc and hcp phases in the Au-Sn and Au-In
$ systems.
$
 PAR  G(TETRAGONAL_A6,IN),,             +GHSERIN;                3800 N 91Din !
 PAR  G(FCC_A1,IN:VA),,                 +GHSERIN+162.061;        3800 N 98Boa !
$PAR  G(FCC_A1,IN:VA),,                 +GHSERIN+123-0.1988*T;   3800 N 91Din !
 PAR  G(BCC_A2,IN:VA),,                 +GHSERIN+800-0.8*T;      3800 N 91Din !
 PAR  G(HCP_A3,IN:VA),,                 +GHSERIN+533-0.6868*T;   3800 N 91Din !
$PAR  G(DHCP,IN),,                      +GHSERIN+520-0.384*T;    3800 N 92Ans !
$PAR  G(TET_ALPHA1_A6,IN),,             +GHSERIN+123-0.1988*T;   3800 N 99Ans !
$PAR  G(TET_ALPHA1_A6,IN),,             +GHSERIN+0.31*T;         3800 N 98Boa !
$PAR  G(TET_ALPHA1_A6,IN),,             +GHSERIN+193-0.16479*T;  3800 N 91Din !
$PAR  G(TET_ALPHA1_A6,IN),,             +GHSERIN-33+0.16*T;      3800 N 88Che0 !
$PAR  G(BCT_A5,IN),,                    +GHSERIN
$            +5040.87-3.33969*T;                                 3800 N 99Ans !
$PAR  G(RHOMBOHEDRAL_A7,IN),,           +GHSERIN+4184;           3800 N 88Che0 !
$PAR  G(LIQUID,IN),,                    +GLIQIN;                 3800 N 91Din !
$
 PAR  G(ION,IN+3:VA),,                  +GLIQIN;                 3800 N 91Din !
$
 PAR  G(IN2TE3_B3,IN:IN),,              +5*GHSERIN+30000-35*T;,,      N 93Oh !
$
 FUNCTION GHSERIN   298.15  -6978.89+92.338115*T-21.8386*T*LN(T)
       -0.00572566*T**2-2.120321E-06*T**3-22906*T**(-1);
       429.75  Y  -7033.516+124.476588*T-27.4562*T*LN(T)
       +5.4607E-04*T**2-8.367E-08*T**3-211708*T**(-1)+3.53116E+22*T**(-9);
      3800.00  N !
 FUNCTION GLIQIN    298.15  +3282.092-7.63686*T+GHSERIN-5.59058E-20*T**7;
       429.75  Y  +3283.706-7.640804*T+GHSERIN-3.53116E+22*T**(-9);
      3800.00  N !
$ ------------------------------------------------------------------------------
$ Te
$
$ HEXAGONAL_A8 and LIQUID revised in unary 3.0
$
$ Old unary data!
$
 PAR  G(HEXAGONAL_A8,TE),,              +GHSERTE;                1600 N 91Din !
$PAR  G(LIQUID,TE),,                    +GLIQTE;                 1600 N 91Din !
$
 PAR  G(ION,TE),,                       +GLIQTE;                 1600 N 91Din !
$
 PAR  G(IN2TE3_B3,TE:TE),,              +5*GHSERTE+70000-74*T;,,      N 93Oh !
$
 FUNCTION GHSERTE   298.15  -6677.083+85.019049*T-19.1003366*T*LN(T)
       -0.011050509*T**2;
       722.66  Y  -14523.024+210.012403*T-37.656*T*LN(T)
       +1.115357E+27*T**(-9);
      1261.00  N !
 FUNCTION GLIQTE    298.15  +17222.341-23.770344*T+GHSERTE
       -4.31979E-19*T**7;
       722.66  Y  +3173.591+185.552954*T-37.656*T*LN(T);
      1261.00  N !
$ ------------------------------------------------------------------------------
$ Binary system
$
$ C.-S. Oh, D.N. Lee, Calphad, 17, 175-87(1993).
$
$ Checked against paper. Checked at 6000 K.
$
$ Old unary data for Te are used. In order to use current data reoptimization
$ is necessary.
$
$ Compounds are described with constant heat capacties.
$
$ Incorrect reference for G(ION,IN+3:TE-2) in the paper.
$
 PAR  G(ION,IN+3:TE-2),,                +2*GLIQIN+3*GLIQTE
             -229487.1+123.6711*T;,,                                  N 93Oh !
 PAR  L(ION,IN+3:TE-2,VA;0),,           +67324.5-166.942*T;,,         N 93Oh !
 PAR  L(ION,IN+3:TE-2,VA;1),,           -12456.3-71.4215*T;,,         N 93Oh !
 PAR  L(ION,IN+3:TE-2,TE;0),,           +60371.7-68.0456*T;,,         N 93Oh !
 PAR  L(ION,IN+3:TE-2,TE;1),,           -7879.5-12.5464*T;,,          N 93Oh !
$
 PAR  G(IN9TE7,IN:TE),,                 -611748.6+2246.1007*T
             -462.8755*T*LN(T);,,                                     N 93Oh !
 PAR  G(INTE_B37,IN:TE),,               -83721.3+259.3945*T
             -54.4633*T*LN(T);,,                                      N 93Oh !
 PAR  G(IN3TE4,IN:TE),,                 -313238.2+818.9322*T
             -172.3103*T*LN(T);,,                                     N 93Oh !
 PAR  G(IN2TE3_ALPHA,IN:TE),,           -242752.7+837.2343*T
             -156.1589*T*LN(T);,,                                     N 93Oh !
$
 PAR  G(IN2TE3_B3,IN:TE),,              -199399.9+665.702*T
             -138.0467*T*LN(T);,,                                     N 93Oh !
 PAR  L(IN2TE3_B3,IN,TE:TE;0),,         -5000;,,                      N 93Oh !
 PAR  L(IN2TE3_B3,IN:IN,TE;0),,         -20000;,,                     N 93Oh !
 PAR  L(IN2TE3_B3,IN:IN,TE;1),,         -95000;,,                     N 93Oh !
$
 PAR  G(IN3TE5,IN:TE),,                 -421488.6+1979.6437*T
             -336.9218*T*LN(T);,,                                     N 93Oh !
 PAR  G(IN2TE5,IN:TE),,                 -335196.4+2074.5225*T
             -343.2248*T*LN(T);,,                                     N 93Oh !
$ ------------------------------------------------------------------------------
$
$
 LIST-OF-REFERENCE
 NUMBER  SOURCE
  Null   'Unknown source'
  Same   'Same or similar interaction as in the corresponding stable phase'
  COST   'COST 507 database'
  88Che0 'P.-Y Chevalier, Calphad, 12, 383-92(1988)
          SGTE unary database V.4.1, 1999; In'
  91Din  'A.T. Dinsdale, Calphad, 15, 317-425(1991).'
  92Ans  'I. Ansara, J.-Ph. Nabot, Calphad, 16, 13-18(1992),
          SGTE unary database V.5.0, 2009; In'
  93Oh   'C.-S. Oh, D.N. Lee, Calphad, 17, 175-87(1993); In-Te'
  95Dav  'A.V. Davydov, M.H. Rand, B.B. Argent, Calphad, 19, 375-87(1995),
          SGTE unary database V.3.0, 1996; Te'
  98Boa  'D. Boa, I. Ansara, Thermochim. Acta, 314, 79-86(1998),
          SGTE unary database V.4.1, 1999; In, Pb'
  99Ans  'I. Ansara, S.G. Fries, H.L. Lukas, unpublished, 1999,
          SGTE unary database V.5.0, 2009; In, Sn, In-Sn'
!
