$
$ Database for Bi-Tl from H.L. Lukas 2003 (included in LB Vol. 2)
$
$ H.L. Lukas, unpublished work, 2003.
$
$ Dataset created 2015.03.15 by Bengt Hallstedt.
$ 2020.12.25: Modified for use with GES6.
$ 2023.02.24: Unary Bi changed from V4.4 to V5.0.
$ 2024.08.29: Added upper T-interval for GHSERTL and GBCCTL.
$
$ ------------------------------------------------------------------------------
 TEMP-LIM 298.15 6000.00 !
$
$ELEMENT NAME  REF. STATE               ATOMIC MASS H298-H0    S298    !
$
 ELEMENT VA   VACUUM                      0.0          0.0      0.0    ! 
 ELEMENT BI   RHOMBOHEDRAL_A7           208.98      6426.6     56.735  !
 ELEMENT TL   HCP_A3                    204.383     6831.97    64.2997 ! 
$ ------------------------------------------------------------------------------
$ Phase definitions
$
 PHASE LIQUID:L % 1 1 !
 CONST LIQUID:L : BI TL : !
$
$ Fcc (cF4, Fm-3m) and MeX (cF8, Fm-3m)
$
 PHASE FCC_A1 %A 2 1 1 !
 CONST FCC_A1 : BI TL : VA : !
$
$ Bcc (cI2, Im-3m)
$
 PHASE BCC_A2 %B 2 1 3 !
 CONST BCC_A2 : BI TL : VA : !
$
$ Hcp (hP2, P6_3/mmc) and Me2X (NiAs-type, hP4, P6_3/mmc, B8_1)
$
 PHASE HCP_A3 %A 2 1 0.5 !
 CONST HCP_A3 : BI TL : VA: !
$
$ Prototype alpha-As (hR2, R-3m)
$
 PHASE RHOMBOHEDRAL_A7 % 1 1 !
 CONST RHOMBOHEDRAL_A7 : BI : !
$
$ Prototype AlB2 (hP3, P6/mmm)
$
 PHASE BI2TL_C32 % 1 1 !
 CONST BI2TL_C32 : BI TL : !
$ ------------------------------------------------------------------------------
$ Defaults
$
 DEFINE-SYSTEM-DEFAULT ELEMENT 2 !
 DEFAULT-COM DEFINE_SYSTEM_ELEMENT VA !
 TYPE-DEF % SEQ * !
 TYPE-DEF A GES AMEND_PHASE_DESCRIPTION @ MAGNETIC -3 0.28 !
 TYPE-DEF B GES AMEND_PHASE_DESCRIPTION @ MAGNETIC -1 0.4 !
 FUNCTION ZERO      298.15  0;                                         6000 N !
 FUNCTION UN_ASS    298.15  0;                                         6000 N !
 FUNCTION R         298.15  +8.31451;                                  6000 N !
$ ------------------------------------------------------------------------------
$ Element data
$ ------------------------------------------------------------------------------
$ Bi
$
$ RHOMBOHEDRAL_A7 and LIQUID modified in unary 5.0
$ DIAMOND_A4 added in unary 5.0
$
 PAR  G(RHOMBOHEDRAL_A7,BI),,           +GHSERBI;                3000 N 09SGUN !
 PAR  G(FCC_A1,BI:VA),,                 +GHSERBI+9900-12.5*T;    3000 N 91Din !
 PAR  G(BCC_A2,BI:VA),,                 +GHSERBI+11297-13.9*T;   3000 N 91Din !
 PAR  G(HCP_A3,BI:VA),,                 +GHSERBI+9900-11.8*T;    3000 N 91Din !
$PAR  G(DIAMOND_A4,BI),,                +GHSERBI
$            +11296.8+9.253655*T;                                3000 N 88Che2 !
$PAR  G(BCT_A5,BI),,                    +GHSERBI+4184.07;        3000 N 91Din !
$PAR  G(TETRAGONAL_A6,BI),,             +GHSERBI+4184.07;        3000 N 91Din !
$PAR  G(TET_ALPHA1_A6,BI),,             +GHSERBI+4234;           3000 N 91Din !
 PAR  G(LIQUID,BI),,                    +GLIQBI;                 3000 N 09SGUN ! 
$
 PAR  G(BI2TL_C32,BI),,                 +GHSERBI+9900-11.8*T;    3000 N 03Luk !
$
 FUNCTION GHSERBI   298.15  -7817.776+128.418925*T-28.4096529*T*LN(T)
       +0.012338888*T**2-8.381598E-6*T**3;
       544.55  Y  +29293.369-379.605174*T+49.678*T*LN(T)
       -0.0730245*T**2+1.3052833E-5*T**3-3544705*T**(-1)+1.66309E+25*T**(-9);
       800.00  Y  -11085.609+182.955328*T-36.041*T*LN(T)
       +7.4641E-3*T**2-1.05047E-6*T**3+5175*T**(-1)+1.66309E+25*T**(-9);
      1200.00  Y  -7580.864+124.770814*T-27.196*T*LN(T)+1.66309E+25*T**(-9);
      3000.00  N !
 FUNCTION GLIQBI    298.15  +11246.017-20.636399*T+GHSERBI-5.9608E-19*T**7;
       544.55  Y  +40629.667-400.415652*T+49.678*T*LN(T)
       -0.0730245*T**2+1.3052833E-5*T**3-3544705*T**(-1);
       800.00  Y  +250.689+162.14485*T-36.041*T*LN(T)
       +0.0074641*T**2-1.05047E-6*T**3+5175*T**(-1);
      1200.00  Y  +3755.434+103.960336*T-27.196*T*LN(T);
      3000.00 N !
$ ------------------------------------------------------------------------------
$ Tl
$
$ Upper T-interval for GHSERTL and GBCCTL added in Version 5.0
$
 PAR  G(HCP_A3,TL:VA)           200.00  +GHSERTL;                1801 N 91Din !
 PAR  G(BCC_A2,TL:VA)           200.00  +GBCCTL;                 1801 N 91Din !
 PAR  G(FCC_A1,TL:VA)           200.00  +GHSERTL+310;            1801 N 91Din !
 PAR  G(LIQUID,TL)              200.00  +GLIQTL;                 1801 N 91Din !
$
 PAR  G(BI2TL_C32,TL)           200.00  +GHSERTL+700;            1801 N 03Luk !
$
 FUNCTION GHSERTL   200.00  -8104.038+107.140405*T-25.2274*T*LN(T)
       -0.0033063*T**2-1.21807E-07*T**3+42058*T**(-1);
       577.00  Y  -15406.859+196.771926*T-38.4130658*T*LN(T)
       +0.005228106*T**2-5.19136E-07*T**3+729665*T**(-1);
      1800.00  Y  -4885.034+106.361006*T-25.8437*T*LN(T)
       -8.3662E-04*T**2+9E-12*T**3-612570*T**(-1);
      1801.00  N !
 FUNCTION GBCCTL    200.00  -9194.493+150.019517*T-33.0508*T*LN(T)
       +0.0172318*T**2-1.0115933E-05*T**3+82153*T**(-1);
       577.00  Y  -41836.403+482.633817*T-79.2926704*T*LN(T)
       +0.026042993*T**2-2.359101E-06*T**3+3507810*T**(-1);
      1800.00  Y  -623.343+101.120182*T-25.8437*T*LN(T)
       -8.3662E-04*T**2+9E-12*T**3-612570*T**(-1);
      1801.00  N !
 FUNCTION GLIQTL    200.00  -946.623+0.755649*T-7.44455*T*LN(T)
       -0.044350292*T**2+1.4248046E-05*T**3-54228*T**(-1);
       577.00  Y  -614.74+98.472609*T-25.8437*T*LN(T)
       -8.3662E-04*T**2+9E-12*T**3-612570*T**(-1);
      1801.00  N !
$ ------------------------------------------------------------------------------
$ Binary system
$
$ From H.L. Lukas 2003 (included in LB Vol. 2)
$
$ H.L. Lukas, unpublished work, 2003.
$
$ Checked against LB. Checked at 6000 K.
$
 PAR  L(LIQUID,BI,TL;0),,               -17012.36+1.05673*T;,,        N 03Luk !
 PAR  L(LIQUID,BI,TL;1),,               +7872.32-4.57524*T;,,         N 03Luk !
 PAR  L(LIQUID,BI,TL;2),,               -3140.06+2.72857*T;,,         N 03Luk !
$
 PAR  L(FCC_A1,BI,TL:VA;0),,            -24196.67+11.17706*T;,,       N 03Luk !
 PAR  L(FCC_A1,BI,TL:VA;1),,            +7718.68-1.92966*T;,,         N 03Luk !
 PAR  L(FCC_A1,BI,TL:VA;2),,            -11201.44+2.80036*T;,,        N 03Luk !
$
 PAR  L(BCC_A2,BI,TL:VA;0),,            -14501.09+3.62527*T;,,        N 03Luk !
 PAR  L(BCC_A2,BI,TL:VA;1),,            +7718.68-1.92966*T;,,         N 03Luk !
 PAR  L(BCC_A2,BI,TL:VA;2),,            -11201.44+2.80036*T;,,        N 03Luk !
$
 PAR  L(HCP_A3,BI,TL:VA;0),,            -14601.64+11.25469*T;,,       N 03Luk !
 PAR  L(HCP_A3,BI,TL:VA;1),,            +7718.68-1.92966*T;,,         N 03Luk !
 PAR  L(HCP_A3,BI,TL:VA;2),,            -11201.44+2.80036*T;,,        N 03Luk !
$
 PAR  L(BI2TL_C32,BI,TL;0),,            -32909.56+25.40663*T;,,       N 03Luk !
 PAR  L(BI2TL_C32,BI,TL;1),,            -13797.26+3.44931*T;,,        N 03Luk !
 PAR  L(BI2TL_C32,BI,TL;2),,            +11940.44-2.98511*T;,,        N 03Luk !
$ ------------------------------------------------------------------------------
$
 ASSESSED_SYSTEM
  BI-TL(TDB -* +LIQ +RHOM_A7 +FCC_A1 +HCP_A3 +BCC_A2 +BI2TL_C32
  ;P3 TMM:300/1000 STP:.99/500) !
$
$
 LIST-OF-REFERENCE
 NUMBER  SOURCE
  Null   'Unknown source'
  Same   'Same or similar interaction as in the corresponding stable phase'
  COST   'COST 507 database'
  88Che2 'P.-Y. Chevalier, Thermochim. Acta, 132, 111-16(1988),
          SGTE unary database V.5.0, 2009; Bi' 
  91Din  'A.T. Dinsdale, Calphad, 15, 317-425(1991).'
  03Luk  'H.L. Lukas, unpublished work, 2003; Bi-Tl'
  09SGUN 'SGTE unary database V.5.0, 2009.'
!
