$
$ Database for Al-Mg from B. Hallstedt and M. Noori 2023.
$
$ B. Hallstedt, M. Noori, Calphad, 82, 102577(2023).
$
$ Dataset created 2023.07.11 by Bengt Hallstedt.
$
$ This is the 05Zho dataset with added metastable C14, C15 and C36 (Laves)
$ and added Al on the first sublattice of Al12Mg17-A12.
$
$ A12 parameters were modified, including better fit to more recent
$ experimental data.
$
$ ------------------------------------------------------------------------------
 TEMP-LIM 298.15 6000.00 !
$
$ELEMENT NAME  REF. STATE               ATOMIC MASS H298-H0    S298    !
$
 ELEMENT VA   VACUUM                      0.0          0.0      0.0    ! 
 ELEMENT AL   FCC_A1                     26.98154   4540.      28.30   ! 
 ELEMENT MG   HCP_A3                     24.305     4998.      32.671  !
$ ------------------------------------------------------------------------------
$ Phase definitions
$
 PHASE LIQUID:L % 1 1 !
 CONST LIQUID:L : AL MG : !
$
$ Fcc (cF4, Fm-3m) and MeX (cF8, Fm-3m)
$
 PHASE FCC_A1 %A 2 1 1 !
 CONST FCC_A1 : AL MG : VA : !
$
$ Bcc (cI2, Im-3m)
$
 PHASE BCC_A2 %B 2 1 3 !
 CONST BCC_A2 : AL MG : VA : !
$
$ Hcp (hP2, P6_3/mmc) and Me2X (NiAs-type, hP4, P6_3/mmc, B8_1)
$
 PHASE HCP_A3 %A 2 1 0.5 !
 CONST HCP_A3 : AL MG : VA : !
$
$ Prototype Al45Mg28 (cF1832, Fd-3m)
$
 PHASE ALMG_BETA % 2 140 89 !
 CONST ALMG_BETA : AL : MG : !
$
$ Prototype Al30Mg23 (hR53, R-3), possibly same as R-(Co,Cr,Mo)
$
 PHASE ALMG_EPS % 2 30 23 !
 CONST ALMG_EPS : AL : MG : !
$
$ Prototype alpha-Mn (cI58, I-43m, also known as ALMG_GAMMA)
$
 PHASE AL12MG17_A12 % 3 5 12 12 !
 CONST AL12MG17_A12 : AL MG% : AL MG% : AL% MG : !
$
$ Prototype MgZn2 (hP12, P6_3/mmc)
$
 PHASE C14_LAVES % 3 1 2 3 !
 CONST C14_LAVES : AL% MG% : AL MG : AL% MG% : !
$
$ Prototype Cu2Mg (cF24, Fd-3m)
$
 PHASE C15_LAVES % 2 2 4 !
 CONST C15_LAVES : AL MG : AL% MG% : !
$
$ Prototype MgNi2 (hP24, P6_3/mmc)
$
 PHASE C36_LAVES % 4 1 1 1 3 !
 CONST C36_LAVES : AL MG : AL MG : AL MG : AL MG : !
$ ------------------------------------------------------------------------------
$ Defaults
$
 DEFINE-SYSTEM-DEFAULT ELEMENT 2 !
 DEFAULT-COM DEFINE_SYSTEM_ELEMENT VA !
 TYPE-DEF % SEQ * !
 TYPE-DEF A GES AMEND_PHASE_DESCRIPTION @ MAGNETIC -3 0.28 !
 TYPE-DEF B GES AMEND_PHASE_DESCRIPTION @ MAGNETIC -1 0.4 !
 FUNCTION ZERO      298.15  0;                                         6000 N !
 FUNCTION UN_ASS    298.15  0;                                         6000 N !
 FUNCTION R         298.15  +8.31451;                                  6000 N !
$ ------------------------------------------------------------------------------
$ Element data
$ ------------------------------------------------------------------------------
$ Al
$
$ BCT_A5 and DIAMOND_A4 added in unary 3.0
$
 PAR  G(FCC_A1,AL:VA),,                 +GHSERAL;                2900 N 91Din !
 PAR  G(BCC_A2,AL:VA),,                 +GHSERAL+10083-4.813*T;  2900 N 91Din !
 PAR  G(HCP_A3,AL:VA),,                 +GHSERAL+5481-1.8*T;     2900 N 91Din !
$PAR  G(CBCC_A12,AL:VA),,               +GHSERAL
$            +10083.4-4.813*T;                                   2900 N 91Din !
$PAR  G(CUB_A13,AL:VA),,                +GHSERAL
$            +10920.44-4.8116*T;                                 2900 N 91Din !
$PAR  G(BCT_A5,AL),,                    +GHSERAL+10083-4.813*T;  2900 N SGCOST !
$PAR  G(DIAMOND_A4,AL),,                +GHSERAL+30*T;           2900 N SGCOST !
 PAR  G(LIQUID,AL),,                    +GLIQAL;                 2900 N 91Din !
$
$PAR  G(AL12MG17_A12,AL:AL:AL),,        +29*GHSERAL+142100;,,         N 06Slu !
 PAR  G(AL12MG17_A12,AL:AL:AL),,        +29*GHSERAL+145725;,,         N 21Noo !
$PAR  G(C14_LAVES,AL:AL:AL),,           +6*GHSERAL+84000;,,           N 06Slu !
 PAR  G(C14_LAVES,AL:AL:AL),,           +6*GHSERAL+84930;,,           N 21Noo !
$PAR  G(C15_LAVES,AL:AL),,              +6*GHSERAL+90600;,,           N 06Slu !
$PAR  G(C15_LAVES,AL:AL),,              +6*GHSERAL+92346+39.166*T;,,  N 05Ozt !
 PAR  G(C15_LAVES,AL:AL),,              +6*GHSERAL+94130;,,           N 21Noo !
$PAR  G(C36_LAVES,AL:AL:AL:AL),,        +6*GHSERAL+87600;,,           N 13Slu !
 PAR  G(C36_LAVES,AL:AL:AL:AL),,        +6*GHSERAL+88968;,,           N 21Noo !
$
 FUNCTION GHSERAL   298.15  -7976.15+137.093038*T-24.3671976*T*LN(T)
       -0.001884662*T**2-8.77664E-07*T**3+74092*T**(-1);
       700.00  Y  -11276.24+223.048446*T-38.5844296*T*LN(T)
       +0.018531982*T**2 -5.764227E-06*T**3+74092*T**(-1);
       933.47  Y  -11278.361+188.684136*T-31.748192*T*LN(T)
       -1.230622E+28*T**(-9);
      2900.00  N !
 FUNCTION GLIQAL    298.15  +11005.045-11.84185*T+GHSERAL+7.9337E-20*T**7;
       933.47  Y  -795.991+177.430209*T-31.748192*T*LN(T);
      2900.00  N !
 FUNCTION GBCCAL    298.15  +GHSERAL+10083-4.813*T;                    2900 N !
$ ------------------------------------------------------------------------------
$ Mg
$
 PAR  G(FCC_A1,MG:VA),,                 +GHSERMG+2600-0.9*T;     3000 N 91Din !
 PAR  G(BCC_A2,MG:VA),,                 +GHSERMG+3100-2.1*T;     3000 N 91Din !
 PAR  G(HCP_A3,MG:VA),,                 +GHSERMG;                3000 N 91Din !
 PAR  G(LIQUID,MG),,                    +GLIQMG;                 3000 N 91Din !
$
$PAR  G(AL12MG17_A12,MG:MG:MG),,        +29*GHSERMG
$            +139371-87.319*T;,,                                      N 05Zho ! 
$PAR  G(AL12MG17_A12,MG:MG:MG),,        +29*GFCCMG+95700;,,           N 06Slu !
$PAR  G(AL12MG17_A12,MG:MG:MG),,        +29*GHSERMG+171100;,,         N 06Slu !
 PAR  G(AL12MG17_A12,MG:MG:MG),,        +29*GHSERMG+126150;,,         N 21Noo !
$PAR  G(C14_LAVES,MG:MG:MG),,           +6*GHSERMG+49260+26.4*T;,,    N 06Zho !
$PAR  G(C14_LAVES,MG:MG:MG),,           +6*GFCCMG+36000;,,            N 06Slu !
$PAR  G(C14_LAVES,MG:MG:MG),,           +6*GHSERMG+51600;,,           N 06Slu !
 PAR  G(C14_LAVES,MG:MG:MG),,           +6*GHSERMG+44508;,,           N 21Noo !
$PAR  G(C15_LAVES,MG:MG),,              +6*GFCCMG+35400;,,            N 06Slu !
$PAR  G(C15_LAVES,MG:MG),,              +6*GHSERMG+51000;,,           N 06Slu !
 PAR  G(C15_LAVES,MG:MG),,              +6*GHSERMG+43291;,,           N 21Noo !
$PAR  G(C36_LAVES,MG:MG:MG:MG),,        +6*GFCCMG+34800;,,            N 13Slu !
$PAR  G(C36_LAVES,MG:MG:MG:MG),,        +6*GHSERMG+50400;,,           N 13Slu !
 PAR  G(C36_LAVES,MG:MG:MG:MG),,        +6*GHSERMG+43542;,,           N 21Noo !
$
 FUNCTION GHSERMG   298.15  -8367.34+143.675547*T-26.1849782*T*LN(T)
       +4.858E-04*T**2-1.393669E-06*T**3+78950*T**(-1);
       923.00  Y  -14130.185+204.716215*T-34.3088*T*LN(T)+1.038192E+28*T**(-9);
      3000.00  N !
 FUNCTION GLIQMG    298.15  +8202.243-8.83693*T+GHSERMG-8.0176E-20*T**7;
       923.00  Y  -5439.869+195.324057*T-34.3088*T*LN(T);
      3000.00  N !
$ ------------------------------------------------------------------------------
$ Binary system
$
$ B. Hallstedt, M. Noori, Calphad, 82, 102577(2023).
$
$ Checked against paper. Checked at 6000 K.
$
$ This is the 05Zho dataset with added metastable C14, C15 and C36 (Laves)
$ and added Al on the first sublattice of Al12Mg17-A12.
$
$ A12 parameters were modified, including better fit to more recent
$ experimental data.
$
 PAR  L(LIQUID,AL,MG;0),,               -9019+4.794*T;,,              N 05Zho !
 PAR  L(LIQUID,AL,MG;1),,               -1093+1.412*T;,,              N 05Zho !
 PAR  L(LIQUID,AL,MG;2),,               +494;,,                       N 05Zho !
$
 PAR  L(FCC_A1,AL,MG:VA;0),,            +1593+2.149*T;,,              N 05Zho !
 PAR  L(FCC_A1,AL,MG:VA;1),,            +1014-0.660*T;,,              N 05Zho !
 PAR  L(FCC_A1,AL,MG:VA;2),,            -673;,,                       N 05Zho !
$
 PAR  L(HCP_A3,AL,MG:VA;0),,            +4336-2.863*T;,,              N 05Zho !
 PAR  L(HCP_A3,AL,MG:VA;1),,            -449-0.135*T;,,               N 05Zho !
 PAR  L(HCP_A3,AL,MG:VA;2),,            -1963;,,                      N 05Zho !
$
 PAR  G(ALMG_BETA,AL:MG),,              +140*GHSERAL+89*GHSERMG
             -803385+105.238*T;,,                                     N 05Zho !
$
 PAR  G(ALMG_EPS,AL:MG),,               +30*GHSERAL+23*GHSERMG
             -173785;,,                                               N 23Hal !
$
 PAR  G(AL12MG17_A12,AL:MG:AL),,        +17*GHSERAL+12*GHSERMG
             +77894;,,                                                N 21Noo !
 PAR  G(AL12MG17_A12,AL:AL:MG),,        +17*GHSERAL+12*GHSERMG
             +372853;,,                                               N 21Noo !
 PAR  G(AL12MG17_A12,AL:MG:MG),,        +5*GHSERAL+24*GHSERMG
             +297308;,,                                               N 21Noo !
 PAR  G(AL12MG17_A12,MG:AL:AL),,        +24*GHSERAL+5*GHSERMG
             +41296;,,                                                N 21Noo !
$PAR  G(AL12MG17_A12,MG:MG:AL),,        +12*GHSERAL+17*GHSERMG
$            -64322;,,                                                N 21Noo !
 PAR  G(AL12MG17_A12,MG:MG:AL),,        +12*GHSERAL+17*GHSERMG
             -106802+42.343*T;,,                                      N 23Hal !
 PAR  G(AL12MG17_A12,MG:AL:MG),,        +12*GHSERAL+17*GHSERMG
             +207843;,,                                               N 21Noo !
 PAR  L(AL12MG17_A12,MG:AL,MG:AL;0),,   -38477;,,                     N 23Hal !
 PAR  L(AL12MG17_A12,MG:MG:AL,MG;0),,   -31355;,,                     N 23Hal !
$
$ Metastable
$
 PAR  L(BCC_A2,AL,MG:VA;0),,            +1593+2.149*T;,,              N Same !
 PAR  L(BCC_A2,AL,MG:VA;1),,            +1014-0.660*T;,,              N Same !
 PAR  L(BCC_A2,AL,MG:VA;2),,            -673;,,                       N Same !
$
 PAR  G(C14_LAVES,AL:AL:MG),,           +3*GHSERAL+3*GHSERMG
             +121530;,,                                               N 21Noo !
 PAR  G(C14_LAVES,AL:MG:AL),,           +4*GHSERAL+2*GHSERMG-7068;,,  N 21Noo !
 PAR  G(C14_LAVES,AL:MG:MG),,           +GHSERAL+5*GHSERMG+29280;,,   N 21Noo !
 PAR  G(C14_LAVES,MG:AL:AL),,           +5*GHSERAL+GHSERMG+102600;,,  N 21Noo !
 PAR  G(C14_LAVES,MG:AL:MG),,           +2*GHSERAL+4*GHSERMG
             +139032;,,                                               N 21Noo !
 PAR  G(C14_LAVES,MG:MG:AL),,           +3*GHSERAL+3*GHSERMG+12804;,, N 21Noo !
$
 PAR  G(C15_LAVES,AL:MG),,              +2*GHSERAL+4*GHSERMG
             +134379;,,                                               N 21Noo !
 PAR  G(C15_LAVES,MG:AL),,              +4*GHSERAL+2*GHSERMG-5705;,,  N 21Noo !
$ 
 PAR  G(C36_LAVES,AL:AL:AL:MG),,        +3*GHSERAL+3*GHSERMG
             +123750;,,                                               N 21Noo !
 PAR  G(C36_LAVES,AL:AL:MG:AL),,        +5*GHSERAL+GHSERMG+106080;,,  N 21Noo !
 PAR  G(C36_LAVES,AL:AL:MG:MG),,        +2*GHSERAL+4*GHSERMG
             +135348;,,                                               N 21Noo !
 PAR  G(C36_LAVES,AL:MG:AL:AL),,        +5*GHSERAL+GHSERMG+39192;,,   N 21Noo !
 PAR  G(C36_LAVES,AL:MG:AL:MG),,        +2*GHSERAL+4*GHSERMG+80934;,, N 21Noo !
 PAR  G(C36_LAVES,AL:MG:MG:AL),,        +4*GHSERAL+2*GHSERMG+59550;,, N 21Noo !
 PAR  G(C36_LAVES,AL:MG:MG:MG),,        +GHSERAL+5*GHSERMG+92058;,,   N 21Noo !
 PAR  G(C36_LAVES,MG:AL:AL:AL),,        +5*GHSERAL+GHSERMG+44022;,,   N 21Noo !
 PAR  G(C36_LAVES,MG:AL:AL:MG),,        +2*GHSERAL+4*GHSERMG+81792;,, N 21Noo !
 PAR  G(C36_LAVES,MG:AL:MG:AL),,        +4*GHSERAL+2*GHSERMG+62814;,, N 21Noo !
 PAR  G(C36_LAVES,MG:AL:MG:MG),,        +GHSERAL+5*GHSERMG+90516;,,   N 21Noo !
 PAR  G(C36_LAVES,MG:MG:AL:AL),,        +4*GHSERAL+2*GHSERMG-7572;,,  N 21Noo !
 PAR  G(C36_LAVES,MG:MG:AL:MG),,        +GHSERAL+5*GHSERMG+34740;,,   N 21Noo !
 PAR  G(C36_LAVES,MG:MG:MG:AL),,        +3*GHSERAL+3*GHSERMG+15402;,, N 21Noo !
$ ------------------------------------------------------------------------------
$
$
 LIST-OF-REFERENCE
 NUMBER  SOURCE
  Null   'Unknown source'
  Same   'Same or similar interaction as in the corresponding stable phase'
  SGCOST 'COST 507 database, SGTE unary database V.3.0, 1996; Al, B, Nd, Ti, Zn'
  91Din  'A.T. Dinsdale, Calphad, 15, 317-425(1991).'
  05Zho  'Y. Zhong, M. Yang, Z.-K. Liu, Calphad, 29, 303-11 (2005); Al-Mg'
  06Slu  'M.H.F. Sluiter, Calphad, 30, 357-66(2006); Endmember values'
  06Zho  'Y. Zhong, K. Ozturk, J.O. Sofo, Z.-K. Liu,
          J. Alloys Compd., 420, 98-106(2006); Ca-Mg'  
  13Slu  'M.H.F. Sluiter, unpublished research (2013); More endmember values'
  21Noo  'M. Noori, Ab initio calculations, 2021; Al-Ca, Al-Mg, Ca-Mg, Al-Ca-Mg'
  23Hal  'B. Hallstedt, M. Noori, Calphad, 82, 102577(2023); Al-Ca, Al-Mg,
          Ca-Mg, Al-Ca-Mg'
!
