$
$ Database for Co-Cu from H. Ohtani et al. 1997.
$
$ H. Ohtani, H. Suda, K. Ishida, ISIJ Int., 37, 207-16(1997).
$
$ Dataset created 2018.02.18 by Bengt Hallstedt.
$ 2020.12.25: Modified for use with GES6.
$
$ Modified from 80Has. There is no visible difference between 80Has and 97Oht.
$
$ The hcp interaction from 97Oht cannot be used. It results in a large
$ hcp phase field.
$
$ ------------------------------------------------------------------------------
 TEMP-LIM 298.15 6000.00 !
$
$ELEMENT NAME  REF. STATE               ATOMIC MASS H298-H0    S298    !
$
 ELEMENT VA   VACUUM                      0.0          0.0      0.0    ! 
 ELEMENT CO   HCP_A3                     58.9332    4765.567   30.0400 ! 
 ELEMENT CU   FCC_A1                     63.546     5004.      33.15   !
$ ------------------------------------------------------------------------------
$ Phase definitions
$
 PHASE LIQUID:L % 1 1 !
 CONST LIQUID:L : CO CU : !
$
$ Fcc (cF4, Fm-3m) and MeX (cF8, Fm-3m)
$
 PHASE FCC_A1 %A 2 1 1 !
 CONST FCC_A1 : CO% CU% : VA : !
$
$ Bcc (cI2, Im-3m)
$
 PHASE BCC_A2 %B 2 1 3 !
 CONST BCC_A2 : CO CU : VA : !
$
$ Hcp (hP2, P6_3/mmc) and Me2X (NiAs-type, hP4, P6_3/mmc, B8_1)
$
 PHASE HCP_A3 %A 2 1 0.5 !
 CONST HCP_A3 : CO% CU : VA : !
$ ------------------------------------------------------------------------------
$ Defaults
$
 DEFINE-SYSTEM-DEFAULT ELEMENT 2 !
 DEFAULT-COM DEFINE_SYSTEM_ELEMENT VA !
 TYPE-DEF % SEQ * !
 TYPE-DEF A GES AMEND_PHASE_DESCRIPTION @ MAGNETIC -3 0.28 !
 TYPE-DEF B GES AMEND_PHASE_DESCRIPTION @ MAGNETIC -1 0.4 !
 FUNCTION ZERO      298.15  0;                                         6000 N !
 FUNCTION UN_ASS    298.15  0;                                         6000 N !
 FUNCTION R         298.15  +8.31451;                                  6000 N !
$ ------------------------------------------------------------------------------
$ Element data
$ ------------------------------------------------------------------------------
$ Co
$
 PAR  G(HCP_A3,CO:VA),,                 +GHSERCO;,,                   N 91Din !
 PAR  TC(HCP_A3,CO:VA),,                 1396.00;,,                   N 91Din !
 PAR  BM(HCP_A3,CO:VA),,                    1.35;,,                   N 91Din !
 PAR  G(FCC_A1,CO:VA),,                 +GHSERCO
             +427.591-0.615248*T;,,                                   N 91Din !
 PAR  TC(FCC_A1,CO:VA),,                 1396.00;,,                   N 91Din !
 PAR  BM(FCC_A1,CO:VA),,                    1.35;,,                   N 91Din !
 PAR  G(BCC_A2,CO:VA),,                 +GHSERCO+2938-0.7138*T;,,     N 91Din !
 PAR  TC(BCC_A2,CO:VA),,                 1450.00;,,                   N 91Din !
 PAR  BM(BCC_A2,CO:VA),,                    1.35;,,                   N 91Din !
$PAR  G(CBCC_A12,CO:VA),,               +GHSERCO+4155;,,              N 91Din !
$PAR  G(CUB_A13,CO:VA),,                +GHSERCO+3155;,,              N 91Din !
 PAR  G(LIQUID,CO),,                    +GLIQCO;,,                    N 91Din !
$
 FUNCTION GHSERCO   298.15  +310.241+133.36601*T-25.0861*T*LN(T)
       -0.002654739*T**2-1.7348E-07*T**3+72527*T**(-1);
      1768.00  Y  -17197.666+253.28374*T-40.5*T*LN(T)+9.3488E+30*T**(-9);
      6000.00  N !
 FUNCTION GLIQCO    298.15  +15085.037-8.931932*T+GHSERCO-2.19801E-21*T**7;
      1768.00  Y  -846.61+243.599944*T-40.5*T*LN(T);
      6000.00  N !
 FUNCTION GFCCCO    298.15  +GHSERCO+427.59-0.615248*T;                6000 N !
 FUNCTION GBCCCO    298.15  +GHSERCO+2938-0.7138*T;                    6000 N !
$ ------------------------------------------------------------------------------
$ Cu
$
 PAR  G(FCC_A1,CU:VA),,                 +GHSERCU;                3200 N 91Din !
 PAR  G(BCC_A2,CU:VA),,                 +GHSERCU+4017-1.255*T;   3200 N 91Din !
 PAR  G(HCP_A3,CU:VA),,                 +GHSERCU+600+0.2*T;      3200 N 91Din !
 PAR  G(LIQUID,CU),,                    +GLIQCU;                 3200 N 91Din !
$
 FUNCTION GHSERCU   298.15  -7770.458+130.485235*T-24.112392*T*LN(T)
       -0.00265684*T**2+1.29223E-07*T**3+52478*T**(-1);
      1357.77  Y  -13542.026+183.803828*T-31.38*T*LN(T)+3.64167E+29*T**(-9);
      3200.00  N !
 FUNCTION GLIQCU    298.15  +12964.735-9.511904*T+GHSERCU-5.8489E-21*T**7;
      1357.77  Y  -46.545+173.881484*T-31.38*T*LN(T);
      3200.00  N !
$ ------------------------------------------------------------------------------
$ Binary system
$
$ H. Ohtani, H. Suda, K. Ishida, ISIJ Int., 37, 207-16(1997).
$
$ Checked against paper. Checked at 6000 K.
$
$ Modified from 80Has. There is no visible difference between 80Has and 97Oht.
$
$ The hcp interaction from 97Oht cannot be used. It results in a large
$ hcp phase field.
$
 PAR  L(LIQUID,CO,CU;0),,               +38810-6.782*T;,,             N 80Has !
 PAR  L(LIQUID,CO,CU;1),,               +3183-3.355*T;,,              N 80Has !
 PAR  L(LIQUID,CO,CU;2),,               +17100-9.66*T;,,              N 80Has !
$
 PAR  L(FCC_A1,CO,CU:VA;0),,            +49400-13.26*T;,,             N 97Oht !
 PAR  L(FCC_A1,CO,CU:VA;1),,            -3675+1.03*T;,,               N 97Oht !
$
 PAR  L(HCP_A3,CO,CU:VA;0),,            +41000;,,                     N 80Has !
$PAR  L(HCP_A3,CO,CU:VA;0),,            +20000;,,                     N 97Oht !
$
$ Metastable
$
 PAR  L(BCC_A2,CO,CU:VA;0),,            +49400-13.26*T;,,             N Same !
 PAR  L(BCC_A2,CO,CU:VA;1),,            -3675+1.03*T;,,               N Same !
$ ------------------------------------------------------------------------------
$
 ASSESSED_SYSTEM
  CO-CU(TDB -* +LIQUID +FCC_A1 +HCP_A3 ;G5 C_S:FCC/CU:VA MAJ:FCC/CO:VA
  ;P3 TMM:300/2300 STP:.8/1500 STP:0.99/1300/2) !
$
$
 LIST-OF-REFERENCE
 NUMBER  SOURCE
  Null   'Unknown source'
  Same   'Same or similar interaction as in the corresponding stable phase'
  COST   'COST 507 database'
  80Has  'M. Haseba, T. Nishizawa, Calphad, 4, 83-100(1980); Co-Cu'
  91Din  'A.T. Dinsdale, Calphad, 15, 317-425(1991).'
  97Oht  'H. Ohtani, H. Suda, K. Ishida, ISIJ Int., 37, 207-16(1997); Co-Cu'
!
