$
$ Database for Ho-Sb from X.J. Liu et al. 2012.
$
$ X.J. Liu, S.X. Gan, Z.S. Li, C.P. Wang, A.T. Tang, F.S. Pan,
$ Calphad, 37, 132-36(2012).
$
$ Dataset created 2018.09.30 by Bengt Hallstedt.
$ 2021.01.17: Modified for use with GES6.
$
$ Invariant equilibria differ by up to 8 K on the Ho-rich side. This is most
$ probably because old data for liquid Ho were used in the paper.
$
$ ------------------------------------------------------------------------------
 TEMP-LIM 298.15 6000.00 !
$
$ELEMENT NAME  REF. STATE               ATOMIC MASS H298-H0    S298    !
$
 ELEMENT VA   VACUUM                      0.0          0.0      0.0    ! 
 ELEMENT HO   HCP_A3                    164.9304    7995.624   75.0191 ! 
 ELEMENT SB   RHOMBOHEDRAL_A7           121.75      5870.152   45.5219 ! 
$ ------------------------------------------------------------------------------
$ Phase definitions
$
 PHASE LIQUID:L % 1 1 !
 CONST LIQUID:L : HO SB : !
$
$ Fcc (cF4, Fm-3m) and MeX (cF8, Fm-3m)
$
 PHASE FCC_A1 %A 2 1 1 !
 CONST FCC_A1 : HO SB : VA : !
$
$ Bcc (cI2, Im-3m)
$
 PHASE BCC_A2 %B 2 1 3 !
 CONST BCC_A2 : HO SB : VA : !
$
$ Hcp (hP2, P6_3/mmc) and Me2X (NiAs-type, hP4, P6_3/mmc, B8_1)
$
 PHASE HCP_A3 %A 2 1 0.5 !
 CONST HCP_A3 : HO% SB : VA : !
$
$ Prototype alpha-As (hR2, R-3m)
$
 PHASE RHOMBOHEDRAL_A7 % 1 1 !
 CONST RHOMBOHEDRAL_A7 : SB : !
$
$ Prototype Mn5Si3 (hP16, P6_3/mcm)
$
 PHASE HO5SB3_D88 % 2 5 3 !
 CONST HO5SB3_D88 : HO : SB : !
$
$ Prototype Th3P4 (cI28, I-43d)
$
 PHASE HO4SB3_D73 % 2 4 3 !
 CONST HO4SB3_D73 : HO : SB : !
$
$ unknown structure 
$
 PHASE HO4SB3_HT % 2 4 3 !
 CONST HO4SB3_HT : HO : SB : !
$
$ Prototype NaCl (cF8, Fm-3m)
$
 PHASE HOSB_B1 % 2 1 1 !
 CONST HOSB_B1 : HO : SB : !
$
$ unknown structure 
$
 PHASE HOSB_HT % 2 1 1 !
 CONST HOSB_HT : HO : SB : !
$
$ Prototype HoSb2 (oC6, C222) 
$
 PHASE HOSB2 % 2 1 2 !
 CONST HOSB2 : HO : SB : !
$ ------------------------------------------------------------------------------
$ Defaults
$
 DEFINE-SYSTEM-DEFAULT ELEMENT 2 !
 DEFAULT-COM DEFINE_SYSTEM_ELEMENT VA !
 TYPE-DEF % SEQ * !
 TYPE-DEF A GES AMEND_PHASE_DESCRIPTION @ MAGNETIC -3 0.28 !
 TYPE-DEF B GES AMEND_PHASE_DESCRIPTION @ MAGNETIC -1 0.4 !
 FUNCTION ZERO      298.15  0;                                         6000 N !
 FUNCTION UN_ASS    298.15  0;                                         6000 N !
 FUNCTION R         298.15  +8.31451;                                  6000 N !
$ ------------------------------------------------------------------------------
$ Element data
$ ------------------------------------------------------------------------------
$ Ho
$
$ BCC_A2 and LIQUID revised in unary 4.4
$ HCP_A3 modified in unary 5.0
$ (upper T interval added + trailing decimals added)
$
$ FCC_A1 from 03Cac and 09Wan not included in unary; 03Cac to be preferred
$
 PAR  G(HCP_A3,HO:VA),,                 +GHSERHO;                3001 N 91Din !
$PAR  G(FCC_A1,HO:VA),,                 +GHSERHO+5000;           3001 N 09Wan1 !
 PAR  G(FCC_A1,HO:VA),,                 +GHSERHO
             +2000-0.831451*T;                                   3001 N 03Cac !
 PAR  G(BCC_A2,HO:VA),,                 +GHSERHO
             +4380-2.494353*T;                                   3001 N 00Nor1 !
 PAR  G(LIQUID,HO),,                    +GLIQHO;                 3001 N 00Nor1 !
$
 FUNCTION GHSERHO   298.15  -7612.429+86.593171*T-23.4879*T*LN(T)
       -0.00827315*T**2+2.375467E-06*T**3;
       600.00  Y  -10917.688+182.475691*T-39.6932*T*LN(T)
       +0.01820065*T**2-4.829733E-06*T**3;
       900.00  Y  +46646.188-421.474473*T+48.0595*T*LN(T)
       -0.0424634*T**2+3.233133E-06*T**3-7185900*T**(-1);
      1200.00  Y  +27786.061-156.162846*T+8.28608*T*LN(T)
       -0.01082725*T**2-1.112352E-06*T**3-6183850*T**(-1);
      1703.00  Y  -825364.662+4248.379056*T-558.9506818*T*LN(T)
       +0.139111904*T**2-6.824652E-06*T**3+2.19952973E+08*T**(-1);
      3000.00  Y  -17149.229+235.898104*T-43.932*T*LN(T);
      3001.00  N !
 FUNCTION GLIQHO    298.15  +17383.4216-9.992194*T+GHSERHO;
      1000.00  Y  +124827.5326-994.683024*T+127.9577778*T*LN(T)
       -0.088196514*T**2+8.008222E-6*T**3-15727191*T**(-1);  
      1703.00  Y  -9688.5314+230.793918*T-43.932*T*LN(T);  
      3001.00  N !
$ ------------------------------------------------------------------------------
$ Sb
$
$ BCT_A5 revised in unary 3.0
$
$ BCT_A5 the value from 91Din is used in LBall-v7+fun.tdb.
$ BCT_A5 the value from 96SGUN is used in SGSOL 5.0.
$ It is only needed in Sb-Sn.
$
 PAR  G(RHOMBOHEDRAL_A7,SB),,           +GHSERSB;                2000 N 91Din !
 PAR  G(FCC_A1,SB:VA),,                 +GHSERSB+19874-13.7*T;   2000 N 91Din !
 PAR  G(BCC_A2,SB:VA),,                 +GHSERSB+19874-15.1*T;   2000 N 91Din !
 PAR  G(HCP_A3,SB:VA),,                 +GHSERSB+19874-13*T;     2000 N 91Din !
$PAR  G(BCT_A5,SB),,                    +GHSERSB+13000-8*T;      2000 N 96SGUN !
$PAR  G(BCT_A5,SB),,                    +GHSERSB+1000;           2000 N 91Din !
 PAR  G(LIQUID,SB),,                    +GLIQSB;                 2000 N 91Din !
$
 FUNCTION GHSERSB   298.15  -9242.858+156.154689*T-30.5130752*T*LN(T)
       +0.007748768*T**2-3.003415E-06*T**3+100625*T**(-1);
       903.78  Y  -11738.83+169.485872*T-31.38*T*LN(T)+1.616849E+27*T**(-9);
      2000.00  N !
 FUNCTION GLIQSB    298.15  +19822.328-21.923164*T+GHSERSB-1.74847E-20*T**7;
       903.78  Y  +8175.359+147.455986*T-31.38*T*LN(T);
      2000.00  N !
$ ------------------------------------------------------------------------------
$ Binary system
$
$ X.J. Liu, S.X. Gan, Z.S. Li, C.P. Wang, A.T. Tang, F.S. Pan,
$ Calphad, 37, 132-36(2012).
$
$ Checked against paper and author's tdb. Checked at 6000 K.
$
$ Invariant equilibria differ by up to 8 K on the Ho-rich side. This is most
$ probably because old data for liquid Ho were used in the paper.
$
 PAR  L(LIQUID,HO,SB;0),,               -254600-21.1*T;,,             N 12Liu !
 PAR  L(LIQUID,HO,SB;1),,               -67800+9.9*T;,,               N 12Liu !
 PAR  L(LIQUID,HO,SB;2),,               +60500;,,                     N 12Liu !
 PAR  L(LIQUID,HO,SB;3),,               +69500;,,                     N 12Liu !
$
 PAR  L(HCP_A3,HO,SB:VA;0),,            +UN_ASS;,,                    N !
$
 PAR  G(HO5SB3_D88,HO:SB),,             +5*GHSERHO+3*GHSERSB
             -850400+51.36*T;,,                                       N 12Liu !
 PAR  G(HO4SB3_D73,HO:SB),,             +4*GHSERHO+3*GHSERSB
             -763581+23.45*T;,,                                       N 12Liu !
 PAR  G(HO4SB3_HT,HO:SB),,              +4*GHSERHO+3*GHSERSB
             -751520+17.08*T;,,                                       N 12Liu !
 PAR  G(HOSB_B1,HO:SB),,                +GHSERHO+GHSERSB
             -252000+13.8*T;,,                                        N 12Liu !
 PAR  G(HOSB_HT,HO:SB),,                +GHSERHO+GHSERSB
             -242140+9.22*T;,,                                        N 12Liu !
 PAR  G(HOSB2,HO:SB),,                  +GHSERHO+2*GHSERSB
             -253140+13.83*T;,,                                       N 12Liu !
$ ------------------------------------------------------------------------------
$
$
 LIST-OF-REFERENCE
 NUMBER  SOURCE
  Null   'Unknown source'
  Same   'Same or similar interaction as in the corresponding stable phase'
  REFLAV 'Laves phase convention: G(LAVES,X:X)=+3*GHSERXX+15000'
  91Din  'A.T. Dinsdale, Calphad, 15, 317-425(1991).'
  96SGUN 'SGTE unary database V.3.0, 1996.'
  00Nor1 'S. Norgren, J. Phase Equilib., 21, 148-56(2000),
          SGTE unary database V.4.4, 2001; Er, Ho'
  03Cac  'G. Cacciamani, S. De Negri, A. Saccone, R. Ferro,
          Intermetallics, 11, 1135-51(2003); Dy, Gd, Ho'
  09Wan1 'C.P. Wang, H.L. Zhang, S.L. Wang, Z. Lin, X.J. Liu, A.T. Tang,
          F.S. Pan, J. Alloys Compd., 481, 291-95(2009); Ho'
  12Liu  'X.J. Liu, S.X. Gan, Z.S. Li, C.P. Wang, A.T. Tang, F.S. Pan,
          Calphad, 37, 132-36(2012); Ho-Sb'
!
