$
$ Database for Sb-P from I. Ansara et al. 1994 (Included in LB Vol. 1)
$
$ I. Ansara, C. Chatillon, H.L. Lukas, T. Nishizawa, H. Ohtani, K. Ishida,
$ M. Hillert, B. Sundman, B.B. Argent, A. Watson, T.G. Chart, T. Anderson,
$ Calphad, 18, 177-222(1994).
$
$ Dataset created 2016.03.20 by Bengt Hallstedt.
$ 2021.02.05: Modified for use with GES6.
$
$ ------------------------------------------------------------------------------
 TEMP-LIM 298.15 6000.00 !
$
$ELEMENT NAME  REF. STATE               ATOMIC MASS H298-H0    S298    !
$
 ELEMENT VA   VACUUM                      0.0          0.0      0.0    ! 
 ELEMENT SB   RHOMBOHEDRAL_A7           121.75      5870.152   45.5219 ! 
 ELEMENT P    WHITE_P                    30.97376   5360.0     41.09   ! 
$ ------------------------------------------------------------------------------
$ Species
$
 SPECIE  P2                                 P2 !
 SPECIE  P3                                 P3 !
 SPECIE  P4                                 P4 !
 SPECIE  SB2                                SB2 !
 SPECIE  SB3                                SB3 !
 SPECIE  SB4                                SB4 !
 SPECIE  SBP                                SB1P1 !
 SPECIE  SBP3                               SB1P3 !
$ ------------------------------------------------------------------------------
$ Phase definitions
$
 PHASE LIQUID:L % 1 1 !
 CONST LIQUID:L : P SB : !
$
$ Fcc (cF4) and MeX (cF8)
$
 PHASE FCC_A1 %A 2 1 1 !
 CONST FCC_A1 : P SB : VA : !
$
$ Bcc (cI2, Im-3m)
$
 PHASE BCC_A2 %B 2 1 3 !
 CONST BCC_A2 : P SB : VA : !
$
$ Hcp (hP2, P6_3/mmc) and Me2X (NiAs-type, hP4, P6_3/mmc, B8_1)
$
 PHASE HCP_A3 %A 2 1 0.5 !
 CONST HCP_A3 : SB : VA : !
$
$ Prototype alpha-As (hR2, R-3m)
$
 PHASE RHOMBOHEDRAL_A7 % 1 1 !
 CONST RHOMBOHEDRAL_A7 : P SB% : !
$
$ Structure not well defined
$
 PHASE WHITE_P % 1 1 !
 CONST WHITE_P : P : !
$
$ Structure not well defined
$
 PHASE RED_P % 1 1 !
 CONST RED_P : P : !
$
 PHASE GAS:G % 1 1 !
 CONST GAS:G : P P2 P3 P4 SB SB2 SB3 SB4 SBP SBP3 : !
$ ------------------------------------------------------------------------------
$ Defaults
$
 DEFINE-SYSTEM-DEFAULT ELEMENT 2 !
 DEFAULT-COM DEFINE_SYSTEM_ELEMENT VA !
 TYPE-DEF % SEQ * !
 TYPE-DEF A GES AMEND_PHASE_DESCRIPTION @ MAGNETIC -3 0.28 !
 TYPE-DEF B GES AMEND_PHASE_DESCRIPTION @ MAGNETIC -1 0.4 !
 FUNCTION ZERO      298.15  0;                                         6000 N !
 FUNCTION UN_ASS    298.15  0;                                         6000 N !
 FUNCTION R         298.15  +8.31451;                                  6000 N !
 FUNCTION RTLNP     298.15  +8.31451*T*LN(1E-05*P);                    6000 N !
$ ------------------------------------------------------------------------------
$ Element data
$ ------------------------------------------------------------------------------
$ Sb
$
$ BCT_A5 revised in unary 3.0
$
$ BCT_A5 the value from 91Din is used in LBall-v7+fun.tdb.
$ BCT_A5 the value from 96SGUN is used in SGSOL 5.0.
$ It is only needed in Sb-Sn.
$
 PAR  G(RHOMBOHEDRAL_A7,SB),,           +GHSERSB;                2000 N 91Din !
 PAR  G(FCC_A1,SB:VA),,                 +GHSERSB+19874-13.7*T;   2000 N 91Din !
 PAR  G(BCC_A2,SB:VA),,                 +GHSERSB+19874-15.1*T;   2000 N 91Din !
 PAR  G(HCP_A3,SB:VA),,                 +GHSERSB+19874-13*T;     2000 N 91Din !
$PAR  G(BCT_A5,SB),,                    +GHSERSB+13000-8*T;      2000 N 96SGUN !
$PAR  G(BCT_A5,SB),,                    +GHSERSB+1000;           2000 N 91Din !
 PAR  G(LIQUID,SB),,                    +GLIQSB;                 2000 N 91Din !
$
 PAR  G(GAS,SB),,                       +SB1G+RTLNP;,,                N 00SUB !
 PAR  G(GAS,SB2),,                      +SB2G+RTLNP;,,                N 00SUB !
 PAR  G(GAS,SB3),,                      +SB3G+RTLNP;,,                N 00SUB !
 PAR  G(GAS,SB4),,                      +SB4G+RTLNP;,,                N 00SUB !
$
 FUNCTION GHSERSB   298.15  -9242.858+156.154689*T-30.5130752*T*LN(T)
       +0.007748768*T**2-3.003415E-06*T**3+100625*T**(-1);
       903.78  Y  -11738.83+169.485872*T-31.38*T*LN(T)+1.616849E+27*T**(-9);
      2000.00  N !
 FUNCTION GLIQSB    298.15  +19822.328-21.923164*T+GHSERSB-1.74847E-20*T**7;
       903.78  Y  +8175.359+147.455986*T-31.38*T*LN(T);
      2000.00  N !
 FUNCTION SB1G      298.15  +260807.82-37.9550038*T-21.27672*T*LN(T)
       +5.524195E-04*T**2-1.05228767E-07*T**3+9996.235*T**(-1);
      1500.00  Y  +277520.519-132.229974*T-8.970999*T*LN(T)
       -0.0030704565*T**2+5.21558333E-08*T**3-3997436*T**(-1);
      3200.00  Y  +220721.423+26.8449864*T-27.71232*T*LN(T)
       -7.8024E-04*T**2+2.46637333E-08*T**3+25565705*T**(-1);
      5700.00  Y  +181935.295+193.241235*T-48.14252*T*LN(T)
       +0.0028203175*T**2-8.119545E-08*T**3+25871630*T**(-1);
      9000.00  Y  +1141367.55-1326.1236*T+119.631*T*LN(T)
       -0.010240775*T**2+1.09708933E-07*T**3-1.0049905E+09*T**(-1);
     10000.00  N !
 FUNCTION SB2G      298.15  +225644.034-1.64062093*T-38.03868*T*LN(T)
       +5.08568E-04*T**2-1.31408217E-07*T**3+60968.15*T**(-1);
      1700.00  Y  +231514.886-6.69092891*T-38.05471*T*LN(T)
       +0.00253181*T**2-4.26984E-07*T**3-2451004*T**(-1);
      3400.00  Y  +569974.061-1288.56295*T+120.7968*T*LN(T)
       -0.030603185*T**2+8.68664667E-07*T**3-1.376966E+08*T**(-1);
      5700.00  Y  -689327.546+1714.84499*T-228.6644*T*LN(T)
       +0.012556505*T**2-1.31793767E-07*T**3+7.14668E+08*T**(-1);
      6000.00  N !
 FUNCTION SB3G      298.15  +277165.227+46.0530737*T-58.19257*T*LN(T)
       -2.0866265E-06*T**2+8.316025E-11*T**3+43601.08*T**(-1);
      6000.00  N !
 FUNCTION SB4G      298.15  +192849.585+194.765811*T-83.12392*T*LN(T)
       -5.116865E-06*T**2+2.043415E-10*T**3+115767.85*T**(-1);
      6000.00  N !
$ ------------------------------------------------------------------------------
$ P
$
$ RHOMBOHEDRAL_A7 added in unary 4.4
$
 PAR  G(WHITE_P,P)              250.00  +GHSERPP;                3000 N 91Din !
 PAR  G(RED_P,P)                250.00  +GREDPP;                 3000 N 91Din !
 PAR  G(FCC_A1,P:VA)            250.00  +GREDPP+36819-13.138*T;  3000 N 91Din !
 PAR  G(BCC_A2,P:VA)            250.00  +GREDPP+44768.8-13.26*T; 3000 N 91Din !
 PAR  G(RHOMBOHEDRAL_A7,P)      250.00  +GHSERPP-188+0.12527*T;  3000 N 94Ans !
 PAR  G(LIQUID,P)               250.00  +GLIQPP;                 3000 N 91Din !
$
 PAR  G(GAS,P),,                        +F14404T+RTLNP;,,             N 97SUB !
 PAR  G(GAS,P2),,                       +F14448T+RTLNP;,,             N 97SUB !
 PAR  G(GAS,P3),,                       +F14471T+RTLNP;,,             N 97SUB !
 PAR  G(GAS,P4),,                       +F14479T+RTLNP;,,             N 97SUB !
$
 FUNCTION GHSERPP   250.00  -43821.799+1026.69389*T-178.426*T*LN(T)
       +0.290708*T**2-1.04022667E-04*T**3+1632695*T**(-1);
       317.30  Y  -9587.448+152.341487*T-28.7335301*T*LN(T)
       +0.001715669*T**2-2.2829E-07*T**3+172966*T**(-1);
      1000.00  Y  -8093.075+135.876831*T-26.326*T*LN(T);
      3000.00  N !
 FUNCTION GREDPP    250.00  -25976.559+148.672002*T-25.55*T*LN(T)
       +0.0034121*T**2-2.418867E-06*T**3+160095*T**(-1);
       500.00  Y  -21723.721+77.671737*T-14.368*T*LN(T)
       -0.00957685*T**2+3.93917E-07*T**3-141375*T**(-1);
       852.35  Y  -119408.413+1026.02962*T-149.449556*T*LN(T)
       +0.067272364*T**2-6.651929E-06*T**3+12495943*T**(-1);
      1500.00  Y  -16431.044+17.96235*T+GHSERPP;
      3000.00  N !
 FUNCTION GLIQPP    250.00  -26316.111+434.930931*T-70.7440584*T*LN(T)
       -0.002898936*T**2+3.9049371E-05*T**3+1141147*T**(-1);
       317.30  Y  -7232.449+133.291873*T-26.326*T*LN(T);
      3000.00  N !
$ P(g)
 FUNCTION F14404T   298.15  +310152.015-21.3997112*T-21.18864*T*LN(T)
       +3.9907815E-04*T**2-6.467185E-08*T**3+9337.96*T**(-1);
      1900.00  Y  +332461.723-123.51155*T-8.27475*T*LN(T)
       -0.0025407355*T**2+2.77886167E-08*T**3-6752450*T**(-1);
      3900.00  Y  +295561.679-61.0229009*T-14.92054*T*LN(T)
       -0.002691344*T**2+7.37562667E-08*T**3+20828775*T**(-1);
      7000.00  Y  +105621.967+337.540131*T-60.52207*T*LN(T)
       +0.002171204*T**2-2.32968833E-08*T**3+1.6928265E+08*T**(-1);
     10000.00  N !
$ P2(g)
 FUNCTION F14448T   298.15  +133357.681+.182114942*T-32.02798*T*LN(T)
       -0.004670767*T**2+7.28558667E-07*T**3+106826.35*T**(-1);
       900.00  Y  +128832.659+49.3136341*T-39.23087*T*LN(T)
       +7.156115E-04*T**2-6.82824333E-08*T**3+666443.5*T**(-1);
      3500.00  Y  +164091.361-27.2592211*T-30.65569*T*LN(T)
       +3.4990285E-04*T**2-1.0132875E-07*T**3-21312200*T**(-1);
      6000.00  N !
$ P3(g)
 FUNCTION F14471T   298.15  +191023.012+115.134799*T-55.58992*T*LN(T)
       -0.00549647*T**2+8.37126667E-07*T**3+291982.3*T**(-1);
      1000.00  Y  +187367.887+160.095451*T-62.29736*T*LN(T)
       -1.1488665E-05*T**2+3.82699333E-10*T**3+671571.5*T**(-1);
      6000.00  N !
$ P4(g)
 FUNCTION F14479T   298.15  +31689.2272+246.976573*T-77.33235*T*LN(T)
       -0.0046207025*T**2+6.76817E-07*T**3+563393*T**(-1);
      1100.00  Y + 28520.4461+285.801742*T-83.11153*T*LN(T)
       -6.057165E-06*T**2+1.99865333E-10*T**3+890230*T**(-1);
      6000.00  N !
$ ------------------------------------------------------------------------------
$ Binary system
$
$ From I. Ansara et al. 1994 (Included in LB Vol. 1)
$
$ I. Ansara, C. Chatillon, H.L. Lukas, T. Nishizawa, H. Ohtani, K. Ishida,
$ M. Hillert, B. Sundman, B.B. Argent, A. Watson, T.G. Chart, T. Anderson,
$ Calphad, 18, 177-222(1994).
$
$ Checked against LB and paper. Checked at 6000 K.
$
 PAR  L(LIQUID,P,SB;0),,                -7000;,,                      N 94Ans !
$
 PAR  L(RHOMBOHEDRAL_A7,P,SB;0),,       +30000;,,                     N 04Sun !
$
 PAR  G(GAS,SBP),,                      +SB1P1G+RTLNP;,,              N 00SUB !
 PAR  G(GAS,SBP3),,                     +SB1P3G+RTLNP;,,              N 00SUB !
 PAR  G(GAS,ASSB3),,                    +AS1SB3G+RTLNP;,,             N 00SUB !
 PAR  G(GAS,AS2SB2),,                   +AS2SB2G+RTLNP;,,             N 00SUB !
 PAR  G(GAS,AS3SB),,                    +AS3SB1G+RTLNP;,,             N 00SUB !
$
 FUNCTION SB1P1G    298.15  +214229.594+5.02994959*T-36.85219*T*LN(T)
       -4.3537175E-04*T**2+2.308895E-08*T**3+119774*T**(-1);
      2000.00  Y  +183283.753+167.479175*T-57.97816*T*LN(T)
       +0.0060526*T**2-3.56568333E-07*T**3+8691045*T**(-1);
      4800.00  Y  +927676.072-1856.05251*T+181.6442*T*LN(T)
       -0.028366255*T**2+5.73712167E-07*T**3-4.2679435E+08*T**(-1);
      6000.00  N !
 FUNCTION SB1P3G    298.15  -4776.71994+240.89347*T-81.5624*T*LN(T)
       -9.284325E-04*T**2+9.50185333E-08*T**3+429544.1*T**(-1);
      1800.00  Y  -5846.21775+251.807659*T-83.12543*T*LN(T)
       -4.4852385E-06*T**2+1.89597167E-10*T**3+558737.5*T**(-1);
      3000.00  N !
$ ------------------------------------------------------------------------------
$
 ASSESSED_SYSTEM
  P-SB(TDB -* +LIQUID +GAS +RED_P +WHITE_P +RHOMBO_A7 ;P3 TMM:300/1000 *) !
$
$
 LIST-OF-REFERENCE
 NUMBER  SOURCE
  Null   'Unknown source'
  Same   'Same or similar interaction as in the corresponding stable phase'
  COST   'COST 507 database'
  91Din  'A.T. Dinsdale, Calphad, 15, 317-425(1991).'
  94Ans  'I. Ansara, C. Chatillon, H.L. Lukas, T. Nishizawa, H. Ohtani,
          K. Ishida, M. Hillert, B. Sundman, B.B. Argent, A. Watson,
          T.G. Chart, T. Anderson, Calphad, 18, 177-222(1994),
		  SGTE unary database V.4.4, 2001; As, P, Sb-P'
  96SGUN 'SGTE unary database V.3.0, 1996.'
  97SUB  'SGTE substance database, version 1997'
  00SUB  'SGTE substance database, version 2000'
  04Sun  'B. Sundman, added interaction, 2004; Sb-P'
!
