$
$ Database for Cr-Pd from G. Ghosh and G.B. Olson 2000 (included in LB Vol. 2)
$
$ G. Ghosh, G.B. Olson, J. Phase Equilib., 21, 32-39(2000).
$
$ Dataset created 2015.05.17 by Bengt Hallstedt.
$ 2020.12.26: Modified for use with GES6.
$
$ The Pd solubility in bcc-Cr is somewhat lower in 00Gho than in LB or in this
$ dataset. Invariant temperatures are the same.
$
$ Hcp becomes stable in the centre of the system if the fcc interaction is
$ used. To prevent this it was modified by +5kJ/mol.
$
$ ------------------------------------------------------------------------------
 TEMP-LIM 298.15 6000.00 !
$
$ELEMENT NAME  REF. STATE               ATOMIC MASS H298-H0    S298    !
$
 ELEMENT VA   VACUUM                      0.0          0.0      0.0    ! 
 ELEMENT CR   BCC_A2                     51.996     4050.0     23.5429 ! 
 ELEMENT PD   FCC_A1                    106.42      5468.488   37.8234 ! 
$ ------------------------------------------------------------------------------
$ Phase definitions
$
 PHASE LIQUID:L % 1 1 !
 CONST LIQUID:L : CR PD : !
$
$ Fcc (cF4, Fm-3m) and MeX (cF8, Fm-3m)
$
 PHASE FCC_A1 %A 2 1 1 !
 CONST FCC_A1 : CR PD% : VA : !
$
$ Bcc (cI2, Im-3m)
$
 PHASE BCC_A2 %B 2 1 3 !
 CONST BCC_A2 : CR% PD : VA : !
$
$ Hcp (hP2, P6_3/mmc) and Me2X (NiAs-type, hP4, P6_3/mmc, B8_1)
$
 PHASE HCP_A3 %A 2 1 0.5 !
 CONST HCP_A3 : CR PD : VA : !
$
$ Prototype AuCu (tP4, P4/mmm)
$
 PHASE CRPD_L10 %A 2 0.5 0.5 !
 CONST CRPD_L10 : CR : PD : !
$
$ Prototype AuCu3 (cP4, Pm-3m)
$
 PHASE CR2PD3_L12 %A 2 0.4 0.6 !
 CONST CR2PD3_L12 : CR : PD : !
$ ------------------------------------------------------------------------------
$ Defaults
$
 DEFINE-SYSTEM-DEFAULT ELEMENT 2 !
 DEFAULT-COM DEFINE_SYSTEM_ELEMENT VA !
 TYPE-DEF % SEQ * !
 TYPE-DEF A GES AMEND_PHASE_DESCRIPTION @ MAGNETIC -3 0.28 !
 TYPE-DEF B GES AMEND_PHASE_DESCRIPTION @ MAGNETIC -1 0.4 !
 FUNCTION ZERO      298.15  0;                                         6000 N !
 FUNCTION UN_ASS    298.15  0;                                         6000 N !
 FUNCTION R         298.15  +8.31451;                                  6000 N !
$ ------------------------------------------------------------------------------
$ Element data
$ ------------------------------------------------------------------------------
$ Cr
$
 PAR  G(BCC_A2,CR:VA),,                 +GHSERCR;,,                   N 91Din !
 PAR  TC(BCC_A2,CR:VA),,                 -311.50;,,                   N 91Din !
 PAR  BM(BCC_A2,CR:VA),,                   -0.008;,,                  N 91Din !
 PAR  G(FCC_A1,CR:VA),,                 +GHSERCR+7284+0.163*T;,,      N 91Din !
 PAR  TC(FCC_A1,CR:VA),,                -1109.00;,,                   N 91Din !
 PAR  BM(FCC_A1,CR:VA),,                   -2.46;,,                   N 91Din !
 PAR  G(HCP_A3,CR:VA),,                 +GHSERCR+4438;,,              N 91Din !
 PAR  TC(HCP_A3,CR:VA),,                -1109.00;,,                   N 91Din !
 PAR  BM(HCP_A3,CR:VA),,                   -2.46;,,                   N 91Din !
$PAR  G(CUB_A13,CR:VA),,                +GHSERCR+15899+0.6276*T;,,    N 91Din !
$PAR  G(CBCC_A12,CR:VA),,               +GHSERCR+11087+2.7196*T;,,    N 91Din !
 PAR  G(LIQUID,CR),,                    +GLIQCR;,,                    N 91Din !
$
 FUNCTION GHSERCR   298.15  -8856.94+157.48*T-26.908*T*LN(T)
       +0.00189435*T**2-1.47721E-06*T**3+139250*T**(-1);
      2180.00  Y  -34869.344+344.18*T-50*T*LN(T)-2.88526E+32*T**(-9);
      6000.00  N !
 FUNCTION GLIQCR    298.15  +24339.955-11.420225*T+GHSERCR+2.37615E-21*T**7;
      2180.00  Y  -16459.984+335.616316*T-50*T*LN(T);
      6000.00  N !
 FUNCTION GFCCCR    298.15  +GHSERCR+7284+0.163*T;                     6000 N !
$ ------------------------------------------------------------------------------
$ Pd
$
$ RHOMBOHEDRAL_A7 added in unary 5.0
$
 PAR  G(FCC_A1,PD:VA),,                 +GHSERPD;                4000 N 91Din !
 PAR  G(BCC_A2,PD:VA),,                 +GHSERPD+10500-1.8*T;    4000 N 91Din !
 PAR  G(HCP_A3,PD:VA),,                 +GHSERPD+2000+0.1*T;     4000 N 91Din !
$PAR  G(RHOMBOHEDRAL_A7,PD),,           +GHSERPD+4000;           4000 N 06Vre !
 PAR  G(LIQUID,PD),,                    +GLIQPD;                 4000 N 91Din !
$
 FUNCTION GHSERPD   298.15  -10204.027+176.076315*T-32.211*T*LN(T)
       +0.007120975*T**2-1.919875E-06*T**3+168687*T**(-1);
       900.00  Y  +917.062+49.659892*T-13.5708*T*LN(T)
       -0.00717522*T**2+1.91115E-07*T**3-1112465*T**(-1);
      1828.00  Y  -67161.018+370.102147*T-54.2067086*T*LN(T)
       +0.002091396*T**2-6.2811E-08*T**3+18683526*T**(-1);
      4000.00  N !
 FUNCTION GLIQPD    298.15  +11506.758-5.112162*T+GHSERPD;
       600.00  Y  +23405.778-116.918419*T+10.8922031*T*LN(T)
       -0.027266568*T**2+2.430675E-06*T**3-1853674*T**(-1);
      1828.00  Y  -12373.637+251.416903*T-41.17*T*LN(T);
      4000.00  N !
$ ------------------------------------------------------------------------------
$ Binary system
$
$ From from G. Ghosh and G.B. Olson 2000 (included in LB Vol. 2)
$
$ G. Ghosh, G.B. Olson, J. Phase Equilib., 21, 32-39(2000).
$
$ Checked against LB and paper. Checked at 6000 K.
$
$ The Pd solubility in bcc-Cr is somewhat lower in 00Gho than in LB or in this
$ dataset. Invariant temperatures are the same.
$
$ Hcp becomes stable in the centre of the system if the fcc interaction is
$ used. To prevent this it was modified by +5kJ/mol.
$
 PAR  L(LIQUID,CR,PD;0),,               -20614.2675+7.4046*T;,,       N 00Gho !
 PAR  L(LIQUID,CR,PD;1),,               +4840.4293+1.7644*T;,,        N 00Gho !
 PAR  L(LIQUID,CR,PD;2),,               +9200.2117-6.2297*T;,,        N 00Gho !
$
 PAR  L(FCC_A1,CR,PD:VA;0),,            -42789.0439+22.0571*T;,,      N 00Gho !
 PAR  L(FCC_A1,CR,PD:VA;1),,            +71612.021-37.0796*T;,,       N 00Gho !
 PAR  L(FCC_A1,CR,PD:VA;2),,            -12725.8924;,,                N 00Gho !
$
 PAR  L(BCC_A2,CR,PD:VA;0),,            -12834.2436+30.6527*T;,,      N 00Gho !
 PAR  L(BCC_A2,CR,PD:VA;1),,            -1709.7227;,,                 N 00Gho !
$
 PAR  G(CRPD_L10,CR:PD),,               +0.5*GHSERCR+0.5*GHSERPD
             -13469.8803+6.4665*T;,,                                  N 00Gho !
 PAR  TC(CRPD_L10,CR:PD),,                623.00;,,                   N 00Gho !
 PAR  BM(CRPD_L10,CR:PD),,                  1.201;,,                  N 00Gho !
$
 PAR  G(CR2PD3_L12,CR:PD),,             +0.4*GHSERCR+0.6*GHSERPD
             -15129.879+6.7611*T;,,                                   N 00Gho !
 PAR  TC(CR2PD3_L12,CR:PD),,              623.00;,,                   N 00Gho !
 PAR  BM(CR2PD3_L12,CR:PD),,                0.537;,,                  N 00Gho !
$
$ Metastable
$
 PAR  L(HCP_A3,CR,PD:VA;0),,            -42789.0439+22.0571*T+5000;,, N Same !
 PAR  L(HCP_A3,CR,PD:VA;1),,            +71612.021-37.0796*T;,,       N Same !
 PAR  L(HCP_A3,CR,PD:VA;2),,            -12725.8924;,,                N Same !
$ ------------------------------------------------------------------------------
$
 ASSESSED_SYSTEM
  CR-PD(TDB -* +LIQUID +BCC_A2 +FCC_A1 +HCP_A3 +CRPD_L10 +CR2PD3_L12
  ;P3 TMM:300/2500 *) !
$
$
 LIST-OF-REFERENCE
 NUMBER  SOURCE
  Null   'Unknown source'
  Same   'Same or similar interaction as in the corresponding stable phase'
  COST   'COST 507 database'
  91Din  'A.T. Dinsdale, Calphad, 15, 317-425(1991).'
  00Gho  'G. Ghosh, G.B. Olson, J. Phase Equilib., 21, 32-39(2000); Cr-Pd'
  06Vre  'J. Vrestal, J. Pinkas, A. Watson, A. Scott, J. Houserova, A. Kroupa,
          Calphad, 30, 14-17(2006), SGTE unary database V.5.0, 2009; Pd'
!
