$
$ Database for Au-Ce from D. Moustaine and K. Mahdouk 2016.
$
$ D. Moustaine, K. Mahdouk, J. Alloys Compd., 683, 599-609(2016).
$
$ Dataset created 2018.03.25 by Bengt Hallstedt.
$ 2020.12.22: Modified for use with GES6.
$
$ Invariant equilibria differ by up to 13 K.
$
$ There is an inverse miscibility gap with a minimum at 3099 K and x(Ce)=0.10.
$
$ ------------------------------------------------------------------------------
 TEMP-LIM 298.15 6000.00 !
$
$ELEMENT NAME  REF. STATE               ATOMIC MASS H298-H0    S298    !
$
 ELEMENT VA   VACUUM                      0.0          0.0      0.0    ! 
 ELEMENT AU   FCC_A1                    196.9665    6016.592   47.4884 ! 
 ELEMENT CE   FCC_A1                    140.12      7280.16    69.454  ! 
$ ------------------------------------------------------------------------------
$ Phase definitions
$
 PHASE LIQUID:L % 1 1 !
 CONST LIQUID:L : AU CE : !
$
$ Fcc (cF4) and MeX (cF8)
$
 PHASE FCC_A1 %A 2 1 1 !
 CONST FCC_A1 : AU% CE% : VA : !
$
$ Bcc (cI2, Im-3m)
$
 PHASE BCC_A2 %B 2 1 3 !
 CONST BCC_A2 : AU CE% : VA : !
$
$ Hcp (hP2, P6_3/mmc) and Me2X (NiAs-type, hP4, P6_3/mmc, B8_1), zeta
$
 PHASE HCP_A3 %A 2 1 0.5 !
 CONST HCP_A3 : AU CE : VA : !
$
$ Prototype Au6Pr (mC28, C2/c)
$
 PHASE AU6CE % 2 6 1 !
 CONST AU6CE : AU : CE : !
$
$ Prototype Hg2K (oI12, Imma)
$
 PHASE AU2CE % 2 2 1 !
 CONST AU2CE : AU : CE : !
$
$ Prototype Ag51Gd14 (hP68, P6/m)
$
 PHASE AU51CE14_LT % 2 51 14 !
 CONST AU51CE14_LT : AU : CE : !
$
$ Prototype Ag51Gd14 (hP68, P6/m)
$
 PHASE AU51CE14_HT % 2 51 14 !
 CONST AU51CE14_HT : AU : CE : !
$
$ Prototype Pd4Pu3 (hR14, R-3)
$
 PHASE AU11CE9 % 2 11 9 !
 CONST AU11CE9 : AU : CE : !
$
$ Prototype FeB (oP8, Pnma)
$
 PHASE AUCE_B27 % 2 1 1 !
 CONST AUCE_B27 : AU : AU CE% : !
$
$ Prototype CrB (oC8, Cmcm)
$
 PHASE AUCE_B33 % 2 1 1 !
 CONST AUCE_B33 : AU : AU CE% : !
$
$ Prototype Co2Si (oP12, Pnma)
$
 PHASE AUCE2_C37 % 2 1 2 !
 CONST AUCE2_C37 : AU : CE : !
$ ------------------------------------------------------------------------------
$ Defaults
$
 DEFINE-SYSTEM-DEFAULT ELEMENT 2 !
 DEFAULT-COM DEFINE_SYSTEM_ELEMENT VA !
 TYPE-DEF % SEQ * !
 TYPE-DEF A GES AMEND_PHASE_DESCRIPTION @ MAGNETIC -3 0.28 !
 TYPE-DEF B GES AMEND_PHASE_DESCRIPTION @ MAGNETIC -1 0.4 !
 FUNCTION ZERO      298.15  0;                                         6000 N !
 FUNCTION UN_ASS    298.15  0;                                         6000 N !
 FUNCTION R         298.15  +8.31451;                                  6000 N !
$ ------------------------------------------------------------------------------
$ Element data
$ ------------------------------------------------------------------------------
$ Au
$
$ DHCP added in unary 5.0
$ DHCP replaced by the value from 92Ans in SGSOL 5.0
$
$ HCP_A3 and BCT_A5 from 88Che1 not included in unary
$
$ The DHCP phase is labelled D0_24 in 03Liu and alpha-prime in 92Ans. The
$ phase is present between the fcc and hcp phases in the Au-Sn and Au-In
$ systems. The value for DHCP from 92Ans was used to model these systems,
$ thus this value must be included in the unary database and not the 04Du
$ value.
$
 PAR  G(FCC_A1,AU:VA),,                 +GHSERAU;                3200 N 91Din !
 PAR  G(HCP_A3,AU:VA),,                 +GHSERAU+240.75+1.6*T;   3200 N 91Din !
$PAR  G(HCP_A3,AU:VA),,                 +GHSERAU+550+0.3*T;      3200 N 88Che1 !
 PAR  G(BCC_A2,AU:VA),,                 +GHSERAU+4250-1.1*T;     3200 N 91Din !
$PAR  G(BCT_A5,AU),,                    +GHSERAU+4184;           3200 N 88Che1 !
$PAR  G(DHCP,AU),,                      +GHSERAU+125+0.79*T;     3200 N 92Ans !
$PAR  G(DHCP,AU),,                      +GHSERAU+5000;           3200 N 04Du !
 PAR  G(LIQUID,AU),,                    +GHSERAU
             +12552-9.385866*T;                                  3200 N 91Din !
$
 PAR  G(AUCE_B27,AU:AU),,               +2*GHSERAU+10000;,,           N 16Mou !
 PAR  G(AUCE_B33,AU:AU),,               +2*GHSERAU+10000;,,           N 16Mou !
$
 FUNCTION GHSERAU   298.15  -6938.856+106.830098*T-22.75455*T*LN(T)
       -0.00385924*T**2+3.79625E-07*T**3-25097*T**(-1);
       929.40  Y  -93586.481+1021.69543*T-155.706745*T*LN(T)
       +0.08756015*T**2-1.1518713E-05*T**3+10637210*T**(-1);
      1337.33  Y  +314067.829-2016.37825*T+263.252259*T*LN(T)
       -0.118216828*T**2+8.923844E-06*T**3-67999832*T**(-1);
      1735.80  Y  -12133.783+165.272524*T-30.9616*T*LN(T);
      3200.00  N !
$ ------------------------------------------------------------------------------
$ Ce
$
$ HCP_A3 and DHCP added in unary 3.0
$ HCP_A3 and DHCP revised in unary 4.4
$
 PAR  G(FCC_A1,CE:VA),,                 +GHSERCE;                4000 N 91Din !
 PAR  G(BCC_A2,CE:VA),,                 +GBCCCE;                 4000 N 91Din !
 PAR  G(HCP_A3,CE:VA),,                 +GHSERCE+300;            4000 N Frank !
$PAR  G(HCP_A3,CE:VA),,                 +GHSERCE+50000;          4000 N 96SGUN !
$PAR  G(DHCP,CE:VA),,                   +GHSERCE
$            -122.539+0.433*T;                                   4000 N 99Gsc !
$PAR  G(DHCP,CE),,                      +GHSERCE-190+0.56886*T;  4000 N 96SGUN !
 PAR  G(LIQUID,CE),,                    +GLIQCE;                 4000 N 91Din !
$
 FUNCTION GHSERCE   298.15  -7160.519+84.23022*T-22.3664*T*LN(T)
       -0.0067103*T**2-3.20773E-07*T**3-18117*T**(-1);
      1000.00  Y  -79678.506+659.4604*T-101.32248*T*LN(T)
       +0.026046487*T**2-1.930297E-06*T**3+11531707*T**(-1);
      2000.00  Y  -14198.639+190.370192*T-37.6978*T*LN(T);
      4000.00  N !
 FUNCTION GBCCCE    298.15  -1354.69-5.21501*T-7.7305867*T*LN(T)
       -0.029098402*T**2+4.784299E-06*T**3-196303*T**(-1);
      1000.00  Y  -12101.106+187.449688*T-37.6142*T*LN(T);
      1072.00  Y  -11950.375+186.333811*T-37.4627992*T*LN(T)
       -5.7145E-05*T**2+2.348E-09*T**3-25897*T**(-1);
      4000.00  N !
 FUNCTION GLIQCE    298.15  +4117.865-11.423898*T-7.5383948*T*LN(T)
       -0.02936407*T**2+4.827734E-06*T**3-198834*T**(-1);
      1000.00  Y  -6730.605+183.023193*T-37.6978*T*LN(T);
      4000.00  N !
$ ------------------------------------------------------------------------------
$ Binary system
$
$ D. Moustaine, K. Mahdouk, J. Alloys Compd., 683, 599-609(2016).
$
$ Checked against paper. Checked at 6000 K.
$
$ Invariant equilibria differ by up to 13 K.
$
$ There is an inverse miscibility gap with a minimum at 3099 K and x(Ce)=0.10.
$
 PAR  L(LIQUID,AU,CE;0),,               -269142+13.43*T;,,            N 16Mou !
 PAR  L(LIQUID,AU,CE;1),,               -114055+73.21*T;,,            N 16Mou !
 PAR  L(LIQUID,AU,CE;2),,               +49931.9-4.78*T;,,            N 16Mou !
$
 PAR  L(FCC_A1,AU,CE:VA;0),,            -152935;,,                    N 16Mou !
 PAR  L(BCC_A2,AU,CE:VA;0),,            -165689+1.5679*T;,,           N 16Mou !
$
 PAR  G(AU6CE,AU:CE),,                  +6*GHSERAU+GHSERCE
             -320908+81.84*T;,,                                       N 16Mou !
 PAR  G(AU51CE14_LT,AU:CE),,            +51*GHSERAU+14*GHSERCE
             -3635060+352.95*T;,,                                     N 16Mou !
 PAR  G(AU51CE14_HT,AU:CE),,            +51*GHSERAU+14*GHSERCE
             -3452670+200.85*T;,,                                     N 16Mou !
 PAR  G(AU2CE,AU:CE),,                  +2*GHSERAU+GHSERCE
             -198000+2.91*T;,,                                        N 16Mou !
 PAR  G(AU11CE9,AU:CE),,                +11*GHSERAU+9*GHSERCE
             -1518180+41.4*T;,,                                       N 16Mou !
$
 PAR  G(AUCE_B27,AU:CE),,               +GHSERAU+GHSERCE
             -157990+4.864*T;,,                                       N 16Mou !
 PAR  G(AUCE_B27,AU:AU,CE;0),,          -89600+15*T;,,                N 16Mou !
$
 PAR  G(AUCE_B33,AU:CE),,               +GHSERAU+GHSERCE
             -157200+3.96*T;,,                                        N 16Mou !
 PAR  G(AUCE_B33,AU:AU,CE;0),,          -90864+16.3*T;,,              N 16Mou !
$
 PAR  G(AUCE2_C37,AU:CE),,              +GHSERAU+2*GHSERCE
             -183156+13.68*T;,,                                       N 16Mou !
$
$ Metastable
$
 PAR  L(HCP_A3,AU,CE:VA;0),,            -152935;,,                    N Same !
$ ------------------------------------------------------------------------------
$
$
 LIST-OF-REFERENCE
 NUMBER  SOURCE
  Null   'Unknown source'
  Same   'Same or similar interaction as in the corresponding stable phase'
  COST   'COST 507 database'
  Frank  'Peter Franke, unpublished, SGTE unary database V.4.4, 2001; Ce'
  88Che1 'P.-Y. Chevalier, Thermochim. Acta, 130, 1-13(1988); Au, Sn'
  91Din  'A.T. Dinsdale, Calphad, 15, 317-425(1991).'
  92Ans  'I. Ansara, J.-Ph. Nabot, Calphad, 16, 13-18(1992); Au'
  96SGUN 'SGTE unary database V.3.0, 1996.'
  99Gsc  'K.A. Gschneidner, Jr., V.K. Pecharsky, J. Phase Equilib.,
          20, 612-14(1999), SGTE unary database V.4.4, 2001; Ce'
  04Du   'Z. Du, C. Guo, D. Lu, J. Alloys Compd., 364, 117-20(2004),
          SGTE unary database V.5.0, 2009; Au'
  16Mou  'D. Moustaine, K. Mahdouk, J. Alloys Compd., 683, 599-609(2016); Au-Ce'
!
