$
$ Database for Ru-Si from Z.H. Long et al. 2009.
$
$ Z.H. Long, H.S. Liu, Z.P. Jin, J. Alloys Compd., 479, 262-67(2009).
$
$ Dataset created 2018.01.14 by Bengt Hallstedt.
$ 2021.02.05: Modified for use with GES6.
$
$ Modified from the 01Du dataset.
$
$ The low temperature limit of Ru2Si is at 1554 K instead of 1518 K. In
$ sgsol_Dec16c this is fixed by reoptimising the hcp interaction.
$
$ Ru2Si3 is also stable above 5420 K.
$
$ ------------------------------------------------------------------------------
 TEMP-LIM 298.15 6000.00 !
$
$ELEMENT NAME  REF. STATE               ATOMIC MASS H298-H0    S298    !
$
 ELEMENT VA   VACUUM                      0.0          0.0      0.0    ! 
 ELEMENT RU   HCP_A3                    101.07      4602.4     28.6144 ! 
 ELEMENT SI   DIAMOND_A4                 28.0855    3217.      18.81   ! 
$ ------------------------------------------------------------------------------
$ Phase definitions
$
 PHASE LIQUID:L % 1 1 !
 CONST LIQUID:L : RU SI : !
$
$ Fcc (cF4, Fm-3m) and MeX (cF8, Fm-3m)
$
 PHASE FCC_A1 %A 2 1 1 !
 CONST FCC_A1 : RU SI : VA : !
$
$ Bcc (cI2, Im-3m)
$
 PHASE BCC_A2 %B 2 1 3 !
 CONST BCC_A2 : RU SI : VA : !
$
$ Hcp (hP2, P6_3/mmc) and Me2X (NiAs-type, hP4, P6_3/mmc, B8_1)
$
 PHASE HCP_A3 % 2 1 0.5 !
 CONST HCP_A3 : RU% SI : VA : !
$
$ Prototype C (cF8, Fd-3m)
$
 PHASE DIAMOND_A4 % 1 1 !
 CONST DIAMOND_A4 : SI : !
$
$ Prototype Co2Si (oP12, Pnma)
$
 PHASE RU2SI_C37 % 2 2 1 !
 CONST RU2SI_C37 : RU : SI : !
$
$ Prototype Ru4Si3 (oP28, Pnma)
$
 PHASE RU4SI3 % 2 4 3 !
 CONST RU4SI3 : RU : SI : !
$
$ Prototype FeSi (cP8, P2_13, B20), alpha-RuSi
$ and prototypt CsCl (cP2, Pm-3m, B2), beta-RuSi
$
 PHASE RUSI % 2 1 1 !
 CONST RUSI : RU : SI : !
$
$ Prototype Ge3Ru2 (oP40, Pbcn), alpha-Ru2Si3
$ and prototype ? (tI80, P-4c2), beta-Ru2Si3
$
 PHASE RU2SI3 % 2 2 3 !
 CONST RU2SI3 : RU : SI : !
$ ------------------------------------------------------------------------------
$ Defaults
$
 DEFINE-SYSTEM-DEFAULT ELEMENT 2 !
 DEFAULT-COM DEFINE_SYSTEM_ELEMENT VA !
 TYPE-DEF % SEQ * !
 TYPE-DEF A GES AMEND_PHASE_DESCRIPTION @ MAGNETIC -3 0.28 !
 TYPE-DEF B GES AMEND_PHASE_DESCRIPTION @ MAGNETIC -1 0.4 !
 FUNCTION ZERO      298.15  0;                                         6000 N !
 FUNCTION UN_ASS    298.15  0;                                         6000 N !
 FUNCTION R         298.15  +8.31451;                                  6000 N !
$ ------------------------------------------------------------------------------
$ Element data
$ ------------------------------------------------------------------------------
$ Ru
$
$ BCC_A2 revised in unary 4.4
$
 PAR  G(HCP_A3,RU:VA),,                 +GHSERRU;                4500 N 91Din !
 PAR  G(FCC_A1,RU:VA),,                 +GHSERRU+12500-2.4*T;    4500 N 91Din !
 PAR  G(BCC_A2,RU:VA),,                 +GHSERRU+21500-5.05*T;   4500 N 01SGUN !
$PAR  G(BCC_A2,RU:VA),,                 +GHSERRU+26500-6.2*T;    4500 N 91Din !
 PAR  G(LIQUID,RU),,                    +GLIQRU;                 4500 N 91Din !
$
 FUNCTION GHSERRU   298.15  -7561.873+127.866233*T-22.9143287*T*LN(T)
       -0.004062566*T**2+1.7641E-07*T**3+56377*T**(-1);
      1500.00  Y  -59448.103+489.516214*T-72.3241219*T*LN(T)
       +0.018726245*T**2-1.952433E-06*T**3+11063885*T**(-1);
      2607.00  Y  -38588773+168610.517*T-21329.705*T*LN(T)
       +5.221639*T**2-2.40245985E-04*T**3+1.30829926E+10*T**(-1);
      2740.00  Y  -55768.304+364.482314*T-51.8816*T*LN(T);
      4500.00  N !
 FUNCTION GLIQRU    298.15  +27480.616-8.398748*T+GHSERRU;
       800.00  Y  +50827.232-179.818561*T+19.539341*T*LN(T)
       -0.026524167*T**2+1.667839E-06*T**3-3861125*T**(-1);
      2607.00  Y  -17161.807+349.673561*T-51.8816*T*LN(T);
      4500.00  N !
$ ------------------------------------------------------------------------------
$ Si
$
 PAR  G(DIAMOND_A4,SI),,                +GHSERSI;                3600 N 91Din !
 PAR  G(FCC_A1,SI:VA),,                 +GHSERSI+51000-21.8*T;   3600 N 91Din !
 PAR  G(BCC_A2,SI:VA),,                 +GHSERSI+47000-22.5*T;   3600 N 91Din !
 PAR  G(HCP_A3,SI:VA),,                 +GHSERSI+49200-20.8*T;   3600 N 91Din !
$PAR  G(CBCC_A12,SI:VA),,               +GHSERSI+50208-20.377*T; 3600 N 91Din !
$PAR  G(CUB_A13,SI:VA),,                +GHSERSI+47279-20.377*T; 3600 N 91Din !
 PAR  G(LIQUID,SI),,                    +GLIQSI;                 3600 N 91Din !
$
 FUNCTION GHSERSI   298.15  -8162.609+137.236859*T-22.8317533*T*LN(T)
       -0.001912904*T**2-3.552E-09*T**3+176667*T**(-1);
      1687.00  Y  -9457.642+167.281367*T-27.196*T*LN(T)-4.20369E+30*T**(-9);
      3600.00  N !
 FUNCTION GLIQSI    298.15  +50696.36-30.099439*T+GHSERSI+2.09307E-21*T**7;
      1687.00  Y  +40370.523+137.722298*T-27.196*T*LN(T);
      3600.00  N !
 FUNCTION GBCCSI    298.15  +GHSERSI+47000-22.5*T;                     3600 N !
$ ------------------------------------------------------------------------------
$ Binary system
$
$ Z.H. Long, H.S. Liu, Z.P. Jin, J. Alloys Compd., 479, 262-67(2009).
$
$ Checked against paper. Checked at 6000 K.
$
$ Modified from the 01Du dataset.
$
$ The low temperature limit of Ru2Si is at 1554 K instead of 1518 K. In
$ sgsol_Dec16c this is fixed by reoptimising the hcp interaction.
$
$ Ru2Si3 is also stable above 5420 K.
$
 PAR  L(LIQUID,RU,SI;0),,               -104885.855-5.35211953*T;,,   N 09Lon !
 PAR  L(LIQUID,RU,SI;1),,               +9482.20877;,,                N 01Du !
$
 PAR  L(HCP_A3,RU,SI:VA;0),,            -93905.1092+20*T;,,           N 01Du !
$
 PAR  G(RU2SI_C37,RU:SI),,              +2*GHSERRU+GHSERSI
             -123531.4353+20.57875911*T;,,                            N 09Lon !
 PAR  G(RU4SI3,RU:SI),,                 +4*GHSERRU+3*GHSERSI
             -385075.124+71.5145599*T;,,                              N 09Lon !
 PAR  G(RUSI,RU:SI),,                   -129093.2596+256.6*T
             -42.608062*T*LN(T)-0.0049736*T**2+99117.9432*T**(-1);,,  N 09Lon !
 PAR  G(RU2SI3,RU:SI),,                 -311857.137+880.38868*T
             -146.34585*T*LN(T)+0.04106*T**2-1.0563E-05*T**3
             +902092.125*T**(-1);,,                                   N 09Lon !
$
$ Metastable
$
 PAR  L(FCC_A1,RU,SI:VA;0),,            -93905.1092+20*T;,,           N Same !
 PAR  L(BCC_A2,RU,SI:VA;0),,            -93905.1092+20*T;,,           N Same !
$ ------------------------------------------------------------------------------
$
 ASSESSED_SYSTEM
  RU-SI(TDB -* +LIQUID +DIAMOND +HCP_A3 +RU2SI3 +RUSI +RU4SI3 +RU2SI_C37 
    ;P3 TMM:500/2700 STP:.77/1500 ) !
$
$
 LIST-OF-REFERENCE
 NUMBER  SOURCE
  Null   'Unknown source'
  Same   'Same or similar interaction as in the corresponding stable phase'
  91Din  'A.T. Dinsdale, Calphad, 15, 317-425(1991).'
  01Du   'Y. Du, K.H. Chen, J.C. Schuster, L. Perring, B.Y. Huang, Z.H. Yuan,
          J.C. Gachon, Z. Metallkd., 92, 323-27(2001); Ru-Si'
  01SGUN 'SGTE unary database V.4.4, 2001.'
  09Lon  'Z.H. Long, H.S. Liu, Z.P. Jin,
          J. Alloys Compd., 479, 262-67(2009); Ru-Si'
!
