$
$ Database for Y-O from V. Swamy et al. 1998 (included in LB Vol. 4)
$
$ Original version with old parameters for unary Y.
$
$ V. Swamy, H.J. Seifert, F. Aldinger, J. Alloys Compd., 269, 201-7(1998).
$
$ Dataset created 2010.02.21 by Bengt Hallstedt.
$ 2021.02.07: Modified for use with GES6.
$
$ G(ION,Y+3:O-2) is misprinted in 98Swa.
$
$ Bcc+L+Y2O3 is at 1848 K instead of 1842K.
$
$ H_R2O3 becomes stable for Y-rich compositions above 3500K.
$
$ ------------------------------------------------------------------------------
 TEMP-LIM 298.15 6000.00 !
$
$ELEMENT NAME  REF. STATE               ATOMIC MASS H298-H0    S298    !
$
 ELEMENT /-   ELECTRON_GAS                0.0          0.0      0.0    ! 
 ELEMENT VA   VACUUM                      0.0          0.0      0.0    ! 
 ELEMENT O    1/2_MOLE_O2(G)             15.999     4341.0    102.52   ! 
 ELEMENT Y    HCP_A3                     88.9059    5983.457   44.7875 ! 
$ ------------------------------------------------------------------------------
$ Species
$
 SPECIE  O-2                                O/-2 !
 SPECIE  O2                                 O2 !
 SPECIE  O3                                 O3 !
 SPECIE  Y+3                                Y/+3 !
 SPECIE  Y2O                                O1Y2 !
 SPECIE  YO                                 O1Y1 !
 SPECIE  Y2O2                               O2Y2 !
 SPECIE  YO2                                O2Y1 !
 SPECIE  YO1.5                              O1.5Y1 !
 SPECIE  Y2O3                               O3Y2 !
 SPECIE  Y2/3O                              O1Y0.66666667 !
 SPECIE  VA-2                               VA/-2 !
$ ------------------------------------------------------------------------------
$ Phase definitions
$
 PHASE ION:Y % 2 1 1 !
 CONST ION:Y : Y+3 : O-2 VA O : !
$
 PHASE LIQUID:L % 1 1 !
 CONST LIQUID:L : Y : !
$
$ Fcc (cF4, Fm-3m) and MeX (cF8, Fm-3m)
$
 PHASE FCC_A1 %A 2 1 1 !
 CONST FCC_A1 : Y : O VA% : !
$
$ Bcc (cI2, Im-3m)
$
 PHASE BCC_A2 %B 2 1 3 !
 CONST BCC_A2 : Y : O VA% : !
$
$ Hcp (hP2, P6_3/mmc) and Me2X (NiAs-type, hP4, P6_3/mmc, B8_1)
$ Note! The hcp model is non-standard.
$
 PHASE HCP_A3 %A 2 1 1 !
 CONST HCP_A3 : Y : O VA% : !
$
$ Prototype Mn2O3 (cI80, Ia-3)
$ This is cubic Y2O3
$
 PHASE C_R2O3_D53:I % 2 2 3 !
 CONST C_R2O3_D53:I : Y+3 : O-2% VA-2 : !
$
$ Prototype H-La2O3 (hP10, P6_3/mmc)
$ This is H-Y2O3
$
 PHASE H_R2O3:I % 2 2 3 !
 CONST H_R2O3:I : Y+3 : O-2% VA-2 : !
$
 PHASE GAS:G % 1 1 !
 CONST GAS:G : O O2% O3 Y Y2O YO Y2O2 YO2 : !
$
 PHASE O2GAS % 1 1 !
 CONST O2GAS : O2 : !
$ ------------------------------------------------------------------------------
$ Defaults
$
 DEFINE-SYSTEM-DEFAULT ELEMENT 2 !
 DEFAULT-COM DEFINE_SYSTEM_ELEMENT VA /- !
 DEFAULT-COM REJECT_PHASE LIQUID !
 TYPE-DEF % SEQ * !
 TYPE-DEF A GES AMEND_PHASE_DESCRIPTION @ MAGNETIC -3 0.28 !
 TYPE-DEF B GES AMEND_PHASE_DESCRIPTION @ MAGNETIC -1 0.4 !
 FUNCTION ZERO      298.15  0;                                         6000 N !
 FUNCTION UN_ASS    298.15  0;                                         6000 N !
 FUNCTION R         298.15  +8.31451;                                  6000 N !
 FUNCTION RTLNP     298.15  +8.31451*T*LN(1E-05*P);                    6000 N !
$ ------------------------------------------------------------------------------
$ Element data
$ ------------------------------------------------------------------------------
$ O
$
$ GHSEROO modified in unary 3.0
$
 PAR  G(O2GAS,O2),,                     +2*GHSEROO+RTLNP;,,           N 91Din !
$
 PAR  G(ION,O),,                        +GHSEROO-2648.9+31.44*T;,,    N 91Din !
$
 PAR  G(GAS,O),,                        +F7397T+RTLNP;,,              N 92SUB !
 PAR  G(GAS,O2),,                       +2*GHSEROO+RTLNP;,,           N 91Din !
 PAR  G(GAS,O3),,                       +F7683T+RTLNP;,,              N 92SUB !
$
$ 1/2 O2(g)
 FUNCTION GHSEROO   298.15  -3480.87-25.503038*T-11.1355*T*LN(T)
       -0.005098875*T**2+6.61845833E-07*T**3-38365*T**(-1);
      1000.00  Y  -6568.763+12.659879*T-16.8138*T*LN(T)
       -5.957975E-04*T**2+6.781E-09*T**3+262905*T**(-1);
      3300.00  Y  -13986.728+31.259624*T-18.9536*T*LN(T)
       -4.25243E-04*T**2+1.0721E-08*T**3+4383200*T**(-1);
      6000.00  N !
$ O(g)
 FUNCTION F7397T    298.15  +243206.529-42897.0876*T**(-1)-20.7513421*T
       -21.0155542*T*LN(T)+1.26870532E-04*T**2-1.23131285E-08*T**3;
      2950.00  Y  +252301.473-3973170.33*T**(-1)-51.974853*T
       -17.2118798*T*LN(T)-5.41356254E-04*T**2+7.64520703E-09*T**3;
      6000.00  N !
$ O3(g)
 FUNCTION F7683T    298.15  +133772.042-11328.9959*T**(-1)-84.8602165*T
       -19.8314069*T*LN(T)-0.0392015696*T**2+7.90727187E-06*T**3;  
       600.00  Y  +120765.524+997137.156*T**(-1)+120.113376*T
       -51.8410152*T*LN(T)-0.00353983136*T**2+3.20640143E-07*T**3;
      1500.00  Y  +115412.196+1878139.02*T**(-1)+164.679664*T
       -58.069736*T*LN(T)-2.84399032E-04*T**2+5.95650279E-10*T**3;
      6000.00  N !
$ ------------------------------------------------------------------------------
$ Y
$
$ HCP_A3, BCC_A2 and LIQUID revised in unary 3.0
$ FCC_A1 added in unary 4.1
$
$ This is not the current description of unary Y.
$
 PAR  G(HCP_A3,Y:VA),,                  +GHSERYY;                3700 N 91Din !
 PAR  G(BCC_A2,Y:VA),,                  +GBCCYY;                 3700 N 91Din !
 PAR  G(FCC_A1,Y:VA),,                  +GHSERYY+6000;           3700 N Frie2 !
 PAR  G(LIQUID,Y),,                     +GLIQYY;                 3700 N 91Din !
$
 PAR  G(ION,Y+3:VA),,                   +GLIQYY;                 3700 N 91Din !
$
 PAR  G(GAS,Y),,                        +F14722T+RTLNP;,,             N 94SUB !
$
 FUNCTION GHSERYY   298.15  -7347.055+117.532124*T-23.8685*T*LN(T)
       -0.003845475*T**2+1.1125E-08*T**3-16486*T**(-1);
      1500.00  Y  -15802.62+229.831717*T-40.2851*T*LN(T)
       +0.0068095*T**2-1.14182E-06*T**3; 
      1799.00  Y  -72946.216+393.885821*T-58.2078433*T*LN(T)
       +0.002436461*T**2-7.2627E-08*T**3+20866567*T**(-1);
      3700.00 N !
 FUNCTION GBCCYY    298.15  -1861.198+97.522398*T-20.940576*T*LN(T)
       -0.007995833*T**2+7.58716E-07*T**3-54349*T**(-1);
      1752.00  Y  -10207.724+195.741984*T-35.0201*T*LN(T);
      1799.00  Y  +104813.954-386.167564*T+39.8075986*T*LN(T)
       -0.019918739*T**2+8.41308E-07*T**3-31549963*T**(-1);
      3700.00 N !
 FUNCTION GLIQYY    298.15  +3934.121+59.921688*T-14.8146562*T*LN(T)
       -0.015623487*T**2+1.442946E-06*T**3-140695*T**(-1);
      1799.00  Y  -13337.609+258.004539*T-43.0952*T*LN(T);
      3700.00 N !
$ Y(g)
 FUNCTION F14722T   298.15  +413926.156+43.942359*T-34.19791*T*LN(T)
       +0.0122297*T**2-2.14534333E-06*T**3+97071.5*T**(-1);
       700.00  Y  +417505.307-13.2762864*T-25.29082*T*LN(T)
       +0.002768476*T**2-3.169895E-07*T**3-157006.6*T**(-1);
      2000.00  Y  +439627.78-100.082079*T-14.64876*T*LN(T)
       +0.001182233*T**2-3.39037833E-07*T**3-7693105*T**(-1);
      3300.00  Y  +656873.926-957.210194*T+92.15071*T*LN(T)
       -0.022050485*T**2+6.04918167E-07*T**3-90137500*T**(-1);
      5500.00  Y  -81672.0087+877.446829*T-122.4532*T*LN(T)
       +0.005666115*T**2-6.61492667E-08*T**3+3.865857E+08*T**(-1);
     10000.00  N !
$ ------------------------------------------------------------------------------
$ Binary system
$
$ From V. Swamy et al. 1998 (original version)
$
$ V. Swamy, H.J. Seifert, F. Aldinger, J. Alloys Compd., 269, 201-7(1998).
$
$ Checked against paper.
$
$ G(ION,Y+3:O-2) is misprinted in 98Swa.
$
$ Bcc+L+Y2O3 is at 1848 K instead of 1842K.
$
$ H_R2O3 becomes stable for Y-rich compositions above 3500K.
$
 PAR  G(ION,Y+3:O-2),,                  +2*GLIQYY+3*GHSEROO
             -1821322.19+243.52552*T;,,                               N 98Swa !
 PAR  L(ION,Y+3:O-2,VA;0),,             +209819.073-118.227607*T;,,   N 98Swa !
$
 PAR  G(BCC_A2,Y:O),,                   +GBCCYY+3*GHSEROO
             -225000+137*T;,,                                         N 98Swa !
 PAR  L(BCC_A2,Y:O,VA;0),,              -2283384.08+86*T;,,           N 98Swa !
 PAR  L(BCC_A2,Y:O,VA;1),,              -757192.505;,,                N 98Swa !
$
 PAR  G(HCP_A3,Y:O),,                   +GHSERYY+GHSEROO
             -589780.33+71.3300504*T;,,                               N 98Swa !
$
 PAR  G(C_R2O3_D53,Y+3:O-2),,           +GCCY2O3;,,                   N 98Swa !
 PAR  G(C_R2O3_D53,Y+3:VA-2),,          +2*GHSERYY
             +340026.026-107.540058*T;,,                              N 98Swa !
$
 PAR  G(H_R2O3,Y+3:O-2),,               +GHHY2O3;,,                   N 98Swa !
 PAR  G(H_R2O3,Y+3:VA-2),,              +2*GHSERYY
             +340026.026-107.540058*T;,,                              N 98Swa !
$
 PAR  G(GAS,Y2O),,                      +F12945T+RTLNP;,,             N 94SUB !
 PAR  G(GAS,YO),,                       +F12929T+RTLNP;,,             N 94SUB !
 PAR  G(GAS,Y2O2),,                     +F13270T+RTLNP;,,             N 94SUB !
 PAR  G(GAS,YO2),,                      +F13266T+RTLNP;,,             N 94SUB !
$
 FUNCTION GCCY2O3   298.15  -1981736+763.71851*T-125.692*T*LN(T)
       -0.00558*T**2+2344020.5*T**(-1)-117305560*T**(-2);
      6000.00  N !
 FUNCTION GHHY2O3   298.15  +GCCY2O3+25000-9.61538*T;                  6000 N !
$ Y2O(g):
 FUNCTION F12945T   298.15  -18834.6011+47.2728187*T-49.14357*T*LN(T)
       -0.007582635*T**2+1.2067E-06*T**3+211591.55*T**(-1);
       900.00  Y  -23590.8983+106.946886*T-58.08361*T*LN(T)
       -2.2921245E-05*T**2+7.790445E-10*T**3+695520*T**(-1);
      6000.00  N !
$ YO(g):
 FUNCTION F12929T   298.15  -55980.1334-24.7804591*T-30.58571*T*LN(T)
       -0.005797885*T**2+9.044075E-07*T**3+92955.75*T**(-1);
       900.00  Y  -62402.7508+43.7949244*T-40.60318*T*LN(T)
       +0.0014897095*T**2-1.41268333E-07*T**3+896318.5*T**(-1);
      3100.00  Y  +22970.3078-236.507016*T-6.632106*T*LN(T)
       -0.004295709*T**2+3.30261667E-08*T**3-38281150*T**(-1);
      5900.00  Y  +78439.9263-450.3653*T+19.37683*T*LN(T)
       -0.00859432*T**2+1.53217517E-07*T**3-45013010*T**(-1);
      9600.00  Y  -949291.433+1103.17067*T-151.1803*T*LN(T)
       +0.004000447*T**2-2.13031E-08*T**3+1.118062E+09*T**(-1);
     10000.00  N !
$ Y2O2(g):
 FUNCTION F13270T   298.15  -575737.712+51.4042333*T-49.55549*T*LN(T)
       -0.030210885*T**2+5.27799667E-06*T**3+255509.3*T**(-1);
       700.00  Y  -591679.029+265.724012*T-82.06371*T*LN(T)
       -2.6169375E-04*T**2+1.0952625E-08*T**3+1742125.5*T**(-1);
      4500.00  Y  -594803.763+277.512452*T-83.52789*T*LN(T)
       +4.9195245E-05*T**2-1.17628333E-09*T**3+3139224*T**(-1);
      6000.00  N !
$ YO2(g):
 FUNCTION F13266T   298.15  -453353.172+38.0172466*T-44.87379*T*LN(T)
       -0.011836705*T**2+2.00650833E-06*T**3+281931.45*T**(-1);
       800.00  Y  -459941.788+124.969156*T-58.0167*T*LN(T)
       -3.724498E-05*T**2+1.29613517E-09*T**3+910973.5*T**(-1);
      6000.00  N !
$ ------------------------------------------------------------------------------
$
 ASSESSED_SYSTEM
  O-Y(TDB -* +ION +GAS +BCC_A2 +HCP_A3 +H_R2O3 +C_R2O3_D53
  ;P3 TMM:300/3000 STP:.9/1800/2/-1 STP:.99/1800/2 STP:0.3/1800/1) !
$
$
 LIST-OF-REFERENCE
 NUMBER  SOURCE
  Null   'Unknown source'
  COST   'COST 507 database'
  Frie2  'Suzana Fries and Leo Lukas, unpublished,
          SGTE unary database V.4.1, 1999; Y'
  91Din  'A.T. Dinsdale, Calphad, 15, 317-425(1991).'
  92SUB  'SGTE Substance Database, version 1992'
  94SUB  'SGTE Substance Database, version 1994'
  98Swa  'V. Swamy, H.J. Seifert, F. Aldinger,
          J. Alloys Compd., 269, 201-7(1998); Y-O'
!
