$
$ Database for Gd-Sb from J.Q. Li et al. 2007
$
$ J.Q. Li, Y.X. Jian, H.L. Chen, Y.Q. Liu, Intermetallics, 15, 1332-36(2007).
$
$ Dataset created 2016.10.20 by Bengt Hallstedt.
$ 2021.01.03: Modified for use with GES6.
$
$ The GD16SB39 parameter is misprinted in the paper.
$
$ There is an inverse miscibility gap with a minimum at 1630 K and x(Sb)=0.94,
$ which is below the melting temperature of GdSb.
$
$ ------------------------------------------------------------------------------
 TEMP-LIM 298.15 6000.00 !
$
$ELEMENT NAME  REF. STATE               ATOMIC MASS H298-H0    S298    !
$
 ELEMENT VA   VACUUM                      0.0          0.0      0.0    ! 
 ELEMENT GD   HCP_A3                    157.25      9087.648   68.0894 ! 
 ELEMENT SB   RHOMBOHEDRAL_A7           121.75      5870.152   45.5219 ! 
$ ------------------------------------------------------------------------------
$ Phase definitions
$
 PHASE LIQUID:L % 1 1 !
 CONST LIQUID:L : GD SB : !
$
$ Fcc (cF4, Fm-3m) and MeX (cF8, Fm-3m)
$
 PHASE FCC_A1 %A 2 1 1 !
 CONST FCC_A1 : GD SB : VA : !
$
$ Bcc (cI2, Im-3m)
$
 PHASE BCC_A2 %B 2 1 3 !
 CONST BCC_A2 : GD% SB : VA : !
$
$ Hcp (hP2, P6_3/mmc) and Me2X (NiAs-type, hP4, P6_3/mmc, B8_1)
$
 PHASE HCP_A3 %A 2 1 0.5 !
 CONST HCP_A3 : GD% SB : VA : !
$
$ Prototype alpha-As (hR2, R-3m)
$
 PHASE RHOMBOHEDRAL_A7 % 1 1 !
 CONST RHOMBOHEDRAL_A7 : SB : !
$
$ Prototype Mn5Si3 (hP16, P6_3/mcm)
$
 PHASE GD5SB3_D88 % 2 5 3 !
 CONST GD5SB3_D88 : GD : SB : !
$
$ Prototype Th3P4 (cI28, I-43d)
$
 PHASE GD4SB3_D73 % 2 4 3 !
 CONST GD4SB3_D73 : GD : SB : !
$
$ Prototype NaCl (cF8, Fm-3m)
$
 PHASE GDSB_B1 % 2 1 1 !
 CONST GDSB_B1 : GD : SB : !
$
$ unknown structure
$
 PHASE GDSB_BETA % 2 1 1 !
 CONST GDSB_BETA : GD : SB : !
$
$ Prototype Gd16Sb39 (mC124, C2/m)
$
 PHASE GD16SB39 % 2 16 39 !
 CONST GD16SB39 : GD : SB : !
$ ------------------------------------------------------------------------------
$ Defaults
$
 DEFINE-SYSTEM-DEFAULT ELEMENT 2 !
 DEFAULT-COM DEFINE_SYSTEM_ELEMENT VA !
 TYPE-DEF % SEQ * !
 TYPE-DEF A GES AMEND_PHASE_DESCRIPTION @ MAGNETIC -3 0.28 !
 TYPE-DEF B GES AMEND_PHASE_DESCRIPTION @ MAGNETIC -1 0.4 !
 FUNCTION ZERO      298.15  0;                                         6000 N !
 FUNCTION UN_ASS    298.15  0;                                         6000 N !
 FUNCTION R         298.15  +8.31451;                                  6000 N !
$ ------------------------------------------------------------------------------
$ Element data
$ ------------------------------------------------------------------------------
$ Gd
$
$ HCP_A3, BCC_A2 and LIQUID revised in unary 3.0
$ Small correction made to top two temperature ranges of bcc_A2 to ensure 
$ continuity in Gibbs energy, AD, Dec 2002
$ FCC_A1 added in unary 4.4
$
$ FCC_A1 from 03Cac not included in unary
$
 PAR  G(HCP_A3,GD:VA)           200.00  +GHSERGD;                3600 N 95She2 !
 PAR  TC(HCP_A3,GD:VA)          200.00    293.4;                 3600 N 95She2 !
 PAR  BM(HCP_A3,GD:VA)          200.00      3.0;                 3600 N 95She2 !
$PAR  TC(HCP_A3,GD:VA)          200.00    291.8;                 3600 N 91Din !
$PAR  BMAGN(HCP_A3,GD:VA)       200.00      3.0;                 3600 N 91Din !
 PAR  G(FCC_A1,GD:VA)           200.00  +GHSERGD+500;            3600 N 00Zin !
$PAR  G(FCC_A1,GD:VA)           200.00  +GHSERGD
$            +1800-0.831451*T;                                   3600 N 03Cac !
 PAR  G(BCC_A2,GD:VA)           200.00  +GBCCGD;                 3600 N 95She2 !
 PAR  G(LIQUID,GD)              200.00  +GLIQGD;                 3600 N 95She2 !
$
 FUNCTION GHSERGD   200.00  -6834.5855+97.13101*T-24.7214131*T*LN(T)
       -0.00285240521*T**2-3.14674076E-07*T**3-8665.73348*T**(-1);
      1000.00  Y  -6483.25362+95.6919924*T-24.6598297*T*LN(T)
       -0.00185225011*T**2-6.61211607E-07*T**3;
      1508.15  Y  -123124.992+699.125537*T-101.800197*T*LN(T)
       +0.0150644246*T**2-6.39165948E-07*T**3+29356890.3*T**(-1);
      3600.00  N !
 FUNCTION GBCCGD    200.00  +3233.80866-2.11184585*T+GHSERGD;
      1000.00  Y  +152792.743-1349.58873*T+180.097094*T*LN(T)
       -0.119550229*T**2+1.17915728E-05*T**3-22038836*T**(-1);
      1508.15  Y  -15783.7618+202.222183*T-38.960425*T*LN(T);
      1586.15  Y  -19850.5562+224.818035*T-41.904333*T*LN(T)
       +8.58222759E-04*T**2-3.77570269E-08*T**3+995428.573*T**(-1);
      3600.00  N !
 FUNCTION GLIQGD    200.00  +13060.0262-8.32179974*T+GHSERGD;
      1000.00  Y  +146262.037-1208.70685*T+159.352082*T*LN(T)
       -0.108247135*T**2+1.06945505E-05*T**3-19678357*T**(-1);
      1508.15  Y  -5397.314+192.336215*T-38.5075*T*LN(T);
      3600.00  N !
$ ------------------------------------------------------------------------------
$ Sb
$
$ BCT_A5 revised in unary 3.0
$
$ BCT_A5 the value from 91Din is used in LBall-v7+fun.tdb.
$ BCT_A5 the value from 96SGUN is used in SGSOL 5.0.
$ It is only needed in Sb-Sn.
$
 PAR  G(RHOMBOHEDRAL_A7,SB),,           +GHSERSB;                2000 N 91Din !
 PAR  G(FCC_A1,SB:VA),,                 +GHSERSB+19874-13.7*T;   2000 N 91Din !
 PAR  G(BCC_A2,SB:VA),,                 +GHSERSB+19874-15.1*T;   2000 N 91Din !
 PAR  G(HCP_A3,SB:VA),,                 +GHSERSB+19874-13*T;     2000 N 91Din !
$PAR  G(BCT_A5,SB),,                    +GHSERSB+13000-8*T;      2000 N 96SGUN !
$PAR  G(BCT_A5,SB),,                    +GHSERSB+1000;           2000 N 91Din !
 PAR  G(LIQUID,SB),,                    +GLIQSB;                 2000 N 91Din !
$
 FUNCTION GHSERSB   298.15  -9242.858+156.154689*T-30.5130752*T*LN(T)
       +0.007748768*T**2-3.003415E-06*T**3+100625*T**(-1);
       903.78  Y  -11738.83+169.485872*T-31.38*T*LN(T)+1.616849E+27*T**(-9);
      2000.00  N !
 FUNCTION GLIQSB    298.15  +19822.328-21.923164*T+GHSERSB-1.74847E-20*T**7;
       903.78  Y  +8175.359+147.455986*T-31.38*T*LN(T);
      2000.00  N !
$ ------------------------------------------------------------------------------
$ Binary system
$
$ J.Q. Li, Y.X. Jian, H.L. Chen, Y.Q. Liu, Intermetallics, 15, 1332-36(2007).
$
$ Checked against paper. Checked at 6000 K.
$
$ The GD16SB39 parameter is misprinted in the paper.
$
$ There is an inverse miscibility gap with a minimum at 1630 K and x(Sb)=0.94,
$ which is below the melting temperature of GdSb.
$
 PAR  L(LIQUID,GD,SB;0),,               -267653.636-25.5971477*T;,,   N 07Li !
 PAR  L(LIQUID,GD,SB;1),,               +13256.1962-30.01213*T;,,     N 07Li !
 PAR  L(LIQUID,GD,SB;2),,               +42899.3741+30*T;,,           N 07Li !
$
 PAR  L(HCP_A3,GD,SB:VA;0),,            -256733.134;,,                N 07Li !
 PAR  L(BCC_A2,GD,SB:VA;0),,            -254432.914;,,                N 07Li !
$
 PAR  G(GD5SB3_D88,GD:SB),,             +5*GHSERGD+3*GHSERSB
             -908901.935+63.9432576*T;,,                              N 07Li !
 PAR  G(GD4SB3_D73,GD:SB),,             +4*GHSERGD+3*GHSERSB
             -821620.414+35.8350913*T;,,                              N 07Li !
 PAR  G(GDSB_B1,GD:SB),,                +GHSERGD+GHSERSB
             -242163.189+4.47923578*T;,,                              N 07Li !
 PAR  G(GDSB_BETA,GD:SB),,              +GHSERGD+GHSERSB
             -240266.227+3.58153981*T;,,                              N 07Li !
$ Original parameter from paper below
$PAR  G(GD16SB39,GD:SB),,               +16*GHSERGD+39*GHSERSB
$            -4331930.09+7.80678968*T;,,                              N 07Li !
 PAR  G(GD16SB39,GD:SB),,               +16*GHSERGD+39*GHSERSB
             -4331930.09+429.3685*T;,,                                N 07Li !
$
$ Metastable
$
 PAR  L(FCC_A1,GD,SB:VA;0),,            -256733.134;,,                N Same !
$ ------------------------------------------------------------------------------
$
$
 LIST-OF-REFERENCE
 NUMBER  SOURCE
  Null   'Unknown source'
  Same   'Same or similar interaction as in the corresponding stable phase'
  COST   'COST 507 database'
  91Din  'A.T. Dinsdale, Calphad, 15, 317-425(1991).'
  95She2 'H. Shen, W. Zhang, G. Liu, R. Wang, Z. Du, Report F-95-02,
          University of Science and Technology, Beijing, May 1995,
          SGTE unary database V.3.0, 1996; Gd'
  96SGUN 'SGTE unary database V.3.0, 1996.'
  00Zin  'M. Zinkevich, N. Mattern, H. J Seifert,
          J. Phase Equilib., 21, 385-94(2000),
          SGTE unary database V.4.4, 2001; Gd'
  03Cac  'G. Cacciamani, S. De Negri, A. Saccone, R. Ferro,
          Intermetallics, 11, 1135-51(2003); Gd'
  07Li   'J.Q. Li, Y.X. Jian, H.L. Chen, Y.Q. Liu,
          Intermetallics, 15, 1332-36(2007); Gd-Sb'
!
