$
$ Database for Sn-Ti from F.H. Hayes (included in LB Vol. 4)
$
$ F.H. Hayes, COST 507, Final report round 2, 1998.
$
$ Dataset created 2009.10.15 by Bengt Hallstedt.
$ 2021.02.05: Modified for use with GES6.
$
$ SNTI3_D019 is stable above 2000K at the Sn3Ti composition.
$
$ ------------------------------------------------------------------------------
 TEMP-LIM 298.15 6000.00 !
$
$ELEMENT NAME  REF. STATE               ATOMIC MASS H298-H0    S298    !
$
 ELEMENT VA   VACUUM                      0.0          0.0      0.0    ! 
 ELEMENT SN   BCT_A5                    118.69      6323.      51.18   ! 
 ELEMENT TI   HCP_A3                     47.88      4824.      30.72   ! 
$ ------------------------------------------------------------------------------
$ Phase definitions
$
 PHASE LIQUID:L % 1 1 !
 CONST LIQUID:L : SN TI : !
$
$ Fcc (cF4, Fm-3m) and MeX (cF8, Fm-3m)
$
 PHASE FCC_A1 % 2 1 1 !
 CONST FCC_A1 : SN TI : VA : !
$
$ Bcc (cI2, Im-3m)
$
 PHASE BCC_A2 % 2 1 3 !
 CONST BCC_A2 : SN TI% : VA : !
$
$ Hcp (hP2, P6_3/mmc) and Me2X (NiAs-type, hP4, P6_3/mmc, B8_1)
$
 PHASE HCP_A3 % 2 1 0.5 !
 CONST HCP_A3 : SN TI% : VA: !
$
$ Prototype C (cF8, Fd-3m)
$
 PHASE DIAMOND_A4 % 1 1 !
 CONST DIAMOND_A4 : SN : !
$
$ Prototype beta-Sn (tI4, I4_1/amd)
$
 PHASE BCT_A5 % 1 1 !
 CONST BCT_A5 : SN% TI : !
$
$ Prototype Sn5Ti6 (hP22, P6_3/mmc)
$
 PHASE SN5TI6 %  2 5 6 !
 CONST SN5TI6 : SN : TI : !
$
$ Prototype Mn5Si3 (hP16, P6_3/mcm)
$
 PHASE SN3TI5_D88 %  2 3 5 !
 CONST SN3TI5_D88 : SN : TI : !
$
$ Prototype InNi2 (hP6, P6_3/mmc)
$
 PHASE SNTI2_B82 %  2 1 2 !
 CONST SNTI2_B82 : SN : TI : !
$
$ Prototype CdMg3 (hP8, P6_3/mmc)
$
 PHASE SNTI3_D019 %  2 1 3 !
 CONST SNTI3_D019 : SN% TI : SN TI% : !
$ ------------------------------------------------------------------------------
$ Defaults
$
 DEFINE-SYSTEM-DEFAULT ELEMENT 2 !
 DEFAULT-COM DEFINE_SYSTEM_ELEMENT VA !
 TYPE-DEF % SEQ * !
 FUNCTION ZERO      298.15  0;                                         6000 N !
 FUNCTION UN_ASS    298.15  0;                                         6000 N !
$ ------------------------------------------------------------------------------
$ Element data
$ ------------------------------------------------------------------------------
$ Sn
$
$ FCC_A1 revised in unary 3.0
$ HCP_A3 revised in unary 4.1
$ TETRAGONAL_A6 added in unary 4.1
$ CBCC_A12 and CUB_A13 added in unary 4.4
$ FCC_A1 modified in unary 5.0
$ DHCP and TET_ALPHA1_A6 added in unary 5.0
$
$ The DHCP phase is labelled D0_24 in 03Liu and alpha-prime in 92Ans. The
$ phase is present between the fcc and hcp phases in the Au-Sn and Au-In
$ systems.
$
 PAR  G(BCT_A5,SN)              100.00  +GHSERSN;                3000 N 91Din !
 PAR  G(DIAMOND_A4,SN)          100.00  +GDIASN;                 3000 N 91Din !
 PAR  G(FCC_A1,SN:VA)           100.00  +GHSERSN+5510-8.46*T;    3000 N 89Fec !
$PAR  G(FCC_A1,SN:VA)           100.00  +GHSERSN+4150-5.2*T;     3000 N 91Din !
 PAR  G(BCC_A2,SN:VA)           100.00  +GHSERSN+4400-6*T;       3000 N 91Din !
 PAR  G(HCP_A3,SN:VA)           100.00  +GHSERSN+3900-7.646*T;   3000 N Ansar !
$PAR  G(HCP_A3,SN:VA)           100.00  +GHSERSN+3900-4.4*T;     3000 N 91Din !
$PAR  G(DHCP,SN)                100.00  +GHSERSN+3803.52-3.46*T; 3000 N 03Liu !
$PAR  G(RHOMBOHEDRAL_A7,SN)     100.00  +GHSERSN+2035;           3000 N 91Din !
$PAR  G(TETRAGONAL_A6,SN)       100.00  +GHSERSN+5387-8.26212*T; 3000 N 99Ans !
$PAR  G(CBCC_A12,SN:VA)         100.00  +GHSERSN+2000;           3000 N 01Mie !
$PAR  G(CUB_A13,SN:VA)          100.00  +GHSERSN+2000;           3000 N 01Mie !
$PAR  G(TET_ALPHA1_A6,SN)       100.00  +GHSERSN+5510-8.46*T;    3000 N 99Ans !
 PAR  G(LIQUID,SN)              100.00  +GLIQSN;                 3000 N 91Din !
$
 PAR  G(SNTI3_D019,SN:SN),,             +4*GHSERSN+4;,,               N 98Hay !
$
 FUNCTION GHSERSN   100.00  -7958.517+122.765451*T-25.858*T*LN(T)
       +5.1185E-04*T**2-3.192767E-06*T**3+18440*T**(-1);
       250.00  Y  -5855.135+65.443315*T-15.961*T*LN(T)
       -0.0188702*T**2+3.121167E-06*T**3-61960*T**(-1);
       505.08  Y  +2524.724+4.005269*T-8.2590486*T*LN(T)
       -0.016814429*T**2+2.623131E-06*T**3-1081244*T**(-1)-1.2307E+25*T**(-9);
       800.00  Y  -8256.959+138.99688*T-28.4512*T*LN(T)-1.2307E+25*T**(-9);
      3000.00  N !
 FUNCTION GDIASN    100.00  -9579.608+114.007785*T-22.972*T*LN(T)
       -0.00813975*T**2+2.7288E-06*T**3+25615*T**(-1);
       298.15  Y  -9063.001+104.84654*T-21.5750771*T*LN(T)
       -0.008575282*T**2+1.784447E-06*T**3-2544*T**(-1);
       800.00  Y  -10909.351+147.396535*T-28.4512*T*LN(T);
      3000.00  N !
 FUNCTION GLIQSN    100.00  +7103.092-14.087767*T+GHSERSN+1.47031E-18*T**7;
       505.08  Y  +6971.586-13.814383*T+GHSERSN+1.2307E+25*T**(-9);
       800.00  Y  -1285.372+125.182498*T-28.4512*T*LN(T);
      3000.00  N !
 FUNCTION GBCCSN    298.15  +GHSERSN+4400-6*T;                         3000 N !
$ ------------------------------------------------------------------------------
$ Ti
$
$ BCT_A5 added in unary 3.0
$
 PAR  G(HCP_A3,TI:VA),,                 +GHSERTI;                4000 N 91Din !
 PAR  G(BCC_A2,TI:VA),,                 +GBCCTI;                 4000 N 91Din !
 PAR  G(FCC_A1,TI:VA),,                 +GHSERTI+6000-0.1*T;     4000 N 91Din !
$PAR  G(DIAMOND_A4,TI),,                +GHSERTI+25000;          4000 N 91Din !
 PAR  G(BCT_A5,TI),,                    +GHSERTI+4602.2;         3000 N SGCOST !
$PAR  G(CBCC_A12,TI:VA),,               +GHSERTI+4602.2;         4000 N 91Din !
$PAR  G(CUB_A13,TI:VA),,                +GHSERTI+7531.2;         4000 N 91Din !
 PAR  G(LIQUID,TI),,                    +GLIQTI;                 4000 N 91Din !
$
 PAR  G(SNTI3_D019,TI:TI),,             +4*GHSERTI+4;,,               N 98Hay !
$
 FUNCTION GHSERTI   298.15  -8059.921+133.615208*T-23.9933*T*LN(T)
       -0.004777975*T**2+1.06716E-07*T**3+72636*T**(-1);
       900.00  Y  -7811.815+132.988068*T-23.9887*T*LN(T)
       -0.0042033*T**2-9.0876E-08*T**3+42680*T**(-1);
      1155.00  Y  +908.837+66.976538*T-14.9466*T*LN(T)
       -0.0081465*T**2+2.02715E-07*T**3-1477660*T**(-1);
      1941.00  Y  -124526.786+638.806871*T-87.2182461*T*LN(T)
       +0.008204849*T**2-3.04747E-07*T**3+36699805*T**(-1);
      4000.00  N !
 FUNCTION GBCCTI    298.15  -1272.064+134.71418*T-25.5768*T*LN(T)
       -6.63845E-04*T**2-2.78803E-07*T**3+7208*T**(-1);
      1155.00  Y  +6667.385+105.366379*T-22.3771*T*LN(T)
       +0.00121707*T**2-8.4534E-07*T**3-2002750*T**(-1);
      1941.00  Y  +26483.26-182.426471*T+19.0900905*T*LN(T)
       -0.02200832*T**2+1.228863E-06*T**3+1400501*T**(-1);
      4000.00  N !
 FUNCTION GLIQTI    298.15  +12194.415-6.980938*T+GHSERTI;
      1300.00  Y  +369519.198-2554.0225*T+342.059267*T*LN(T)
       -0.163409355*T**2+1.2457117E-05*T**3-67034516*T**(-1);
      1941.00  Y  -19887.066+298.7367*T-46.29*T*LN(T);
      4000.00  N !
$ ------------------------------------------------------------------------------
$ Binary system
$
$ From F.H. Hayes (included in LB Vol. 4)
$
$ F.H. Hayes, COST 507, Final report round 2, 1998.
$
$ Checked against LB.
$
$ SNTI3_D019 is stable above 2000K at the Sn3Ti composition.
$
 PAR  L(LIQUID,SN,TI;0),,               -90206.13-5.55089*T;,,        N 98Hay !
 PAR  L(LIQUID,SN,TI;1),,               +44395.59-6.09746*T;,,        N 98Hay !
$
 PAR  L(BCC_A2,SN,TI:VA;0),,            -115000+6.77583*T;,,          N 98Hay !
 PAR  L(BCC_A2,SN,TI:VA;1),,            +45000+1.58018*T;,,           N 98Hay !
$
 PAR  L(HCP_A3,SN,TI:VA;0),,            -99102.1+1.8068*T;,,          N 04Din !
 PAR  L(HCP_A3,SN,TI:VA;1),,            +53871.41+2.08175*T;,,        N 04Din !
$
$ Original parameters from 98Hay below (used with old hcp-Sn)
$PAR  L(HCP_A3,SN,TI:VA;0),,            -111502.08+1.8068*T;,,        N 98Hay !
$PAR  L(HCP_A3,SN,TI:VA;1),,            +43871.41+2.08175*T;,,        N 98Hay !
$
 PAR  L(BCT_A5,SN,TI;0),,               +50000;,,                     N 98Hay !
$
 PAR  G(SN5TI6,SN:TI),,                 +5*GLIQSN+6*GLIQTI
             -525800+77*T;,,                                          N 98Hay !
 PAR  G(SN3TI5_D88,SN:TI),,             +3*GLIQSN+5*GLIQTI
             -398000+64.8*T;,,                                        N 98Hay !
 PAR  G(SNTI2_B82,SN:TI),,              +GLIQSN+2*GLIQTI
             -152700+26.80539*T;,,                                    N 98Hay !
$
 PAR  G(SNTI3_D019,SN:TI),,             +GLIQSN+3*GLIQTI
             -193466.8+35.74052*T;,,                                  N 98Hay !
 PAR  G(SNTI3_D019,TI:SN),,             +3*GLIQSN+GLIQTI
             +300000-200*T;,,                                         N 98Hay !
 PAR  L(SNTI3_D019,SN,TI:SN;0),,        +400000;,,                    N 98Hay !
 PAR  L(SNTI3_D019,SN,TI:TI;0),,        +200000-108*T;,,              N 98Hay !
 PAR  L(SNTI3_D019,SN:SN,TI;0),,        +400000-40*T;,,               N 98Hay !
 PAR  L(SNTI3_D019,TI:SN,TI;0),,        +600000+40*T;,,               N 98Hay !
$
$ Metastable
$
 PAR  L(FCC_A1,SN,TI:VA;0),,            -99102.1+1.8068*T;,,          N Same !
 PAR  L(FCC_A1,SN,TI:VA;1),,            +53871.41+2.08175*T;,,        N Same !
$ ------------------------------------------------------------------------------
$
 ASSESSED_SYSTEM
  SN-TI(TDB -* +LIQUID +BCT_A5 +BCC_A2 +HCP_A3 +SN3TI5_D88 +SN5TI6 +SNTI2_B82
  +SNTI3_D019 ;P3 TMM:300/3000 STP:.8/2000/-2) !
$
$
 LIST-OF-REFERENCE
 NUMBER  SOURCE
  Null   'Unknown source'
  Same   'Same or similar interaction as in the corresponding stable phase'
  SGCOST 'COST 507 database, SGTE unary database V.3.0, 1996; Al, B, Nd, Ti, Zn'
  Ansar  'Himo Ansara, unpublished, SGTE unary database V.4.1, 1999; Sn'
  89Fec  'H.J. Fecht, M.X. Zhang, Y.A. Chang, J.H. Perepezko,
          Metall. Trans. A, 20A, 795-803(1989),
          SGTE unary database V.3.0, 1996; Sn'
  91Din  'A.T. Dinsdale, Calphad, 15, 317-425(1991).'
  98Hay  'F.H. Hayes, COST 507, Final report round 2, 1998; Sn-Ti'
  99Ans  'I. Ansara, S.G. Fries, H.L. Lukas, unpublished, 1999,
          SGTE unary database V.5.0, 2009; In, Sn'
  01Mie  'J. Miettinen, Calphad, 25, 43-58(2001),
          SGTE unary database V.4.4, 2001; Sn, Zn'
  03Liu  'H.S. Liu, C.L. Liu, K. Ishida, Z.P. Jin, J. Electron. Mater.,
          32, 1290-96(2003), SGTE unary database V.5.0, 2009; Sn'
  04Din  'A.T. Dinsdale, modified due to new description of Sn (2004); Sn-Ti'
!
