$
$ Database for Li-V from B. Hu et al. 2015.
$
$ B. Hu, M. Yin, Q, Wang, F. Min, Y. Du,
$ Ordnance Mater. Sci. Eng., 38, 16-20(2015).
$
$ Dataset created 2018.10.21 by Bengt Hallstedt.
$ 2021.01.24: Modified for use with GES6.
$
$ ------------------------------------------------------------------------------
 TEMP-LIM 298.15 6000.00 !
$
$ELEMENT NAME  REF. STATE               ATOMIC MASS H298-H0    S298    !
$
 ELEMENT VA   VACUUM                      0.0          0.0      0.0    ! 
 ELEMENT LI   BCC_A2                      6.941     4632.00    29.12   ! 
 ELEMENT V    BCC_A2                     50.9415    4507.0     30.89   ! 
$ ------------------------------------------------------------------------------
$ Phase definitions
$
 PHASE LIQUID:L % 1 1 !
 CONST LIQUID:L : LI V : !
$
$ Fcc (cF4, Fm-3m) and MeX (cF8, Fm-3m)
$
 PHASE FCC_A1 %A 2 1 1 !
 CONST FCC_A1 : LI V : VA : !
$
$ Bcc (cI2, Im-3m)
$
 PHASE BCC_A2 %B 2 1 3 !
 CONST BCC_A2 : LI% V% : VA : !
$
$ Hcp (hP2, P6_3/mmc) and Me2X (NiAs-type, hP4, P6_3/mmc, B8_1)
$
 PHASE HCP_A3 %A 2 1 0.5 !
 CONST HCP_A3 : LI V : VA : !
$ ------------------------------------------------------------------------------
$ Defaults
$
 DEFINE-SYSTEM-DEFAULT ELEMENT 2 !
 DEFAULT-COM DEFINE_SYSTEM_ELEMENT VA !
 TYPE-DEF % SEQ * !
 TYPE-DEF A GES AMEND_PHASE_DESCRIPTION @ MAGNETIC -3 0.28 !
 TYPE-DEF B GES AMEND_PHASE_DESCRIPTION @ MAGNETIC -1 0.4 !
 FUNCTION ZERO      298.15  0;                                         6000 N !
 FUNCTION UN_ASS    298.15  0;                                         6000 N !
 FUNCTION R         298.15  +8.31451;                                  6000 N !
$ ------------------------------------------------------------------------------
$ Element data
$ ------------------------------------------------------------------------------
$ Li
$
 PAR  G(BCC_A2,LI:VA)           200.00  +GHSERLI;                3000 N 91Din !
 PAR  G(FCC_A1,LI:VA)           200.00  +GHSERLI-108+1.3*T;      3000 N 91Din !
 PAR  G(HCP_A3,LI:VA)           200.00  +GHSERLI-154+2*T;        3000 N 91Din !
 PAR  G(LIQUID,LI)              200.00  +GLIQLI;                 3000 N 91Din !
$
 FUNCTION GHSERLI   200.00  -10583.817+217.637482*T-38.940488*T*LN(T)
       +0.035466931*T**2-1.9869816E-05*T**3+159994*T**(-1);
       453.60  Y  -559579.123+10547.8799*T-1702.88865*T*LN(T)
       +2.25832944*T**2-5.71066077E-04*T**3+33885874*T**(-1);
       500.00  Y  -9062.994+179.278285*T-31.2283718*T*LN(T)
       +0.002633221*T**2-4.38058E-07*T**3-102387*T**(-1);
      3000.00  N !
 FUNCTION GLIQLI    200.00  +2700.205-5.795621*T+GHSERLI;
       250.00  Y  +12015.027-362.187078*T+61.6104424*T*LN(T)
       -0.182426463*T**2+6.3955671E-05*T**3-559968*T**(-1);
       453.60  Y  -6057.31+172.652183*T-31.2283718*T*LN(T)
       +0.002633221*T**2-4.38058E-07*T**3-102387*T**(-1);
       500.00  Y  +3005.684-6.626102*T+GHSERLI;
      3000.00  N !
$ ------------------------------------------------------------------------------
$ V
$
 PAR  G(BCC_A2,V:VA),,                  +GHSERVV;                4000 N 91Din !
 PAR  G(FCC_A1,V:VA),,                  +GHSERVV+7500+1.7*T;     4000 N 91Din !
 PAR  G(HCP_A3,V:VA),,                  +GHSERVV+4000+2.4*T;     4000 N 91Din !
$PAR  G(CBCC_A12,V:VA),,                +GHSERVV+9000;           4000 N 91Din !
$PAR  G(CUB_A13,V:VA),,                 +GHSERVV+10000;          4000 N 91Din !
 PAR  G(LIQUID,V),,                     +GLIQVV;                 4000 N 91Din !
$
 FUNCTION GHSERVV   298.15  -7930.43+133.346053*T-24.134*T*LN(T)
       -0.003098*T**2+1.2175E-07*T**3+69460*T**(-1);
       790.00  Y  -7967.842+143.291093*T-25.9*T*LN(T)
       +6.25E-05*T**2-6.8E-07*T**3;
      2183.00  Y  -41689.864+321.140783*T-47.43*T*LN(T)+6.44389E+31*T**(-9);
      4000.00  N !
 FUNCTION GLIQVV    298.15  +20764.117-9.455552*T+GHSERVV-5.19136E-22*T**7;
      2183.00  Y  -19617.51+311.055983*T-47.43*T*LN(T);
      4000.00  N !
$ ------------------------------------------------------------------------------
$ Binary system
$
$ B. Hu, M. Yin, Q, Wang, F. Min, Y. Du,
$ Ordnance Mater. Sci. Eng., 38, 16-20(2015).
$
$ Checked against paper. Checked at 6000 K.
$
 PAR  L(LIQUID,LI,V;0),,                +120299.27;,,                 N 15Hu !
$
 PAR  L(BCC_A2,LI,V:VA;0),,             +108996.52;,,                 N 15Hu !
$
$ Metastable
$
 PAR  L(FCC_A1,LI,V:VA;0),,             +108996.52;,,                 N Same !
 PAR  L(HCP_A3,LI,V:VA;0),,             +108996.52;,,                 N Same !
$ ------------------------------------------------------------------------------
$
$
 LIST-OF-REFERENCE
 NUMBER  SOURCE
  Null   'Unknown source'
  Same   'Same or similar interaction as in the corresponding stable phase'
  COST   'COST 507 database'
  91Din  'A.T. Dinsdale, Calphad, 15, 317-425(1991).'
  15Hu   'B. Hu, M. Yin, Q, Wang, F. Min, Y. Du,
          Ordnance Mater. Sci. Eng., 38, 16-20(2015); Li-V'
!
