$
$ Database for Cr-N from K. Frisk 1991 (included in LB Vol. 2)
$
$ K. Frisk, Calphad, 15, 79-106(1991).
$
$ Dataset created 2009.10.20 by Bengt Hallstedt.
$ 2020.12.25: Modified for use with GES6.
$
$ BCC_A2 has a gigantic stability region above 2500 K.
$
$ ------------------------------------------------------------------------------
 TEMP-LIM 298.15 6000.00 !
$
$ELEMENT NAME  REF. STATE               ATOMIC MASS H298-H0    S298    !
$
 ELEMENT VA   VACUUM                      0.0          0.0      0.0    ! 
 ELEMENT CR   BCC_A2                     51.996     4050.0     23.5429 ! 
 ELEMENT N    1/2_MOLE_N2(G)             14.007     4335.0     95.751  ! 
$ ------------------------------------------------------------------------------
$ Species
$
 SPECIE  N2                                 N2 !
$ ------------------------------------------------------------------------------
$ Phase definitions
$
 PHASE LIQUID:L % 1 1 !
 CONST LIQUID:L : CR N : !
$
$ Fcc (cF4, Fm-3m) and MeX (cF8, Fm-3m)
$
 PHASE FCC_A1 %A 2 1 1 !
 CONST FCC_A1 : CR : N VA% : !
$
$ Bcc (cI2, Im-3m)
$
 PHASE BCC_A2 %B 2 1 3 !
 CONST BCC_A2 : CR : N VA% : !
$
$ Hcp (hP2, P6_3/mmc) and Me2X (NiAs-type, hP4, P6_3/mmc, B8_1)
$
 PHASE HCP_A3 % 2 1 0.5 !
 CONST HCP_A3 : CR : N VA% : !
$
 PHASE N2GAS % 1 1 !
 CONST N2GAS : N2 : !
$ ------------------------------------------------------------------------------
$ Defaults
$
 DEFINE-SYSTEM-DEFAULT ELEMENT 2 !
 DEFAULT-COM DEFINE_SYSTEM_ELEMENT VA !
 TYPE-DEF % SEQ * !
 TYPE-DEF A GES AMEND_PHASE_DESCRIPTION @ MAGNETIC -3 0.28 !
 TYPE-DEF B GES AMEND_PHASE_DESCRIPTION @ MAGNETIC -1 0.4 !
 FUNCTION ZERO      298.15  0;                                         6000 N !
 FUNCTION UN_ASS    298.15  0;                                         6000 N !
 FUNCTION R         298.15  +8.31451;                                  6000 N !
 FUNCTION RTLNP     298.15  +8.31451*T*LN(1E-05*P);                    6000 N !
$ ------------------------------------------------------------------------------
$ Element data
$ ------------------------------------------------------------------------------
$ Cr
$
 PAR  G(BCC_A2,CR:VA),,                 +GHSERCR;,,                   N 91Din !
 PAR  TC(BCC_A2,CR:VA),,                 -311.50;,,                   N 91Din !
 PAR  BM(BCC_A2,CR:VA),,                   -0.008;,,                  N 91Din !
 PAR  G(FCC_A1,CR:VA),,                 +GHSERCR+7284+0.163*T;,,      N 91Din !
 PAR  TC(FCC_A1,CR:VA),,                -1109.00;,,                   N 91Din !
 PAR  BM(FCC_A1,CR:VA),,                   -2.46;,,                   N 91Din !
 PAR  G(HCP_A3,CR:VA),,                 +GHSERCR+4438;,,              N 91Din !
 PAR  TC(HCP_A3,CR:VA),,                -1109.00;,,                   N 91Din !
 PAR  BM(HCP_A3,CR:VA),,                   -2.46;,,                   N 91Din !
$PAR  G(CUB_A13,CR:VA),,                +GHSERCR+15899+0.6276*T;,,    N 91Din !
$PAR  G(CBCC_A12,CR:VA),,               +GHSERCR+11087+2.7196*T;,,    N 91Din !
 PAR  G(LIQUID,CR),,                    +GLIQCR;,,                    N 91Din !
$
 FUNCTION GHSERCR   298.15  -8856.94+157.48*T-26.908*T*LN(T)
       +0.00189435*T**2-1.47721E-06*T**3+139250*T**(-1);
      2180.00  Y  -34869.344+344.18*T-50*T*LN(T)-2.88526E+32*T**(-9);
      6000.00  N !
 FUNCTION GLIQCR    298.15  +24339.955-11.420225*T+GHSERCR+2.37615E-21*T**7;
      2180.00  Y  -16459.984+335.616316*T-50*T*LN(T);
      6000.00  N !
 FUNCTION GFCCCR    298.15  +GHSERCR+7284+0.163*T;                     6000 N !
$ ------------------------------------------------------------------------------
$ N
$
 PAR  G(N2GAS,N2),,                     +2*GHSERNN+RTLNP;,,           N 91Din !
 PAR  G(LIQUID,N),,                     +GHSERNN+29950+59.02*T;,,     N 91Din !
$
 FUNCTION GHSERNN   298.15  -3750.675-9.45425*T-12.7819*T*LN(T)
       -0.00176686*T**2+2.681E-09*T**3-32374*T**(-1);
       950.00  Y  -7358.85+17.2003*T-16.3699*T*LN(T)
       -6.5107E-04*T**2+3.0097E-08*T**3+563070*T**(-1);
      3350.00  Y  -16392.8+50.26*T-20.4695*T*LN(T)
       +2.39754E-04*T**2-8.333E-09*T**3+4596375*T**(-1);
      6000.00  N !
$ ------------------------------------------------------------------------------
$ Binary system
$
$ From K. Frisk 1991 (included in LB Vol. 2)
$
$ K. Frisk, Calphad, 15, 79-106(1991).
$
$ Checked against LB and paper.
$
$ BCC_A2 has a gigantic stability region above 2500 K.
$
 PAR  L(LIQUID,CR,N;0),,                -161800-16.11*T;,,            N 91Fri1 !
 PAR  L(LIQUID,CR,N;1),,                +65508;,,                     N 91Fri1 !
$
 PAR  G(FCC_A1,CR:N),,                  +GHSERCR+GHSERNN
             -124460+142.16*T-8.5*T*LN(T);,,                          N 91Fri1 !
 PAR  L(FCC_A1,CR:N,VA;0),,             +20000;,,                     N 91Fri1 !
$
 PAR  G(BCC_A2,CR:N),,                  +GHSERCR+3*GHSERNN
             +311870+29.12*T;,,                                       N 91Fri1 !
 PAR  TC(BCC_A2,CR:N),,                  -311.5;,,                    N 91Fri1 !
 PAR  BM(BCC_A2,CR:N),,                    -0.008;,,                  N 91Fri1 !
 PAR  L(BCC_A2,CR:N,VA;0),,             -200000;,,                    N 91Fri1 !
$
 PAR  G(HCP_A3,CR:N),,                  +GHSERCR+0.5*GHSERNN
             -65760+64.69*T-3.93*T*LN(T);,,                           N 91Fri1 !
 PAR  L(HCP_A3,CR:N,VA;0),,             +21120-10.61*T;,,             N 91Fri1 !
 PAR  L(HCP_A3,CR:N,VA;1),,             -6204;,,                      N 91Fri1 !
$
$ metastable
$
$PAR  G(CEMENTITE_D011,CR:N),,          +3*GHSERCR+GHSERNN+40000;,,   N Null !
$PAR  G(FE4N_L1,CR:N),,                 -135240+717.87*T-127.18*T*LN(T)
$            -0.002899*T**2-1.0968E-06*T**3+450231*T**(-1);,,         N 93Fri !
$ ------------------------------------------------------------------------------
$
 ASSESSED_SYSTEM
  CR-N(TDB -* +LIQ +BCC_A2 +FCC_A1 +HCP_A3 +N2GAS ;P3 TMM:300/2500 DOR:GAS *) !
$
$
 LIST-OF-REFERENCE
 NUMBER  SOURCE
  Null   'Unknown source'
  Same   'Same or similar interaction as in the corresponding stable phase'
  REFLAV 'Laves phase convention: G(LAVES,X:X)=+3*GHSERXX+15000'
  88Gus4 'P. Gustafson, Metall. Trans. A, 19A, 2531-46(1988); Cr-Fe-W'
  91Din  'A.T. Dinsdale, Calphad, 15, 317-425(1991).'
  91Fri1 'K. Frisk, Calphad, 15, 79-106(1991); Cr-N'
  93Fri  'K. Frisk, Calphad, 17, 335-49(1993); Cr-Mn-N'
!
