$
$ Database for Au-Yb from S.L. Wang et al. 2016.
$
$ S.L. Wang, L.J. Zhou, X. Qin, Y.H. Li, J.L. Li, Y. Pan, Y.H. Lin, C.P. Wang,
$ X.J. Liu, Calphad, 53, 90-96(2016).
$
$ Dataset created 2018.03.30 by Bengt Hallstedt.
$ 2020.12.22: Modified for use with GES6.
$
$ There is a high-T stability range for AuYb-B2 at about x(Yb)=0.3 between
$ 4250 and 5100 K.
$
$ There is inverse miscibility gap with a minimum at 5404 K and x(Yb)=0.59.
$
$ ------------------------------------------------------------------------------
 TEMP-LIM 298.15 6000.00 !
$
$ELEMENT NAME  REF. STATE               ATOMIC MASS H298-H0    S298    !
$
 ELEMENT VA   VACUUM                      0.0          0.0      0.0    ! 
 ELEMENT AU   FCC_A1                    196.9665    6016.592   47.4884 ! 
 ELEMENT YB   FCC_A1                    173.04      6711.136   59.8312 ! 
$ ------------------------------------------------------------------------------
$ Phase definitions
$
 PHASE LIQUID:L % 1 1 !
 CONST LIQUID:L : AU YB : !
$
$ Fcc (cF4) and MeX (cF8)
$
 PHASE FCC_A1 %A 2 1 1 !
 CONST FCC_A1 : AU% YB% : VA : !
$
$ Bcc (cI2, Im-3m)
$
 PHASE BCC_A2 %B 2 1 3 !
 CONST BCC_A2 : AU YB% : VA : !
$
$ Hcp (hP2, P6_3/mmc) and Me2X (NiAs-type, hP4, P6_3/mmc, B8_1), zeta
$
 PHASE HCP_A3 %A 2 1 0.5 !
 CONST HCP_A3 : AU YB : VA : !
$
$ Prototype MoNi4 (tI10, I4/m)
$
 PHASE AU4YB_D1A % 2 4 1 !
 CONST AU4YB_D1A : AU : YB : !
$
$ Prototype Cu3Ti (oP8, Pmmn)
$
 PHASE AU3YB_D0A % 2 3 1 !
 CONST AU3YB_D0A : AU : YB : !
$
$ Prototype MoSi2 (tI6, I4/mmm)
$
 PHASE AU2YB_C11B % 2 2 1 !
 CONST AU2YB_C11B : AU : YB : !
$
$ Prototype FeB (oP8, Pnma)
$
 PHASE AUYB_B27 % 2 1 1 !
 CONST AUYB_B27 : AU : YB : !
$
$ Prototype CsCl (cP2, Pm3m)
$
 PHASE AUYB_B2 % 2 1 1 !
 CONST AUYB_B2 : AU : AU YB% : !
$
$ Prototype Ge4Sm5 (oP36, Pnma)
$
 PHASE AU4YB5 % 2 4 5 !
 CONST AU4YB5 : AU : YB : !
$
$ Prototype Cr5B3 (tI32, I4/mcm)
$
 PHASE AU3YB5_D8L % 2 3 5 !
 CONST AU3YB5_D8L : AU : YB : !
$
$ Prototype Co2Si (oP12, Pnma)
$
 PHASE AUYB2_C37 % 2 1 2 !
 CONST AUYB2_C37 : AU : YB : !
$
$ Prototype Fe3Th7 (hP20, P6_3mc)
$
 PHASE AU3YB7_D102 % 2 3 7 !
 CONST AU3YB7_D102 : AU : YB : !
$ ------------------------------------------------------------------------------
$ Defaults
$
 DEFINE-SYSTEM-DEFAULT ELEMENT 2 !
 DEFAULT-COM DEFINE_SYSTEM_ELEMENT VA !
 TYPE-DEF % SEQ * !
 TYPE-DEF A GES AMEND_PHASE_DESCRIPTION @ MAGNETIC -3 0.28 !
 TYPE-DEF B GES AMEND_PHASE_DESCRIPTION @ MAGNETIC -1 0.4 !
 FUNCTION ZERO      298.15  0;                                         6000 N !
 FUNCTION UN_ASS    298.15  0;                                         6000 N !
 FUNCTION R         298.15  +8.31451;                                  6000 N !
$ ------------------------------------------------------------------------------
$ Element data
$ ------------------------------------------------------------------------------
$ Au
$
$ DHCP added in unary 5.0
$ DHCP replaced by the value from 92Ans in SGSOL 5.0
$
$ HCP_A3 and BCT_A5 from 88Che1 not included in unary
$
$ The DHCP phase is labelled D0_24 in 03Liu and alpha-prime in 92Ans. The
$ phase is present between the fcc and hcp phases in the Au-Sn and Au-In
$ systems. The value for DHCP from 92Ans was used to model these systems,
$ thus this value must be included in the unary database and not the 04Du
$ value.
$
 PAR  G(FCC_A1,AU:VA),,                 +GHSERAU;                3200 N 91Din !
 PAR  G(HCP_A3,AU:VA),,                 +GHSERAU+240.75+1.6*T;   3200 N 91Din !
$PAR  G(HCP_A3,AU:VA),,                 +GHSERAU+550+0.3*T;      3200 N 88Che1 !
 PAR  G(BCC_A2,AU:VA),,                 +GHSERAU+4250-1.1*T;     3200 N 91Din !
$PAR  G(BCT_A5,AU),,                    +GHSERAU+4184;           3200 N 88Che1 !
$PAR  G(DHCP,AU),,                      +GHSERAU+125+0.79*T;     3200 N 92Ans !
$PAR  G(DHCP,AU),,                      +GHSERAU+5000;           3200 N 04Du !
 PAR  G(LIQUID,AU),,                    +GHSERAU
             +12552-9.385866*T;                                  3200 N 91Din !
$
 PAR  G(AUYB_B2,AU:AU),,                +2*GHSERAU+10000;,,           N 16Wan !
$
 FUNCTION GHSERAU   298.15  -6938.856+106.830098*T-22.75455*T*LN(T)
       -0.00385924*T**2+3.79625E-07*T**3-25097*T**(-1);
       929.40  Y  -93586.481+1021.69543*T-155.706745*T*LN(T)
       +0.08756015*T**2-1.1518713E-05*T**3+10637210*T**(-1);
      1337.33  Y  +314067.829-2016.37825*T+263.252259*T*LN(T)
       -0.118216828*T**2+8.923844E-06*T**3-67999832*T**(-1);
      1735.80  Y  -12133.783+165.272524*T-30.9616*T*LN(T);
      3200.00  N !
$ ------------------------------------------------------------------------------
$ Yb
$
$ HCP_A3 added in unary 5.0
$
 PAR  G(FCC_A1,YB:VA),,                 +GHSERYB;                2000 N 91Din !
 PAR  G(BCC_A2,YB:VA),,                 +GBCCYB;                 2000 N 91Din !
 PAR  G(HCP_A3,YB:VA),,                 +GHSERYB+5000;           2000 N 06Guo !
 PAR  G(LIQUID,YB),,                    +GLIQYB;                 2000 N 91Din !
$
 FUNCTION GHSERYB   298.15  -9370.941+189.327664*T-40.0791*T*LN(T)
       +0.04227115*T**2-2.2242E-05*T**3;
       553.00  Y  -8192.154+121.065655*T-26.7591*T*LN(T)-0.00256065*T**2;
      1033.00  Y  +16034.89-89.478241*T+2.7623966*T*LN(T)
       -0.017961331*T**2+1.421719E-06*T**3-3631462*T**(-1);
      2000.00  N !
 FUNCTION GBCCYB    298.15  -965.99-21.293677*T-3.8534432*T*LN(T)
       -0.030009694*T**2+4.743871E-06*T**3-334650*T**(-1);
      1033.00  Y  -13368.113+188.313864*T-36.1079*T*LN(T);
      1097.00  Y  -3911.847+113.174165*T-25.7402233*T*LN(T)
       -0.004743348*T**2+3.63044E-07*T**3-1553668*T**(-1);
      2000.00  N !
 FUNCTION GLIQYB    298.15  +7030.788-40.615571*T-1.8061816*T*LN(T)
       -0.03250938*T**2+5.136665E-06*T**3-370554*T**(-1);
      1033.00  Y  -6445.835+186.690398*T-36.7774*T*LN(T);
      2000.00  N !
 FUNCTION GHCPYB    298.15  +GHSERYB+5000;                             2000 N !
$ ------------------------------------------------------------------------------
$ Binary system
$
$ S.L. Wang, L.J. Zhou, X. Qin, Y.H. Li, J.L. Li, Y. Pan, Y.H. Lin, C.P. Wang,
$ X.J. Liu, Calphad, 53, 90-96(2016).
$
$ Checked against paper and author's tdb. Checked at 6000 K.
$
$ There is a high-T stability range for AuYb-B2 at about x(Yb)=0.3 between
$ 4250 and 5100 K.
$
$ There is inverse miscibility gap with a minimum at 5404 K and x(Yb)=0.59.
$
 PAR  L(LIQUID,AU,YB;0),,               -226000-32*T+7.79*T*LN(T);,,  N 16Wan !
 PAR  L(LIQUID,AU,YB;1),,               -53500-3*T;,,                 N 16Wan !
 PAR  L(LIQUID,AU,YB;2),,               +35300-25*T;,,                N 16Wan !
 PAR  L(LIQUID,AU,YB;3),,               -13050+7*T;,,                 N 16Wan !
$
 PAR  L(FCC_A1,AU,YB:VA;0),,            -137036+13*T;,,               N 16Wan !
 PAR  L(FCC_A1,AU,YB:VA;1),,            -68720-35*T;,,                N 16Wan !
 PAR  L(FCC_A1,AU,YB:VA;2),,            +25950-36*T;,,                N 16Wan !
$
 PAR  L(BCC_A2,AU,YB:VA;0),,            +UN_ASS;,,                    N 16Wan !
$
 PAR  G(AU4YB_D1A,AU:YB),,              +4*GHSERAU+GHSERYB
             -234000+18.8395*T;,,                                     N 16Wan !
 PAR  G(AU3YB_D0A,AU:YB),,              +3*GHSERAU+GHSERYB
             -209504+8.4308*T;,,                                      N 16Wan !
 PAR  G(AU2YB_C11B,AU:YB),,             +2*GHSERAU+GHSERYB
             -170448+0.3294*T;,,                                      N 16Wan !
 PAR  G(AUYB_B27,AU:YB),,               +GHSERAU+GHSERYB
             -140000+29.7282*T;,,                                     N 16Wan !
$
 PAR  G(AUYB_B2,AU:YB),,                +GHSERAU+GHSERYB
             -118000+0.1246*T;,,                                      N 16Wan !
 PAR  L(AUYB_B2,AU:AU,YB;0),,           -32620+62*T-14*T*LN(T);,,     N 16Wan !
$
 PAR  G(AU4YB5,AU:YB),,                 +4*GHSERAU+5*GHSERYB
             -558090+53.6688*T;,,                                     N 16Wan !
 PAR  G(AU3YB5_D8L,AU:YB),,             +3*GHSERAU+5*GHSERYB
             -432000+32.8808*T;,,                                     N 16Wan !
 PAR  G(AUYB2_C37,AU:YB),,              +GHSERAU+2*GHSERYB
             -147600+12.2718*T;,,                                     N 16Wan !
 PAR  G(AU3YB7_D102,AU:YB),,            +3*GHSERAU+7*GHSERYB
             -446500+36.044*T;,,                                      N 16Wan !
$
$ Metastable
$
 PAR  L(HCP_A3,AU,YB:VA;0),,            -137036+13*T;,,               N Same !
 PAR  L(HCP_A3,AU,YB:VA;1),,            -68720-35*T;,,                N Same !
 PAR  L(HCP_A3,AU,YB:VA;2),,            +25950-36*T;,,                N Same !
$ ------------------------------------------------------------------------------
$
$
 LIST-OF-REFERENCE
 NUMBER  SOURCE
  Null   'Unknown source'
  Same   'Same or similar interaction as in the corresponding stable phase'
  COST   'COST 507 database'
  88Che1 'P.-Y. Chevalier, Thermochim. Acta, 130, 1-13(1988); Au, Sn'
  91Din  'A.T. Dinsdale, Calphad, 15, 317-425(1991).'
  92Ans  'I. Ansara, J.-Ph. Nabot, Calphad, 16, 13-18(1992); Au'
  04Du   'Z. Du, C. Guo, D. Lu, J. Alloys Compd., 364, 117-20(2004),
          SGTE unary database V.5.0, 2009; Au'
  06Guo  'C. Guo, Z. Du, J. Alloys Compd., 422, 102-8(2006),
          SGTE unary database V.5.0, 2009; Yb'
  16Wan  'S.L. Wang, L.J. Zhou, X. Qin, Y.H. Li, J.L. Li, Y. Pan, Y.H. Lin,
          C.P. Wang, X.J. Liu, Calphad, 53, 90-96(2016); Au-Yb'
!
