$
$ Database for Fe-Si from V.T. Witusiewicz et al. 2023.
$
$ V.T. Witusiewicz, O. Stryzhyboroda, S. Vinke, K. Bobzin, U. Hecht,
$ J. Alloys Compd., 935, 168118(2023).
$
$ Dataset created 2023.06.04 by Bengt Hallstedt.
$
$ Based on 17Cui. Includes only 2SL bcc ordering. Liquid interaction
$ reoptimised with far too many parameters (with large T-dependence).
$
$ Ambitious modelling with (too?) many parameters.
$
$ The B2 parameters are the same as in 17Cui, but they are used differently.
$
$ 17Cui and 23Wit use the same BMAG for Fe5Si3, but 17Cui for n=8 and 23Wit
$ for n=1 (recalculated to n=8 here).
$
$ Fcc stable also above 3800 K around x(Si)=0.6.
$
$ ------------------------------------------------------------------------------
 TEMP-LIM 298.15 6000.00 !
$
$ELEMENT NAME  REF. STATE               ATOMIC MASS H298-H0    S298    !
$
 ELEMENT VA   VACUUM                      0.0          0.0      0.0    ! 
 ELEMENT FE   BCC_A2                     55.847     4489.0     27.2797 ! 
 ELEMENT SI   DIAMOND_A4                 28.0855    3217.      18.81   ! 
$ ------------------------------------------------------------------------------
$ Phase definitions
$
 PHASE LIQUID:L % 1 1 !
 CONST LIQUID:L : FE SI : !
$
$ Fcc (cF4, Fm-3m) and MeX (cF8, Fm-3m)
$
 PHASE FCC_A1 %A 2 1 1 !
 CONST FCC_A1 : FE SI : VA : !
$
$ Bcc (cI2, Im-3m)
$
 PHASE BCC_A2 %B 2 1 3 !
 CONST BCC_A2 : FE SI : VA : !
$
$ Disordered part of B2_BCC, identical to BCC_A2
$
 PHASE A2_BCC %B 2 1 3 !
 CONST A2_BCC : FE SI : VA : !
$
$ Prototype CsCl (cP2, Pm-3m)
$
 PHASE B2_BCC %BO 3 0.5 0.5 3 !
 CONST B2_BCC : FE% SI : FE SI% : VA : !
$
$ Hcp (hP2, P6_3/mmc) and Me2X (NiAs-type, hP4, P6_3/mmc, B8_1)
$
 PHASE HCP_A3 % 2 1 0.5 !
 CONST HCP_A3 : FE SI : VA : !
$
$ Prototype C (cF8, Fd-3m)
$
 PHASE DIAMOND_A4 % 1 1 !
 CONST DIAMOND_A4 : FE SI% : !
$
$ Prototype AlNi2 (hP6, P-3m1), theta
$
 PHASE FE2SI % 3 1 1 1 !
 CONST FE2SI : FE : FE VA : SI VA : !
$
$ Prototype Mn5Si3 (hP16, P6_3/mcm)
$
 PHASE M5SI3_D88 %A 2 5 3 !
 CONST M5SI3_D88 : FE : SI : !
$
$ Prototype FeSi (cP8, P2_13)
$
 PHASE MSI_B20 % 2 1 1 !
 CONST MSI_B20 : FE% SI : FE SI% : !
$
$ Prototype FeSi2-l (tP3, P4/mmm)
$
 PHASE FESI2_L % 2 1 2 !
 CONST FESI2_L : FE : SI : !
$
$ Prototype FeSi2-h (oC48, Cmca)
$
 PHASE FESI2_H % 2 3 7 !
 CONST FESI2_H : FE% SI : FE SI% : !
$ ------------------------------------------------------------------------------
$ Defaults
$
 DEFINE-SYSTEM-DEFAULT ELEMENT 2 !
 DEFAULT-COM DEFINE_SYSTEM_ELEMENT VA !
 TYPE-DEF % SEQ * !
 TYPE-DEF A GES AMEND_PHASE_DESCRIPTION @ MAGNETIC -3 0.28 !
 TYPE-DEF B GES AMEND_PHASE_DESCRIPTION @ MAGNETIC -1 0.4 !
 TYPE-DEF O GES AMEND_PHASE_DESCRIPTION B2_BCC DIS_PART A2_BCC !
 FUNCTION ZERO      298.15  0;                                         6000 N !
 FUNCTION UN_ASS    298.15  0;                                         6000 N !
 FUNCTION R         298.15  +8.31451;                                  6000 N !
$ ------------------------------------------------------------------------------
$ Element data
$ ------------------------------------------------------------------------------
$ Fe
$
$ ORTHORHOMBIC_A20 and TETRAGONAL_U added im unary 4.1
$ DIAMOND_A4 from 17Cui not included in unary. This value makes no sense.
$ DIAMOND_A4 from 23Wit not included in unary.
$
 PAR  G(BCC_A2,FE:VA),,                 +GHSERFE;,,                   N 91Din !
 PAR  TC(BCC_A2,FE:VA),,                 1043.00;,,                   N 91Din !
 PAR  BM(BCC_A2,FE:VA),,                    2.22;,,                   N 91Din !
 PAR  G(A2_BCC,FE:VA),,                 +GHSERFE;,,                   N 91Din !
 PAR  TC(A2_BCC,FE:VA),,                 1043.00;,,                   N 91Din !
 PAR  BM(A2_BCC,FE:VA),,                    2.22;,,                   N 91Din !
 PAR  G(FCC_A1,FE:VA),,                 +GFCCFE;,,                    N 91Din !
 PAR  TC(FCC_A1,FE:VA),,                 -201.00;,,                   N 91Din !
 PAR  BM(FCC_A1,FE:VA),,                   -2.10;,,                   N 91Din !
 PAR  G(HCP_A3,FE:VA),,                 +GHCPFE;,,                    N 91Din !
$PAR  G(DIAMOND_A4,FE),,                +GHSERFE+1000;,,              N 17Cui !
 PAR  G(DIAMOND_A4,FE),,                +GHSERFE+7500;,,              N 23Wit !
$PAR  G(CBCC_A12,FE:VA),,               +GHSERFE+4745;,,              N 91Din !
$PAR  G(CUB_A13,FE:VA),,                +GHSERFE+3745;,,              N 91Din !
$PAR  G(ORTHORHOMBIC_A20,FE),,          +GHSERFE+5000;,,              N 99SGUN !
$PAR  G(TETRAGONAL_U,FE),,              +GHSERFE+5000;,,              N 99SGUN !
 PAR  G(LIQUID,FE),,                    +GLIQFE;,,                    N 91Din !
$
 PAR  G(FE2SI,FE:FE:VA),,               +2*GHSERFE+15000;,,           N 23Wit !
 PAR  G(FE2SI,FE:VA:VA),,               +GHSERFE+15000;,,             N 23Wit !
 PAR  G(MSI_B20,FE:FE),,                +2*GHSERFE+15000;,,           N 23Wit !
 PAR  G(FESI2_H,FE:FE),,                +10*GHSERFE+50000;,,          N 23Wit !
$
 FUNCTION GHSERFE   298.15  +1225.7+124.134*T-23.5143*T*LN(T)
       -0.00439752*T**2-5.8927E-08*T**3+77359*T**(-1);
      1811.00  Y  -25383.581+299.31255*T-46*T*LN(T)+2.29603E+31*T**(-9);
      6000.00  N !
 FUNCTION GFCCFE    298.15  -1462.4+8.282*T-1.15*T*LN(T)
       +6.4E-04*T**2+GHSERFE;
      1811.00  Y  -1713.815+0.940009*T+GHSERFE+4.9251E+30*T**(-9);
      6000.00  N !
 FUNCTION GHCPFE    298.15  -3705.78+12.591*T-1.15*T*LN(T)
       +6.4E-04*T**2+GHSERFE;
      1811.00  Y  -3957.195+5.249009*T+GHSERFE+4.9251E+30*T**(-9);
      6000.00  N !
 FUNCTION GLIQFE    298.15  +12040.17-6.55843*T+GHSERFE-3.67516E-21*T**7;
      1811.00  Y  -10838.83+291.302*T-46*T*LN(T);
      6000.00  N !
$ ------------------------------------------------------------------------------
$ Si
$
 PAR  G(DIAMOND_A4,SI),,                +GHSERSI;                3600 N 91Din !
 PAR  G(FCC_A1,SI:VA),,                 +GHSERSI+51000-21.8*T;   3600 N 91Din !
 PAR  G(BCC_A2,SI:VA),,                 +GHSERSI+47000-22.5*T;   3600 N 91Din !
 PAR  G(A2_BCC,SI:VA),,                 +GHSERSI+47000-22.5*T;   3600 N 91Din !
 PAR  G(HCP_A3,SI:VA),,                 +GHSERSI+49200-20.8*T;   3600 N 91Din !
$PAR  G(CBCC_A12,SI:VA),,               +GHSERSI+50208-20.377*T; 3600 N 91Din !
$PAR  G(CUB_A13,SI:VA),,                +GHSERSI+47279-20.377*T; 3600 N 91Din !
 PAR  G(LIQUID,SI),,                    +GLIQSI;                 3600 N 91Din !
$
 PAR  G(MSI_B20,SI:SI),,                +2*GHSERSI+42000;,,           N 23Wit !
 PAR  G(FESI2_H,SI:SI),,                +10*GHSERSI+100000;,,         N 23Wit !
$
 FUNCTION GHSERSI   298.15  -8162.609+137.236859*T-22.8317533*T*LN(T)
       -0.001912904*T**2-3.552E-09*T**3+176667*T**(-1);
      1687.00  Y  -9457.642+167.281367*T-27.196*T*LN(T)-4.20369E+30*T**(-9);
      3600.00  N !
 FUNCTION GLIQSI    298.15  +50696.36-30.099439*T+GHSERSI+2.09307E-21*T**7;
      1687.00  Y  +40370.523+137.722298*T-27.196*T*LN(T);
      3600.00  N !
 FUNCTION GBCCSI    298.15  +GHSERSI+47000-22.5*T;               3600 N 91Din !
$ ------------------------------------------------------------------------------
$ Binary system
$
$ V.T. Witusiewicz, O. Stryzhyboroda, S. Vinke, K. Bobzin, U. Hecht,
$ J. Alloys Compd., 935, 168118(2023).
$
$ Checked against paper and author's tdb. Checked at 6000 K.
$
$ Based on 17Cui. Includes only 2SL bcc ordering. Liquid interaction
$ reoptimised with far too many parameters (with large T-dependence).
$
$ Ambitious modelling with (too?) many parameters.
$
$ The B2 parameters are the same as in 17Cui, but they are used differently.
$
$ 17Cui and 23Wit use the same BMAG for Fe5Si3, but 17Cui for n=8 and 23Wit
$ for n=1 (recalculated to n=8 here).
$
$ Fcc stable also above 3800 K around x(Si)=0.6.
$
 PAR  L(LIQUID,FE,SI;0),,               -152591+28.8643*T;,,          N 23Wit !
 PAR  L(LIQUID,FE,SI;1),,               -49878+10.1317*T;,,           N 23Wit !
 PAR  L(LIQUID,FE,SI;2),,               +66820-25.9544*T;,,           N 23Wit !
 PAR  L(LIQUID,FE,SI;3),,               +75750-31.8825*T;,,           N 23Wit !
 PAR  L(LIQUID,FE,SI;4),,               -20180+9.2063*T;,,            N 23Wit !
 PAR  L(LIQUID,FE,SI;5),,               -40000+23.5747*T;,,           N 23Wit !
$
 PAR  L(FCC_A1,FE,SI:VA;0),,            -110240.49-5.6936*T;,,        N 23Wit !
 PAR  L(FCC_A1,FE,SI:VA;1),,            -84776.91+44.33*T;,,          N 17Cui !
 PAR  L(FCC_A1,FE,SI:VA;2),,            +20007.03;,,                  N 17Cui !
$
 PAR  L(BCC_A2,FE,SI:VA;0),,            -149000+28.886*T;,,           N 23Wit !
 PAR  L(BCC_A2,FE,SI:VA;1),,            -63511.47+13.25*T;,,          N 17Cui !
 PAR  L(BCC_A2,FE,SI:VA;2),,            +35727.58;,,                  N 17Cui !
 PAR  TC(BCC_A2,FE,SI:VA;1),,            +504.00;,,                   N 91Lac !
 PAR  BMAG(BCC_A2,FE,SI:VA;0),,            +1.07;,,                   N 12Ohn !
$
 PAR  L(A2_BCC,FE,SI:VA;0),,            -149000+28.886*T;,,           N 23Wit !
 PAR  L(A2_BCC,FE,SI:VA;1),,            -63511.47+13.25*T;,,          N 17Cui !
 PAR  L(A2_BCC,FE,SI:VA;2),,            +35727.58;,,                  N 17Cui !
 PAR  TC(A2_BCC,FE,SI:VA;1),,            +504.00;,,                   N 91Lac !
 PAR  BMAG(A2_BCC,FE,SI:VA;0),,            +1.07;,,                   N 12Ohn !
$
 PAR  G(B2_BCC,FE:SI:VA),,              -10675.2;,,                   N 23Wit !
 PAR  G(B2_BCC,SI:FE:VA),,              -10675.2;,,                   N 23Wit !
 PAR  TC(B2_BCC,FE:SI:VA),,              -210;,,                      N 23Wit !
 PAR  TC(B2_BCC,SI:FE:VA),,              -210;,,                      N 23Wit !
 PAR  BMAG(B2_BCC,FE:SI:VA),,              -0.75;,,                   N 23Wit !
 PAR  BMAG(B2_BCC,SI:FE:VA),,              -0.75;,,                   N 23Wit !
 PAR  L(B2_BCC,FE,SI:FE:VA;0),,         +10675.2;,,                   N 23Wit !
 PAR  L(B2_BCC,FE,SI:SI:VA;0),,         +10675.2;,,                   N 23Wit !
 PAR  L(B2_BCC,FE:FE,SI:VA;0),,         +10675.2;,,                   N 23Wit !
 PAR  L(B2_BCC,SI:FE,SI:VA;0),,         +10675.2;,,                   N 23Wit !
 PAR  TC(B2_BCC,FE,SI:FE:VA;0),,         +210;,,                      N 23Wit !
 PAR  TC(B2_BCC,FE,SI:SI:VA;0),,         +210;,,                      N 23Wit !
 PAR  TC(B2_BCC,FE:FE,SI:VA;0),,         +210;,,                      N 23Wit !
 PAR  TC(B2_BCC,SI:FE,SI:VA;0),,         +210;,,                      N 23Wit !
 PAR  BMAG(B2_BCC,FE,SI:FE:VA;0),,         +0.75;,,                   N 23Wit !
 PAR  BMAG(B2_BCC,FE,SI:SI:VA;0),,         +0.75;,,                   N 23Wit !
 PAR  BMAG(B2_BCC,FE:FE,SI:VA;0),,         +0.75;,,                   N 23Wit !
 PAR  BMAG(B2_BCC,SI:FE,SI:VA;0),,         +0.75;,,                   N 23Wit !
$
 PAR  L(DIAMOND_A4,FE,SI;0),,           +113000-1.4*T;,,              N 23Wit !
$
 PAR  G(FE2SI,FE:FE:SI),,               +2*GHSERFE+GHSERSI
             -72562.37-11.28535*T;,,                                  N 23Wit !
 PAR  G(FE2SI,FE:VA:SI),,               +GHSERFE+GHSERSI+35000;,,     N 23Wit !
 PAR  L(FE2SI,FE:FE,VA:SI;0),,          -148349.57+39.78398*T;,,      N 23Wit !
$
 PAR  G(M5SI3_D88,FE:SI),,              +8*GFE5SI3;,,                 N 23Wit !
 PAR  TC(M5SI3_D88,FE:SI),,               360.00;,,                   N 17Cui !
$PAR  BMAG(M5SI3_D88,FE:SI),,               2.32;,,                   N 17Cui !
 PAR  BMAG(M5SI3_D88,FE:SI),,           14760;,,                      N 23Wit !
$
 PAR  G(MSI_B20,FE:SI),,                +2*GFESI;,,                   N 23Wit !
 PAR  G(MSI_B20,SI:FE),,                +2*GFESI;,,                   N 23Wit !
 PAR  L(MSI_B20,FE:FE,SI;0),,           -30000+17.814*T;,,            N 23Wit !
$
 PAR  G(FESI2_L,FE:SI),,                +3*GFESI2L;,,                 N 23Wit !
$
 PAR  G(FESI2_H,FE:SI),,                -308662.3+1273.319*T
             -214.218*T*LN(T)-0.05496*T**2+3.8389E-06*T**3
             +1172853.45*T**(-1);,,                                   N 23Wit !
 PAR  G(FESI2_H,SI:FE),,                +3*GHSERSI+7*GHSERFE+50000;,, N 23Wit !
 PAR  L(FESI2_H,FE,SI:SI;0),,           -10000;,,                     N 23Wit !
 PAR  L(FESI2_H,FE:FE,SI;0),,           -450000;,,                    N 23Wit !
$
$ Metastable
$
 PAR  L(HCP_A3,FE,SI:VA;0),,            -110240.49-5.6936*T;,,        N Same !
 PAR  L(HCP_A3,FE,SI:VA;1),,            -84776.91+44.33*T;,,          N Same !
 PAR  L(HCP_A3,FE,SI:VA;2),,            +20007.03;,,                  N Same !
$
 FUNCTION GFE5SI3   298.15  -34886.084+132.3532*T-23.2499*T*LN(T)
       -0.00537*T**2+5.5513E-09*T**3+66110.28*T**(-1);
      3600.00  N !
 FUNCTION GFESI     298.15  -44218.53+142.6233*T-24.285*T*LN(T)
       -0.003681*T**2+1.4593E-07*T**3+107055*T**(-1);
      3600.00  N !
$FUNCTION GFESI2L   298.15  -36681.25+156.0859*T-26.3433*T*LN(T)
$      +0.0030243*T**2-9.9033E-07*T**3+166501.51*T**(-1);
$     3600.00  N !
$ Correction for compositional rounding error below
 FUNCTION GFESI2L   298.15  -36708.9+156.0859*T-26.3433*T*LN(T)
       +0.0030243*T**2-9.9033E-07*T**3+166501.51*T**(-1);
      3600.00  N !
$ ------------------------------------------------------------------------------
$
 ASSESSED_SYSTEM
  FE-SI(TDB -* +LIQUID +FCC_A1 +A2_BCC +B2_BCC +MSI_B20 +FE2SI +M5SI3_D88
  +FESI2_H +FESI2_L +DIAMOND ;P3 TMM:300/2300 STP:0.4/700/1 STP:.01/1500/1) !
$
$
 LIST-OF-REFERENCE
 NUMBER  SOURCE
  Null   'Unknown source'
  Same   'Same or similar interaction as in the corresponding stable phase'
  91Din  'A.T. Dinsdale, Calphad, 15, 317-425(1991).'
  91Lac  'J. Lacaze, B. Sundman,
          Metall. Mater. Trans. A, 22A, 2211-23(1991); Fe-Si'
  99SGUN 'SGTE unary database V.4.1, 1999.'
  12Ohn  'I. Ohnuma, S. Abe, S. Shimenouchi, T. Omori, R. Kainuma, K. Ishida,
          ISIJ Int., 52, 540-48(2012); Fe-Si'
  17Cui  'S. Cui, I.-H. Jung, Calphad, 56, 108-25(2017); Fe, Fe-Si'
  23Wit  'V.T. Witusiewicz, O. Stryzhyboroda, S. Vinke, K. Bobzin, U. Hecht,
          J. Alloys Compd., 935, 168118(2023); Fe, Fe-Si'
!
