$
$ Database for Gd-Ni from Z. Rahou and K. Mahdouk 2015
$
$ Z. Rahou, K. Mahdouk, J. Alloys Compd., 648, 346-52(2015).
$
$ Dataset created 2018.01.11 by Bengt Hallstedt.
$ 2021.01.03: Modified for use with GES6.
$
$ There is an inverse miscibility gap with a minimum at 4943 K and x(Ni)=0.35.
$
$ In the paper only two decimals for the composition of the phases are used.
$ This results in rather large rounding errors and differences in invariant
$ equilibria. The dataset is not good enough to make it worth fixing.
$
$ ------------------------------------------------------------------------------
 TEMP-LIM 298.15 6000.00 !
$
$ELEMENT NAME  REF. STATE               ATOMIC MASS H298-H0    S298    !
$
 ELEMENT VA   VACUUM                      0.0          0.0      0.0    ! 
 ELEMENT GD   HCP_A3                    157.25      9087.648   68.0894 ! 
 ELEMENT NI   FCC_A1                     58.69      4787.0     29.7955 ! 
$ ------------------------------------------------------------------------------
$ Phase definitions
$
 PHASE LIQUID:L % 1 1 !
 CONST LIQUID:L : GD NI : !
$
$ Fcc (cF4, Fm-3m) and MeX (cF8, Fm-3m)
$
 PHASE FCC_A1 %A 2 1 1 !
 CONST FCC_A1 : GD NI% : VA : !
$
$ Bcc (cI2, Im-3m)
$
 PHASE BCC_A2 %B 2 1 3 !
 CONST BCC_A2 : GD% NI : VA : !
$
$ Hcp (hP2, P6_3/mmc) and Me2X (NiAs-type, hP4, P6_3/mmc, B8_1)
$
 PHASE HCP_A3 % 2 1 0.5 !
 CONST HCP_A3 : GD% NI : VA : !
$
$ Prototype Fe3C (oP16, Pnma)
$
 PHASE GD3NI_D011 % 2 3 1 !
 CONST GD3NI_D011 : GD : NI : !
$
$ unknown structure
$
 PHASE GD3NI_HT % 2 3 1 !
 CONST GD3NI_HT : GD : NI : !
$
$ Prototype CrB (oC8, Cmcm)
$
 PHASE GDNI_B33 % 2 1 1 !
 CONST GDNI_B33 : GD : NI : !
$
$ Prototype Cu2Mg (cF24, Fd-3m)
$
 PHASE GDNI2_C15 % 2 1 2 !
 CONST GDNI2_C15 : GD : NI : !
$
$ Prototype Ni3Pu (hR12, R-3m)
$
 PHASE GDNI3 % 2 1 3 !
 CONST GDNI3 : GD : NI : !
$
$ Prototype Co7Gd2 (hR18, R-3m, low T) and Ce2Ni7 (hP36, P6_3/mmc, high T)
$
 PHASE GD2NI7 % 2 2 7 !
 CONST GD2NI7 : GD : NI : !
$
$ Prototype CaCu5 (hP6, P6/mmm)
$
 PHASE GDNI5_D2D % 2 1 5 !
 CONST GDNI5_D2D : GD : NI : !
$
$ Prototype Ni17Th2 (hP38, P6_3/mmc)
$
 PHASE GD2NI17 % 2 2 17 !
 CONST GD2NI17 : GD : NI : !
$ ------------------------------------------------------------------------------
$ Defaults
$
 DEFINE-SYSTEM-DEFAULT ELEMENT 2 !
 DEFAULT-COM DEFINE_SYSTEM_ELEMENT VA !
 TYPE-DEF % SEQ * !
 TYPE-DEF A GES AMEND_PHASE_DESCRIPTION @ MAGNETIC -3 0.28 !
 TYPE-DEF B GES AMEND_PHASE_DESCRIPTION @ MAGNETIC -1 0.4 !
 FUNCTION ZERO      298.15  0;                                         6000 N !
 FUNCTION UN_ASS    298.15  0;                                         6000 N !
 FUNCTION R         298.15  +8.31451;                                  6000 N !
$ ------------------------------------------------------------------------------
$ Element data
$ ------------------------------------------------------------------------------
$ Gd
$
$ HCP_A3, BCC_A2 and LIQUID revised in unary 3.0
$ Small correction made to top two temperature ranges of bcc_A2 to ensure 
$ continuity in Gibbs energy, AD, Dec 2002
$ FCC_A1 added in unary 4.4
$
$ FCC_A1 from 03Cac not included in unary
$
 PAR  G(HCP_A3,GD:VA)           200.00  +GHSERGD;                3600 N 95She2 !
 PAR  TC(HCP_A3,GD:VA)          200.00    293.4;                 3600 N 95She2 !
 PAR  BM(HCP_A3,GD:VA)          200.00      3.0;                 3600 N 95She2 !
$PAR  TC(HCP_A3,GD:VA)          200.00    291.8;                 3600 N 91Din !
$PAR  BMAGN(HCP_A3,GD:VA)       200.00      3.0;                 3600 N 91Din !
 PAR  G(FCC_A1,GD:VA)           200.00  +GHSERGD+500;            3600 N 00Zin !
$PAR  G(FCC_A1,GD:VA)           200.00  +GHSERGD
$            +1800-0.831451*T;                                   3600 N 03Cac !
 PAR  G(BCC_A2,GD:VA)           200.00  +GBCCGD;                 3600 N 95She2 !
 PAR  G(LIQUID,GD)              200.00  +GLIQGD;                 3600 N 95She2 !
$
 FUNCTION GHSERGD   200.00  -6834.5855+97.13101*T-24.7214131*T*LN(T)
       -0.00285240521*T**2-3.14674076E-07*T**3-8665.73348*T**(-1);
      1000.00  Y  -6483.25362+95.6919924*T-24.6598297*T*LN(T)
       -0.00185225011*T**2-6.61211607E-07*T**3;
      1508.15  Y  -123124.992+699.125537*T-101.800197*T*LN(T)
       +0.0150644246*T**2-6.39165948E-07*T**3+29356890.3*T**(-1);
      3600.00  N !
 FUNCTION GBCCGD    200.00  +3233.80866-2.11184585*T+GHSERGD;
      1000.00  Y  +152792.743-1349.58873*T+180.097094*T*LN(T)
       -0.119550229*T**2+1.17915728E-05*T**3-22038836*T**(-1);
      1508.15  Y  -15783.7618+202.222183*T-38.960425*T*LN(T);
      1586.15  Y  -19850.5562+224.818035*T-41.904333*T*LN(T)
       +8.58222759E-04*T**2-3.77570269E-08*T**3+995428.573*T**(-1);
      3600.00  N !
 FUNCTION GLIQGD    200.00  +13060.0262-8.32179974*T+GHSERGD;
      1000.00  Y  +146262.037-1208.70685*T+159.352082*T*LN(T)
       -0.108247135*T**2+1.06945505E-05*T**3-19678357*T**(-1);
      1508.15  Y  -5397.314+192.336215*T-38.5075*T*LN(T);
      3600.00  N !
$ ------------------------------------------------------------------------------
$ Ni
$
$ FCC_A1 and LIQUID modified in unary 5.0 (slight change in upper T interval)
$ BCT_A5 added in unary 5.0
$
 PAR  G(FCC_A1,NI:VA),,                 +GHSERNI;                3000 N 91Din !
 PAR  TC(FCC_A1,NI:VA),,                  633.00;                3000 N 91Din !
 PAR  BM(FCC_A1,NI:VA),,                    0.52;                3000 N 91Din !
 PAR  G(BCC_A2,NI:VA),,                 +GHSERNI
             +8715.084-3.556*T;                                  3000 N 91Din !
 PAR  TC(BCC_A2,NI:VA),,                  575.00;                3000 N 91Din !
 PAR  BM(BCC_A2,NI:VA),,                    0.85;                3000 N 91Din !
 PAR  G(HCP_A3,NI:VA),,                 +GHSERNI+1046+1.255*T;   3000 N 91Din !
 PAR  TC(HCP_A3,NI:VA),,                  633.00;                3000 N 91Din !
 PAR  BM(HCP_A3,NI:VA),,                    0.52;                3000 N 91Din !
$PAR  G(BCT_A5,NI),,                    +GHSERNI+10023-4.556*T;  3000 N 99Gho !
$PAR  G(CUB_A13,NI:VA),,                +GHSERNI+2092;           3000 N 91Din !
$PAR  G(CBCC_A12,NI:VA),,               +GHSERNI+3556;           3000 N 91Din !
 PAR  G(LIQUID,NI),,                    +GLIQNI;                 3000 N 91Din !
$
 FUNCTION GHSERNI   298.15  -5179.159+117.854*T-22.096*T*LN(T)-0.0048407*T**2;
      1728.00  Y  -27840.62+279.134977*T-43.1*T*LN(T)+1.12754E+31*T**(-9);
      3000.00  N !
 FUNCTION GLIQNI    298.15  +16414.686-9.397*T+GHSERNI-3.82318E-21*T**7;
      1728.00  Y  -9549.817+268.597977*T-43.1*T*LN(T);
      3000.00  N !
 FUNCTION GBCCNI    298.15  +GHSERNI+8715.084-3.556*T;                 6000 N !
$ ------------------------------------------------------------------------------
$ Binary system
$
$ Z. Rahou, K. Mahdouk, J. Alloys Compd., 648, 346-52(2015).
$
$ Checked against paper. Checked at 6000 K.
$
$ There is an inverse miscibility gap with a minimum at 2994 K and x(Ni)=0.93.
$
$ In the paper only two decimals for the composition of the phases are used.
$ This results in rather large rounding errors and differences in invariant
$ equilibria. The dataset is not good enough to make it worth fixing.
$
 PAR  L(LIQUID,GD,NI;0),,               -155033.136+61.479*T;,,       N 15Rah !
 PAR  L(LIQUID,GD,NI;1),,               +85320.912-36.759*T;,,        N 15Rah !
$
 PAR  L(FCC_A1,GD,NI:VA;0),,            +10000;,,                     N 15Rah !
 PAR  L(BCC_A2,GD,NI:VA;0),,            +10000;,,                     N 15Rah !
 PAR  L(HCP_A3,GD,NI:VA;0),,            +10000;,,                     N 15Rah !
$
 PAR  G(GD3NI_D011,GD:NI),,             +3*GHSERGD+GHSERNI
             -66644+14.92*T;,,                                        N 15Rah !
 PAR  G(GD3NI_HT,GD:NI),,               +3*GHSERGD+GHSERNI
             -65216+13.352*T;,,                                       N 15Rah !
 PAR  G(GDNI_B33,GD:NI),,               +GHSERGD+GHSERNI
             -62852+13.442*T;,,                                       N 15Rah !
 PAR  G(GDNI2_C15,GD:NI),,              +GHSERGD+2*GHSERNI
             -108045+29.316*T;,,                                      N 15Rah !
 PAR  G(GDNI3,GD:NI),,                  +GHSERGD+3*GHSERNI
             -140508+40.048*T;,,                                      N 15Rah !
 PAR  G(GD2NI7,GD:NI),,                 +2*GHSERGD+7*GHSERNI
             -313371+93.105*T;,,                                      N 15Rah !
 PAR  G(GDNI5_D2D,GD:NI),,              +GHSERGD+5*GHSERNI
             -178602+49.626*T;,,                                      N 15Rah !
 PAR  G(GD2NI17,GD:NI),,                +2*GHSERGD+17*GHSERNI
             -406676+134.197*T;,,                                     N 15Rah !
$ ------------------------------------------------------------------------------
$
$
 LIST-OF-REFERENCE
 NUMBER  SOURCE
  Null   'Unknown source'
  Same   'Same or similar interaction as in the corresponding stable phase'
  REFLAV 'Laves phase convention: G(LAVES,X:X)=+3*GHSERXX+15000'
  91Din  'A.T. Dinsdale, Calphad, 15, 317-425(1991).'
  95She2 'H. Shen, W. Zhang, G. Liu, R. Wang, Z. Du, Report F-95-02,
          University of Science and Technology, Beijing, May 1995,
          SGTE unary database V.3.0, 1996; Gd'
  99Gho  'G. Ghosh, Metall. Mater. Trans. A, 30A, 1481-94(1999),
          SGTE unary database V.5.0, 2009; Ni'
  00Zin  'M. Zinkevich, N. Mattern, H. J Seifert,
          J. Phase Equilib., 21, 385-94(2000),
          SGTE unary database V.4.4, 2001; Gd'
  03Cac  'G. Cacciamani, S. De Negri, A. Saccone, R. Ferro,
          Intermetallics, 11, 1135-51(2003); Gd'
  15Rah  'Z. Rahou, K. Mahdouk, J. Alloys Compd., 648, 346-52(2015); Gd-Ni'
!
