$
$ Database for Fe-C from M. Saeki et al. 2020.
$
$ M. Saeki, T. Yamashita, H. Ohtani, ISIJ Int., 60, 745-55(2020).
$
$ Dataset created 2021.09.12 by Bengt Hallstedt.
$
$ Based on 85Gus with new modelling for fcc and bcc.
$
$ There are substantial shifts in the fcc solidus and liquidus and the
$ peritectic and eutectic temperatures. This is probably outside the
$ acceptable range.
$
$ There is an inverse miscibility gap in the liquid with a minimum at
$ 5559 K and x(C)=0.53.
$
$ ------------------------------------------------------------------------------
 TEMP-LIM 298.15 6000.00 !
$
$ELEMENT NAME  REF. STATE               ATOMIC MASS H298-H0    S298    !
$
 ELEMENT VA   VACUUM                      0.0          0.0      0.0    ! 
 ELEMENT C    GRAPHITE                   12.011     1054.0      5.7423 ! 
 ELEMENT FE   BCC_A2                     55.847     4489.0     27.2797 ! 
$ ------------------------------------------------------------------------------
$ Phase definitions
$
 PHASE LIQUID:L % 1 1 !
 CONST LIQUID:L : C FE : !
$
$ Fcc (cF4, Fm-3m) and MeX (cF8, Fm-3m)
$
 PHASE FCC_A1 %A 2 1 1 !
 CONST FCC_A1 : FE : C VA% : !
$
$ Bcc (cI2, Im-3m)
$
 PHASE BCC_A2 %B 2 1 3 !
 CONST BCC_A2 : FE : C VA% : !
$
$ Hcp (hP2, P6_3/mmc) and Me2X (NiAs-type, hP4, P6_3/mmc, B8_1)
$
 PHASE HCP_A3 % 2 1 0.5 !
 CONST HCP_A3 : FE : C VA% : !
$
$ Prototype C (cF8, Fd-3m)
$
 PHASE DIAMOND_A4 % 1 1 !
 CONST DIAMOND_A4 : C : !
$
$ Prototype C (hP4, P6_3/mmc)
$
 PHASE GRAPHITE_A9 % 1 1 !
 CONST GRAPHITE_A9 : C : !
$
$ Prototype Fe3C (oP16, Pnma)
$
 PHASE CEMENTITE_D011 % 2 3 1 !
 CONST CEMENTITE_D011 : FE : C : !
$ ------------------------------------------------------------------------------
$ Defaults
$
 DEFINE-SYSTEM-DEFAULT ELEMENT 2 !
 DEFAULT-COM DEFINE_SYSTEM_ELEMENT VA !
 TYPE-DEF % SEQ * !
 TYPE-DEF A GES AMEND_PHASE_DESCRIPTION @ MAGNETIC -3 0.28 !
 TYPE-DEF B GES AMEND_PHASE_DESCRIPTION @ MAGNETIC -1 0.4 !
 FUNCTION ZERO      298.15  0;                                         6000 N !
 FUNCTION UN_ASS    298.15  0;                                         6000 N !
 FUNCTION R         298.15  +8.31451;                                  6000 N !
$ ------------------------------------------------------------------------------
$ Element data
$ ------------------------------------------------------------------------------
$ C
$
 PAR  G(GRAPHITE_A9,C),,                +GHSERCC;,,                   N 91Din !
 PAR  G(DIAMOND_A4,C),,                 +GDIACC;,,                    N 91Din !
 PAR  G(LIQUID,C),,                     +GHSERCC+117369-24.63*T;,,    N 91Din !
$
 FUNCTION GHSERCC   298.15  -17368.441+170.73*T-24.3*T*LN(T)
       -4.723E-04*T**2+2562600*T**(-1)-2.643E+08*T**(-2)+1.2E+10*T**(-3);
      6000.00  N !
 FUNCTION GDIACC    298.15  -16359.441+175.61*T-24.31*T*LN(T)
       -4.723E-04*T**2+2698000*T**(-1)-2.61E+08*T**(-2)+1.11E+10*T**(-3);
      6000.00  N !
$ ------------------------------------------------------------------------------
$ Fe
$
$ ORTHORHOMBIC_A20 and TETRAGONAL_U added im unary 4.1
$
 PAR  G(BCC_A2,FE:VA),,                 +GHSERFE;,,                   N 91Din !
 PAR  TC(BCC_A2,FE:VA),,                 1043.00;,,                   N 91Din !
 PAR  BM(BCC_A2,FE:VA),,                    2.22;,,                   N 91Din !
 PAR  G(FCC_A1,FE:VA),,                 +GFCCFE;,,                    N 91Din !
 PAR  TC(FCC_A1,FE:VA),,                 -201.00;,,                   N 91Din !
 PAR  BM(FCC_A1,FE:VA),,                   -2.10;,,                   N 91Din !
 PAR  G(HCP_A3,FE:VA),,                 +GHCPFE;,,                    N 91Din !
$PAR  G(CBCC_A12,FE:VA),,               +GHSERFE+4745;,,              N 91Din !
$PAR  G(CUB_A13,FE:VA),,                +GHSERFE+3745;,,              N 91Din !
$PAR  G(ORTHORHOMBIC_A20,FE),,          +GHSERFE+5000;,,              N 99SGUN !
$PAR  G(TETRAGONAL_U,FE),,              +GHSERFE+5000;,,              N 99SGUN !
 PAR  G(LIQUID,FE),,                    +GLIQFE;,,                    N 91Din !
$
 FUNCTION GHSERFE   298.15  +1225.7+124.134*T-23.5143*T*LN(T)
       -0.00439752*T**2-5.8927E-08*T**3+77359*T**(-1);
      1811.00  Y  -25383.581+299.31255*T-46*T*LN(T)+2.29603E+31*T**(-9);
      6000.00  N !
 FUNCTION GFCCFE    298.15  -1462.4+8.282*T-1.15*T*LN(T)
       +6.4E-04*T**2+GHSERFE;
      1811.00  Y  -1713.815+0.940009*T+GHSERFE+4.9251E+30*T**(-9);
      6000.00  N !
 FUNCTION GHCPFE    298.15  -3705.78+12.591*T-1.15*T*LN(T)
       +6.4E-04*T**2+GHSERFE;
      1811.00  Y  -3957.195+5.249009*T+GHSERFE+4.9251E+30*T**(-9);
      6000.00  N !
 FUNCTION GLIQFE    298.15  +12040.17-6.55843*T+GHSERFE-3.67516E-21*T**7;
      1811.00  Y  -10838.83+291.302*T-46*T*LN(T);
      6000.00  N !
$ ------------------------------------------------------------------------------
$ Binary system
$
$ M. Saeki, T. Yamashita, H. Ohtani, ISIJ Int., 60, 745-55(2020).
$
$ Checked against paper. Checked at 6000 K.
$
$ Based on 85Gus with new modelling for fcc and bcc.
$
$ There are substantial shifts in the fcc solidus and liquidus and the
$ peritectic and eutectic temperatures. This is probably outside the
$ acceptable range.
$
$ There is an inverse miscibility gap in the liquid with a minimum at
$ 5559 K and x(C)=0.53.
$
 PAR  L(LIQUID,C,FE;0),,                -124320+28.5*T;,,             N 85Gus !
 PAR  L(LIQUID,C,FE;1),,                +19300;,,                     N 85Gus !
 PAR  L(LIQUID,C,FE;2),,                +49260-19*T;,,                N 85Gus !
$
 PAR  G(BCC_A2,FE:C),,                  +GHSERFE+3*GHSERCC
             +856440-109.464*T+14.253*T*LN(T)+0.014*T**2;,,           N 20Sae !
 PAR  TC(BCC_A2,FE:C),,                  1043.00;,,                   N 85Gus !
 PAR  BM(BCC_A2,FE:C),,                     2.22;,,                   N 85Gus !
 PAR  L(BCC_A2,FE:C,VA;0),,             -735989.212+52.973*T;,,       N 20Sae !
 PAR  L(BCC_A2,FE:C,VA;1),,             -5196.62+9.385*T;,,           N 20Sae !
 PAR  L(BCC_A2,FE:C,VA;2),,             +214766.13-179.487*T;,,       N 20Sae !
$
 PAR  G(FCC_A1,FE:C),,                  +GFCCFE+GHSERCC
             +109651+8.2817*T-1.1365*T*LN(T)+0.00436*T**2;,,          N 20Sae !
 PAR  TC(FCC_A1,FE:C),,                  -201.00;,,                   N 85Gus !
 PAR  BM(FCC_A1,FE:C),,                    -2.10;,,                   N 85Gus !
 PAR  L(FCC_A1,FE:C,VA;0),,             -107953.968-19.196*T;,,       N 20Sae !
 PAR  L(FCC_A1,FE:C,VA;1),,             -108062.024+51.399*T;,,       N 20Sae !
 PAR  L(FCC_A1,FE:C,VA;2),,             -70710.717+52.69*T;,,         N 20Sae !
$
 PAR  G(CEMENTITE_D011,FE:C),,          +GFECEM;,,                    N 85Gus !
$
$ metastable
$
 PAR  G(HCP_A3,FE:C),,                  +GFCCFE+0.5*GHSERCC
             +52905-11.9075*T;,,                                      N 88And2 !
 PAR  L(HCP_A3,FE:C,VA;0),,             -17335;,,                     N 88And2 !
$
$PAR  G(CBCC_A12,FE:C),,                +GHSERFE+GHSERCC+80000;,,     N 90Hua2 !
$PAR  L(CBCC_A12,FE:C,VA;0),,           -34671;,,                     N 90Hua2 !
$
$PAR  G(CUB_A13,FE:C),,                 +GHSERFE+GHSERCC+90000;,,     N 90Hua2 !
$PAR  L(CUB_A13,FE:C,VA;0),,            -34671;,,                     N 90Hua2 !
$PAR  G(M7C3_D101,FE:C),,               +7*GHSERFE+3*GHSERCC
$            +75000-48.2168*T;,,                                      N 92Lee !
$PAR  G(M7C3_D101,FE:C),,               +2.333333*GFECEM
$            +0.666667*GHSERCC+13200;,,                               N 11Dju !
$PAR  G(M23C6_D84,FE:FE:C),,            +GFEM23C6;,,                  N 11Dju !
$PAR  G(M5C2,FE:C),,                    +5*GHSERFE+2*GHSERCC
$            +54852-33.7518*T;,,                                      N 93Lee2 !
$PAR  G(M5C2,FE:C),,                    +1.666667*GFECEM
$            +0.333333*GHSERCC+6200;,,                                N 11Dju !
$PAR  G(FE4N_L1,FE:C),,                 +4*GHSERFE+GHSERCC+23224;,,   N 91Du !
$PAR  G(FECN_CHI,FE:C),,                +2.2*GHSERFE+GHSERCC
$            +9131-4.539*T;,,                                         N 91Du !
$PAR  G(KSI_CARBIDE,FE:C),,             +3*GHSERFE+GHSERCC
$            +14540+20*T;,,                                           N 88And2 !
$PAR  G(V3C2,FE:C),,                    +7250+741.566*T
$            -125.833*T*LN(T)+779485*T**(-1);,,                       N 91Hua4 !
$
 FUNCTION GFECEM    298.15  -10745+706.04*T-120.6*T*LN(T);             6000 N ! 
$ Function from 88And3 below
$FUNCTION GFEM23C6  298.15  +7.666667*GFECEM-1.666667*GHSERCC
$      +66920-40*T;
$     6000.00  N !
$FUNCTION GFEM23C6  298.15  +7.666667*GFECEM-1.666667*GHSERCC+15000;   6000 N !
$ ------------------------------------------------------------------------------
$
 ASSESSED_SYSTEM
  C-FE(TDB -* +LIQ +FCC_A1 +BCC_A2 +CEMEN_D011 +GRAP ;P3 STP:.99/1100) !
$
$
 LIST-OF-REFERENCE
 NUMBER  SOURCE
  Null   'Unknown source'
  85Gus  'P. Gustafson, Scand. J. Metall., 14, 259-67(1985); Fe-C'
  88And2 'J.-O. Andersson, Calphad, 12, 9-23(1988); Fe-Mo-C'
  88And3 'J.-O. Andersson, Metall. Trans A, 19A, 627-36(1988); Cr-Fe-C'
  90Hua2 'W. Huang, Metall. Trans. A, 21A, 2115-23(1990); Fe-Mn-C'
  91Din  'A.T. Dinsdale, Calphad, 15, 317-425(1991).'
  91Du   'H. Du, M. Hillert, Z. Metallkd., 82, 310-16(1991); Fe-C-N'
  91Hua4 'W. Huang, Metall. Trans. A, 22A, 1911-20(1991); Fe-Mn-V-C'
  92Lee1 'B.-J. Lee, Calphad, 16, 121-49(1992); Cr-C, Cr-Fe-C'
  93Lee2 'B.-J. Lee, Metall. Trans. A, 24A, 1017-25 (1993); Cr-Fe-Mn-C'
  99SGUN 'SGTE unary database V.4.1, 1999.'
  11Dju  'D. Djurovic, B. Hallstedt, J. von Appen, R. Dronskowski,
          Calphad, 35, 479-91(2011); Fe-Mn, Fe-Mn-C'
  20Sae  'M. Saeki, T. Yamashita, H. Ohtani, ISIJ Int., 60, 745-55(2020); Fe-C'
!
