$
$ Database for Ni-Zr from T. Tokunaga et al. 2007
$
$ T. Tokunaga, S. Matsumoto, H. Ohtani, M. Hasebe,
$ Mater. Trans. JIM, 48, 2263-71(2007).
$
$ Dataset created 2011.04.01 by Bengt Hallstedt.
$ 2021.02.02: Modified for use with GES6.
$
$ Modified from G. Ghosh 1994.
$
$ This dataset is also published in T. Tokunaga et al., J. Japan Inst. Met.,
$ 70, 741-49(2006).
$
$ In a tdb from NIMS hcp-Zr is used instead of bcc-Zr as reference for the
$ intermetallic compounds, leading to too low melting temperatures.
$
$ There is an inverse miscibility gap with a minimum at 4040 K and x(Zr)=0.91.
$
$ ------------------------------------------------------------------------------
 TEMP-LIM 298.15 6000.00 !
$
$ELEMENT NAME  REF. STATE               ATOMIC MASS H298-H0    S298    !
$
 ELEMENT VA   VACUUM                      0.0          0.0      0.0    ! 
 ELEMENT NI   FCC_A1                     58.69      4787.0     29.7955 ! 
 ELEMENT ZR   HCP_A3                     91.22      5566.27    39.1809 ! 
$ ------------------------------------------------------------------------------
$ Phase definitions
$
 PHASE LIQUID:L % 1 1 !
 CONST LIQUID:L : NI ZR : !
$
$ Fcc (cF4, Fm-3m) and MeX (cF8, Fm-3m)
$
 PHASE FCC_A1 %A 2 1 1 !
 CONST FCC_A1 : NI% ZR : VA : !
$
$ Bcc (cI2, Im-3m)
$
 PHASE BCC_A2 %B 2 1 3 !
 CONST BCC_A2 : NI ZR% : VA : !
$
$ Hcp (hP2, P6_3/mmc) and Me2X (NiAs-type, hP4, P6_3/mmc, B8_1)
$
 PHASE HCP_A3 %A 2 1 0.5 !
 CONST HCP_A3 : NI ZR% : VA : !
$
$ Prototype AuBe5 (cF24, F-43m)
$
 PHASE NI5ZR_C15B % 2 0.833 0.167 !
 CONST NI5ZR_C15B : NI% ZR : VA ZR% : ! 
$
$ Prototype Ni7Zr2 (mC36, C2/m)
$
 PHASE NI7ZR2 % 2 0.78 0.22 !
 CONST NI7ZR2 : NI : ZR : !
$
$ Prototype CdMg3 (hP8, P6_3/mmc)
$
 PHASE NI3ZR_D019 % 2 0.75 0.25 !
 CONST NI3ZR_D019 : NI% ZR : VA ZR% : !
$
$ Prototype Hf8Ni21 (aP29, P-1)
$
 PHASE NI21ZR8 % 2 0.725 0.275 !
 CONST NI21ZR8 : NI : ZR : !
$
$ Prototype Ni10Zr7 (oC68, Cmca)
$
 PHASE NI10ZR7 % 2 0.575 0.425 !
 CONST NI10ZR7 : NI% ZR : VA ZR% : !
$
$ Prototype Pt11Zr9 (tI40, I4/m)
$
 PHASE NI11ZR9 % 2 0.55 0.45 !
 CONST NI11ZR9 : NI : ZR : !
$
$ Prototype CrB (oC8, Cmcm)
$
 PHASE NIZR_B33 % 2 0.5 0.5 !
 CONST NIZR_B33 : NI : ZR : !
$
$ Prototype Al2Cu (tI12, I4/mcm)
$
 PHASE NIZR2_C16 % 2 0.333 0.667 !
 CONST NIZR2_C16 : NI : ZR : !
$ ------------------------------------------------------------------------------
$ Defaults
$
 DEFINE-SYSTEM-DEFAULT ELEMENT 2 !
 DEFAULT-COM DEFINE_SYSTEM_ELEMENT VA !
 TYPE-DEF % SEQ * !
 TYPE-DEF A GES AMEND_PHASE_DESCRIPTION @ MAGNETIC -3 0.28 !
 TYPE-DEF B GES AMEND_PHASE_DESCRIPTION @ MAGNETIC -1 0.4 !
 FUNCTION ZERO      298.15  0;                                         6000 N !
 FUNCTION UN_ASS    298.15  0;                                         6000 N !
 FUNCTION R         298.15  +8.31451;                                  6000 N !
$ ------------------------------------------------------------------------------
$ Element data
$ ------------------------------------------------------------------------------
$ Ni
$
$ FCC_A1 and LIQUID modified in unary 5.0 (slight change in upper T interval)
$ BCT_A5 added in unary 5.0
$
 PAR  G(FCC_A1,NI:VA),,                 +GHSERNI;                3000 N 91Din !
 PAR  TC(FCC_A1,NI:VA),,                  633.00;                3000 N 91Din !
 PAR  BM(FCC_A1,NI:VA),,                    0.52;                3000 N 91Din !
 PAR  G(BCC_A2,NI:VA),,                 +GHSERNI
             +8715.084-3.556*T;                                  3000 N 91Din !
 PAR  TC(BCC_A2,NI:VA),,                  575.00;                3000 N 91Din !
 PAR  BM(BCC_A2,NI:VA),,                    0.85;                3000 N 91Din !
 PAR  G(HCP_A3,NI:VA),,                 +GHSERNI+1046+1.255*T;   3000 N 91Din !
 PAR  TC(HCP_A3,NI:VA),,                  633.00;                3000 N 91Din !
 PAR  BM(HCP_A3,NI:VA),,                    0.52;                3000 N 91Din !
$PAR  G(BCT_A5,NI),,                    +GHSERNI+10023-4.556*T;  3000 N 99Gho !
$PAR  G(CBCC_A12,NI:VA),,               +GHSERNI+3556;           3000 N 91Din !
$PAR  G(CUB_A13,NI:VA),,                +GHSERNI+2092;           3000 N 91Din !
 PAR  G(LIQUID,NI),,                    +GLIQNI;                 3000 N 91Din !
$
 PAR  G(NI5ZR_C15B,NI:VA),,             +0.833*GHSERNI
             +29566-8.428*T;,,                                        N 94Gho !
 PAR  G(NI3ZR_D019,NI:VA),,             +0.75*GHSERNI
             +10000+1.25*T;,,                                         N 07Tok !
 PAR  G(NI10ZR7,NI:VA),,                +0.575*GHSERNI
             +20051-5.8167*T;,,                                       N 94Gho !
$
 FUNCTION GHSERNI   298.15  -5179.159+117.854*T-22.096*T*LN(T)-0.0048407*T**2;
      1728.00  Y  -27840.62+279.134977*T-43.1*T*LN(T)+1.12754E+31*T**(-9);
      3000.00  N !
 FUNCTION GLIQNI    298.15  +16414.686-9.397*T+GHSERNI-3.82318E-21*T**7;
      1728.00  Y  -9549.817+268.597977*T-43.1*T*LN(T);
      3000.00  N !
 FUNCTION GBCCNI    298.15  +GHSERNI+8715.084-3.556*T;                 3000 N !
$ ------------------------------------------------------------------------------
$ Zr
$
$ CUB_A13, CBCC_A12, ORTHORHOMBIC_A20 and TETRAGONAL_U added in unary 4.1
$
 PAR  G(HCP_A3,ZR:VA)           130.00  +GHSERZR;,,                   N 91Din !
 PAR  G(BCC_A2,ZR:VA)           130.00  +GBCCZR;,,                    N 91Din !
$PAR  G(OMEGA,ZR)               130.00  +GOMEZR;,,                    N 91Din !
 PAR  G(FCC_A1,ZR:VA)           130.00  +GHSERZR+7600-0.9*T;,,        N 91Din !
$PAR  G(CBCC_A12,ZR:VA)         130.00  +GHSERZR+4602.2;,,            N 99SGUN !
$PAR  G(CUB_A13,ZR:VA)          130.00  +GHSERZR+7531.2;,,            N 99SGUN !
$PAR  G(ORTHORHOMBIC_A20,ZR)    130.00  +GBCCZR+5000;,,               N 99SGUN !
$PAR  G(TETRAGONAL_U,ZR)        130.00  +GBCCZR+5000;,,               N 99SGUN !
 PAR  G(LIQUID,ZR)              130.00  +GLIQZR;,,                    N 91Din !
$
 PAR  G(NI5ZR_C15B,ZR:ZR),,             +GHSERZR+7600-0.9*T;,,        N 94Gho !
 PAR  G(NI5ZR_C15B,ZR:VA),,             +0.833*GBCCZR+32493-8.22*T;,, N 94Gho !
 PAR  G(NI3ZR_D019,ZR:ZR),,             +GHSERZR;,,                   N 94Gho !
 PAR  G(NI3ZR_D019,ZR:VA),,             +0.75*GBCCZR+47425+5.68*T;,,  N 94Gho !
 PAR  G(NI10ZR7,ZR:ZR),,                +GHSERZR+8750-2.556*T;,,      N 94Gho !
 PAR  G(NI10ZR7,ZR:VA),,                +0.575*GBCCZR
             +22075-5.674*T;,,                                        N 94Gho !
$
 FUNCTION GHSERZR   130.00  -7827.595+125.64905*T-24.1618*T*LN(T)
       -0.00437791*T**2+34971*T**(-1);
      2128.00  Y  -26085.921+262.724183*T-42.144*T*LN(T)-1.342896E+31*T**(-9);
      6000.00  N !
 FUNCTION GBCCZR    130.00  -525.539+124.9457*T-25.607406*T*LN(T)
       -3.40084E-04*T**2-9.729E-09*T**3+25233*T**(-1)-7.6143E-11*T**4;
      2128.00  Y  -4620.034+1.55998*T+GHSERZR+1.4103476E+32*T**(-9);
      6000.00  N !
 FUNCTION GOMEZR    130.00  -8878.082+144.432234*T-26.8556*T*LN(T)
       -0.002799446*T**2+38376*T**(-1);
      2128.00  Y  -3414.603+2.566675*T+GHSERZR+8.517346E+31*T**(-9);
      6000.00  N !
 FUNCTION GLIQZR    130.00  +18147.69-9.080812*T+GHSERZR+1.6275E-22*T**7;
      2128.00  Y  -8281.26+253.812609*T-42.144*T*LN(T);
      6000.00  N !
$ ------------------------------------------------------------------------------
$ Binary system
$
$ T. Tokunaga, S. Matsumoto, H. Ohtani, M. Hasebe,
$ Mater. Trans. JIM, 48, 2263-71(2007).
$
$ Checked against paper. Checked at 6000K.
$
$ Modified from G. Ghosh 1994.
$
$ This dataset is also published in T. Tokunaga et al., J. Japan Inst. Met.,
$ 70, 741-49(2006).
$
$ In a tdb from NIMS hcp-Zr is used instead of bcc-Zr as reference for the
$ intermetallic compounds, leading to too low melting temperatures.
$
$ There is an inverse miscibility gap with a minimum at 4040 K and x(Zr)=0.91.
$
 PAR  L(LIQUID,NI,ZR;0),,               -200450+10.35*T;,,            N 94Gho !
 PAR  L(LIQUID,NI,ZR;1),,               -42925+3.58*T;,,              N 94Gho !
 PAR  L(LIQUID,NI,ZR;2),,               -34000+32.37*T;,,             N 94Gho !
$
 PAR  L(FCC_A1,NI,ZR:VA;0),,            -130000+2*T;,,                N 94Gho !
 PAR  L(FCC_A1,NI,ZR:VA;1),,            -25000+2.5*T;,,               N 94Gho !
$
 PAR  L(BCC_A2,NI,ZR:VA;0),,            -147500+2.3*T;,,              N 94Gho !
 PAR  L(BCC_A2,NI,ZR:VA;1),,            -43500-11.6*T;,,              N 94Gho !
$
 PAR  L(HCP_A3,NI,ZR:VA;0),,            -68350+3.5*T;,,               N 94Gho !
 PAR  L(HCP_A3,NI,ZR:VA;1),,            +10000-6.6*T;,,               N 94Gho !
$
 PAR  G(NI5ZR_C15B,NI:ZR),,             +0.833*GHSERNI+0.167*GBCCZR
             -33205+0.95*T;,,                                         N 94Gho !
 PAR  L(NI5ZR_C15B,NI,ZR:VA;0),,        +76500;,,                     N 94Gho !
 PAR  L(NI5ZR_C15B,NI:VA,ZR;0),,        -19475+1.25*T;,,              N 94Gho !
 PAR  L(NI5ZR_C15B,NI,ZR:ZR;0),,        +7850;,,                      N 94Gho !
$
 PAR  G(NI7ZR2,NI:ZR),,                 +0.78*GHSERNI+0.22*GBCCZR
             -40775+0.3*T;,,                                          N 94Gho !
$
 PAR  G(NI3ZR_D019,NI:ZR),,             +0.75*GHSERNI+0.25*GBCCZR
             -43410+0.88*T;,,                                         N 07Tok !
 PAR  L(NI3ZR_D019,NI,ZR:VA;0),,        +75500;,,                     N 94Gho !
 PAR  L(NI3ZR_D019,NI:VA,ZR;0),,        -25000+4.5*T;,,               N 07Tok !
 PAR  L(NI3ZR_D019,NI,ZR:ZR;0),,        +7555;,,                      N 94Gho !
$
 PAR  G(NI21ZR8,NI:ZR),,                +0.725*GHSERNI+0.275*GBCCZR
             -44625+0.5*T;,,                                          N 94Gho !
$
 PAR  G(NI10ZR7,NI:ZR),,                +0.575*GHSERNI+0.425*GBCCZR
             -53000+1.75*T;,,                                         N 07Tok !
 PAR  L(NI10ZR7,NI,ZR:VA;0),,           +56000;,,                     N 94Gho !
 PAR  L(NI10ZR7,NI:VA,ZR;0),,           -19250;,,                     N 94Gho !
 PAR  L(NI10ZR7,NI,ZR:ZR;0),,           +8500;,,                      N 94Gho !
$
 PAR  G(NI11ZR9,NI:ZR),,                +0.55*GHSERNI+0.45*GBCCZR
             -52000+0.74*T;,,                                         N 07Tok !
 PAR  G(NIZR_B33,NI:ZR),,               +0.5*GHSERNI+0.5*GBCCZR
             -52275+0.6*T;,,                                          N 94Gho !
 PAR  G(NIZR2_C16,NI:ZR),,              +0.333*GHSERNI+0.667*GBCCZR
             -40650+0.15*T;,,                                         N 94Gho !
$ ------------------------------------------------------------------------------
$
 ASSESSED_SYSTEM
  NI-ZR(TDB -* +LIQUID +FCC_A1 +BCC_A2 +HCP_A3 +NI10ZR7 +NI11ZR9 +NI21ZR8
  +NI3ZR_D019 +NI5ZR_C15B +NI7ZR2 +NIZR_B33 +NIZR2_C16 ;P3 TMM:300/2300 *) !
$
$
 LIST-OF-REFERENCE
 NUMBER  SOURCE
  Null   'Unknown source'
  COST   'COST 507 database'
  91Din  'A.T. Dinsdale, Calphad, 15, 317-425(1991).'
  94Gho  'G. Ghosh, J. Mater. Res., 9, 598-616(1994); Ni-Zr'
  99Gho  'G. Ghosh, Metall. Mater. Trans. A, 30A, 1481-94(1999),
          SGTE unary database V.5.0, 2009; Ni'
  99SGUN 'SGTE unary database V.4.1, 1999.'
  07Tok  'T. Tokunaga, S. Matsumoto, H. Ohtani, M. Hasebe,
          Mater. Trans. JIM, 48, 2263-71(2007); Ni-Zr'
!
