$
$ Database for K-Cl from J.W. McMurray and S.S. Raiman 2018.
$
$ J.W. McMurray, S.S. Raiman, Solar Energy, 170, 1039-42(2018).
$
$ Dataset created 2023.01.14 by Bengt Hallstedt.
$
$ Data for KCl not included in the paper (reference to FactSage 7.1).
$ Data for KCl and Cl are taken from the substance database.
$
$ The miscibility gap is more asymmetric than in the paper. Misprint in the
$ interaction parameters?
$
$ ------------------------------------------------------------------------------
 TEMP-LIM 298.15 6000.00 !
$
$ELEMENT NAME  REF. STATE               ATOMIC MASS H298-H0    S298    !
$
 ELEMENT /-   ELECTRON_GAS                0.0          0.0      0.0    ! 
 ELEMENT VA   VACUUM                      0.0          0.0      0.0    ! 
 ELEMENT CL   1/2_MOLE_CL2(G)            35.453     4590.0    111.48   ! 
 ELEMENT K    BCC_A2                     39.0983    7088.      64.68   ! 
$ ------------------------------------------------------------------------------
$ Species
$
 SPECIE  CL-1                               CL1/-1 !
 SPECIE  CL2                                CL2 !
 SPECIE  K+1                                K1/+1 !
 SPECIE  K2                                 K2 !
 SPECIE  KCL                                K1CL1 !
 SPECIE  K2CL2                              K2CL2 !
$ ------------------------------------------------------------------------------
$ Phase definitions
$
 PHASE ION:Y % 2 1 1 !
 CONST ION:Y : K+1 : CL-1 VA : !
$
 PHASE LIQUID:L % 1 1 !
 CONST LIQUID:L : K KCL : !
$
$ Fcc (cF4, Fm-3m) and MeX (cF8, Fm-3m)
$
 PHASE FCC_A1 %A 2 1 1 !
 CONST FCC_A1 : K : VA : !
$
$ Bcc (cI2, Im-3m)
$
 PHASE BCC_A2 %B 2 1 3 !
 CONST BCC_A2 : K : VA : !
$
$ Hcp (hP2, P6_3/mmc) and Me2X (NiAs-type, hP4, P6_3/mmc, B8_1)
$
 PHASE HCP_A3 %A 2 1 0.5 !
 CONST HCP_A3 : K : VA : !
$
$ Prototype NaCl (cF8, Fm-3m), sylvite
$
 PHASE KCL_B1 % 2 1 1 !
 CONST KCL_B1 : K : CL : !
$
 PHASE GAS:G % 1 1 !
 CONST GAS:G : CL CL2 K K2 KCL K2CL2 : !
$ ------------------------------------------------------------------------------
$ Defaults
$
 DEFINE-SYSTEM-DEFAULT ELEMENT 2 !
 DEFAULT-COM DEFINE_SYSTEM_ELEMENT VA /- !
 DEFAULT-COM REJECT_PHASE LIQUID !
 TYPE-DEF % SEQ * !
 TYPE-DEF A GES AMEND_PHASE_DESCRIPTION @ MAGNETIC -3 0.28 !
 TYPE-DEF B GES AMEND_PHASE_DESCRIPTION @ MAGNETIC -1 0.4 !
 FUNCTION ZERO      298.15  0;                                         6000 N !
 FUNCTION UN_ASS    298.15  0;                                         6000 N !
 FUNCTION R         298.15  +8.31451;                                  6000 N !
 FUNCTION RTLNP     298.15  +8.31451*T*LN(1E-05*P);                    6000 N !
$ ------------------------------------------------------------------------------
$ Element data
$ ------------------------------------------------------------------------------
$ Cl
$
 PAR  G(GAS,CL;0),,                     +F5863T+RTLNP;,,              N 97SUB !
 PAR  G(GAS,CL2;0),,                    +F6320T+RTLNP;,,              N 97SUB !
$
$ Cl(g)
 FUNCTION F5863T    298.15  +113735.574-5.74454343*T-23.68581*T*LN(T)
       -5.00078E-06*T**2+2.35320333E-07*T**3+77001.85*T**(-1);
       800.00  Y  +115299.255-14.5412992*T-22.63307*T*LN(T)
       +4.844305E-04*T**2-2.35785167E-08*T**3-192344.3*T**(-1);
      3400.00  Y  +118260.106-28.5900451*T-20.83511*T*LN(T)
       +4.1547685E-06*T**2-6.70175833E-11*T**3-1130035*T**(-1);
     10000.00  N !
$ Cl2(g)
 FUNCTION F6320T    298.15  -11735.239+21.6544578*T-36.24619*T*LN(T)
       -9.56635E-04*T**2+7.72473833E-08*T**3+126340.1*T**(-1);
      1500.00  Y  -14830.9343+52.8425144*T-40.69302*T*LN(T)
       +0.0016038575*T**2-1.834645E-07*T**3+446405.05*T**(-1);
      3300.00  Y  +12605.9759-161.881178*T-12.22677*T*LN(T)
       -0.00734027*T**2+2.74869167E-07*T**3+3816431.5*T**(-1);
      5600.00  Y  -277134.238+658.109036*T-109.5523*T*LN(T)
       +0.00665615*T**2-9.27583833E-08*T**3+1.564792E+08*T**(-1);
     10000.00  N !
$ ------------------------------------------------------------------------------
$ K
$
 PAR  G(BCC_A2,K:VA)            200.00  +GHSERKK;                2200 N 91Din !
 PAR  G(HCP_A3,K:VA)            200.00  +GHSERKK+50+2*T;         2200 N 91Din !
 PAR  G(FCC_A1,K:VA)            200.00  +GHSERKK+50+1.3*T;       2200 N 91Din !
 PAR  G(LIQUID,K)               200.00  +GLIQKK;                 2200 N 91Din !
$
 PAR  G(ION,K+1:VA)             200.00  +GLIQKK;                 2200 N 91Din !
$
 PAR  G(GAS,K;0),,                      +F11873T+RTLNP;,,             N 97SUB !
 PAR  G(GAS,K2;0),,                     +F11944T+RTLNP;,,             N 97SUB !
$
 FUNCTION GHSERKK   200.00  -16112.929+389.624197*T-77.0571464*T*LN(T)
       +0.146211135*T**2-8.4949147E-05*T**3+243385*T**(-1);
       336.53  Y  -11122.441+192.586544*T-39.2885968*T*LN(T)
       +0.012167386*T**2-2.64387E-06*T**3+43251*T**(-1)+1.19223E+22*T**(-9);
      2200.00  N !
 FUNCTION GLIQKK    200.00  +2318.096-6.886859*T+GHSERKK-9.44E-19*T**7;
       336.53  Y  +2323.019-6.902217*T+GHSERKK-1.19223E+22*T**(-9);
      2200.00  N !
$ K(g)
 FUNCTION F11873T   298.15  +82666.7286-18.8597114*T-21.13652*T*LN(T)
       +3.263815E-04*T**2-4.88193833E-08*T**3+8623*T**(-1);
      2100.00  Y  +95214.8988-58.7763871*T-16.47469*T*LN(T)
       +1.8283925E-04*T**2-1.181286E-07*T**3-4900225.5*T**(-1);
      4500.00  Y  +330899.458-746.725542*T+65.78716*T*LN(T)
       -0.012648195*T**2+2.58849667E-07*T**3-1.323186E+08*T**(-1);
      7400.00  Y  -586517.642+917.252815*T-121.1246*T*LN(T)
       +0.0043326875*T**2-3.13419333E-08*T**3+7.14826E+08*T**(-1);
     10000.00  N !
$ K2(g)
 FUNCTION F11944T   298.15  +116830.132-35.2572172*T-31.24845*T*LN(T)
       -0.011272125*T**2+2.82333833E-06*T**3-67414.35*T**(-1);
       900.00  Y  +80568.4035+357.696336*T-88.60734*T*LN(T)
       +0.02938261*T**2-2.63023167E-06*T**3+4260576.5*T**(-1);
      2200.00  Y  +639659.157-2443.85825*T+272.9801*T*LN(T)
       -0.074798*T**2+3.01408333E-06*T**3-1.5813375E+08*T**(-1);
      3300.00  Y  -487725.534+1421.21034*T-199.1774*T*LN(T)
       +0.012645665*T**2-4.84245E-09*T**3+3.4436415E+08*T**(-1);
      4500.00  Y  -775041.605+2444.94874*T-324.4177*T*LN(T)
       +0.035652475*T**2-7.70021667E-07*T**3+4.5724375E+08*T**(-1);
      6000.00  N !
$ ------------------------------------------------------------------------------
$ Binary system
$
$ J.W. McMurray, S.S. Raiman, Solar Energy, 170, 1039-42(2018).
$
$ Checked against paper.
$
$ Data for KCl not included in the paper (reference to FactSage 7.1).
$ Data for KCl and Cl are taken from the substance database.
$
$ The miscibility gap is more asymmetric than in the paper. Misprint in the
$ interaction parameters?
$
 PAR  G(ION,K+1:CL-1),,                 +F6075T
             +26283.9-25.17614943*T;,,                                N 97SUB !
 PAR  L(ION,K+1:CL-1,VA;0),,            +60000-0.0372*T**2;,,         N 18McM !
 PAR  L(ION,K+1:CL-1,VA;1),,            +24000-0.02007*T**2;,,        N 18McM !
 PAR  L(ION,K+1:CL-1,VA;2),,            +1500;,,                      N 18McM !
$
 PAR  G(LIQUID,KCL),,                   +F6075T
             +26283.9-25.17614943*T;,,                                N 97SUB !
 PAR  L(LIQUID,K,KCL;0),,               +60000-0.0372*T**2;,,         N 18McM !
 PAR  L(LIQUID,K,KCL;1),,               -24000+0.02007*T**2;,,        N 18McM !
 PAR  L(LIQUID,K,KCL;2),,               +1500;,,                      N 18McM !
$
 PAR  G(KCL_B1,K:CL),,                  +F6075T;,,                    N 97SUB !
$
 PAR  G(GAS,KCL),,                      +F6079T+RTLNP;,,              N 97SUB !
 PAR  G(GAS,K2CL2),,                    +F6431T+RTLNP;,,              N 97SUB !
$
$ KCl(s)
 FUNCTION F6075T    298.15  -452546.812+258.42747*T-50.47661*T*LN(T)
       -0.0029621885*T**2-1.249447E-06*T**3+72086.95*T**(-1);
       700.00  Y  -497161.598+870.424346*T-143.5698*T*LN(T)
       +0.08401995*T**2-1.66095033E-05*T**3+4108918*T**(-1);
      1044.00  Y  -470014.732+431.433974*T-73.59656*T*LN(T);
      2000.00  N !
$ KCl(g)
 FUNCTION F6079T    298.15  -226285.308+15.0470876*T-37.83268*T*LN(T)
       -3.8967505E-05*T**2-6.010005E-08*T**3+63184.6*T**(-1);
      3400.00  Y  -55114.4798-516.362559*T+26.1234*T*LN(T)
       -0.010395225*T**2+2.43339E-07*T**3-84232600*T**(-1);
      6000.00  N !
$ K2Cl2(g)
 FUNCTION F6431T    298.15  -643090.244+204.86492*T-83.10303*T*LN(T)
       -1.6332995E-05*T**2+1.102498E-09*T**3+99817.9*T**(-1);
      3000.00  Y  -643071.945+204.960885*T-83.11893*T*LN(T)
       -4.463282E-06*T**2+1.48233533E-10*T**3+83765.55*T**(-1);
      6000.00  N !
$ ------------------------------------------------------------------------------
$
$
 LIST-OF-REFERENCE
 NUMBER  SOURCE
  Null   'Unknown source'
  Same   'Same or similar interaction as in the corresponding stable phase'
  REFLAV 'Laves phase convention: G(LAVES,X:X)=+3*GHSERXX+15000'
  91Din  'A.T. Dinsdale, Calphad, 15, 317-425(1991).'
  97SUB  'SGTE substance database, version 1997'
  18McM  'J.W. McMurray, S.S. Raiman, Solar Energy, 170, 1039-42(2018); K-Cl'
!
