$
$ Database for Sn-P from K. Oikawa and N. Ueshima 2024.
$
$ K. Oikawa, N. Ueshima, J. Phase Equilib. Diffus., 45, 547-66(2024).
$
$ Dataset created 2025.01.17 by Bengt Hallstedt.
$
$ The enthalpies and entropies of formation of the phosphides are very much
$ larger than in in 01Mie or 11Hin. This needs to be checked.
$
$ ------------------------------------------------------------------------------
 TEMP-LIM 298.15 6000.00 !
$
$ELEMENT NAME  REF. STATE               ATOMIC MASS H298-H0    S298    !
$
 ELEMENT VA   VACUUM                      0.0          0.0      0.0    ! 
 ELEMENT P    WHITE_P                    30.97376   5360.0     41.09   ! 
 ELEMENT SN   BCT_A5                    118.69      6323.      51.18   ! 
$ ------------------------------------------------------------------------------
$ Species
$
 SPECIE  P2                                 P2 !
 SPECIE  P3                                 P3 !
 SPECIE  P4                                 P4 !
 SPECIE  SN2                                SN2 !
$ ------------------------------------------------------------------------------
$ Phase definitions
$
 PHASE LIQUID:L % 1 1 !
 CONST LIQUID:L : P SN : !
$
$ Fcc (cF4, Fm-3m) and MeX (cF8, Fm-3m)
$
 PHASE FCC_A1 %A 2 1 1 !
 CONST FCC_A1 : P SN : VA : !
$
$ Bcc (cI2, Im-3m)
$
 PHASE BCC_A2 %B 2 1 3 !
 CONST BCC_A2 : P SN : VA : !
$
$ Hcp (hP2, P6_3/mmc) and Me2X (NiAs-type, hP4, P6_3/mmc, B8_1)
$
 PHASE HCP_A3 %A 2 1 0.5 !
 CONST HCP_A3 : SN : VA : !
$
$ Prototype C (cF8, Fd-3m)
$
 PHASE DIAMOND_A4 % 1 1 !
 CONST DIAMOND_A4 : SN : !
$
$ Prototype beta-Sn (tI4, I4_1/amd)
$
 PHASE BCT_A5 % 1 1 !
 CONST BCT_A5 : SN : !
$
$ Crystal structure seems not to be well defined
$
 PHASE WHITE_P % 1 1 !
 CONST WHITE_P : P : !
$
$ Crystal structure seems not to be well defined
$
 PHASE RED_P % 1 1 !
 CONST RED_P : P : !
$
$ Prototype Sn4As3 (hR7, R-3m)
$
 PHASE SN4P3 % 2 4 3 !
 CONST SN4P3 : SN : P : !
$
$ Prototype Sn3P4 (hR19, R-3m, 166)
$
 PHASE SN3P4 % 2 3 4 !
 CONST SN3P4 : SN : P : !
$
$ Prototype SnP3 (hR8, R-3m, 166)
$
 PHASE SNP3 % 2 1 3 !
 CONST SNP3 : SN : P : !
$
 PHASE GAS:G % 1 1 !
 CONST GAS:G : P P2 P3 P4 SN SN2 : !
$ ------------------------------------------------------------------------------
$ Defaults
$
 DEFINE-SYSTEM-DEFAULT ELEMENT 2 !
 DEFAULT-COM DEFINE_SYSTEM_ELEMENT VA !
 DEFAULT-COM REJECT_PHASE GAS !
 TYPE-DEF % SEQ * !
 TYPE-DEF A GES AMEND_PHASE_DESCRIPTION @ MAGNETIC -3 0.28 !
 TYPE-DEF B GES AMEND_PHASE_DESCRIPTION @ MAGNETIC -1 0.4 !
 FUNCTION ZERO      298.15  0;                                         6000 N !
 FUNCTION UN_ASS    298.15  0;                                         6000 N !
 FUNCTION R         298.15  +8.31451;                                  6000 N !
 FUNCTION RTLNP     298.15  +8.31451*T*LN(1E-05*P);                    6000 N !
$ ------------------------------------------------------------------------------
$ Element data
$ ------------------------------------------------------------------------------
$ P
$
$ RHOMBOHEDRAL_A7 added in unary 4.4
$
 PAR  G(WHITE_P,P)              250.00  +GHSERPP;                3000 N 91Din !
 PAR  G(RED_P,P)                250.00  +GREDPP;                 3000 N 91Din !
 PAR  G(FCC_A1,P:VA)            250.00  +GREDPP+36819-13.138*T;  3000 N 91Din !
 PAR  G(BCC_A2,P:VA)            250.00  +GREDPP+44768.8-13.26*T; 3000 N 91Din !
$PAR  G(RHOMBOHEDRAL_A7,P)      250.00  +GHSERPP-188+0.12527*T;  3000 N 01SGUN !
 PAR  G(LIQUID,P)               250.00  +GLIQPP;                 3000 N 91Din !
$
 PAR  G(GAS,P),,                        +F14404T+RTLNP;,,             N 97SUB !
 PAR  G(GAS,P2),,                       +F14448T+RTLNP;,,             N 97SUB !
 PAR  G(GAS,P3),,                       +F14471T+RTLNP;,,             N 97SUB !
 PAR  G(GAS,P4),,                       +F14479T+RTLNP;,,             N 97SUB !
$
 FUNCTION GHSERPP   250.00  -43821.799+1026.69389*T-178.426*T*LN(T)
       +0.290708*T**2-1.04022667E-04*T**3+1632695*T**(-1);
       317.30  Y  -9587.448+152.341487*T-28.7335301*T*LN(T)
       +0.001715669*T**2-2.2829E-07*T**3+172966*T**(-1);
      1000.00  Y  -8093.075+135.876831*T-26.326*T*LN(T);
      3000.00  N !
 FUNCTION GREDPP    250.00  -25976.559+148.672002*T-25.55*T*LN(T)
       +0.0034121*T**2-2.418867E-06*T**3+160095*T**(-1);
       500.00  Y  -21723.721+77.671737*T-14.368*T*LN(T)
       -0.00957685*T**2+3.93917E-07*T**3-141375*T**(-1);
       852.35  Y  -119408.413+1026.02962*T-149.449556*T*LN(T)
       +0.067272364*T**2-6.651929E-06*T**3+12495943*T**(-1);
      1500.00  Y  -16431.044+17.96235*T+GHSERPP;
      3000.00  N !
 FUNCTION GLIQPP    250.00  -26316.111+434.930931*T-70.7440584*T*LN(T)
       -0.002898936*T**2+3.9049371E-05*T**3+1141147*T**(-1);
       317.30  Y  -7232.449+133.291873*T-26.326*T*LN(T);
      3000.00  N !
$ P (g)
 FUNCTION F14404T   298.15  +310152.015-21.3997112*T-21.18864*T*LN(T)
       +3.9907815E-04*T**2-6.467185E-08*T**3+9337.96*T**(-1);
      1900.00  Y  +332461.723-123.51155*T-8.27475*T*LN(T)
       -0.0025407355*T**2+2.77886167E-08*T**3-6752450*T**(-1);
      3900.00  Y  +295561.679-61.0229009*T-14.92054*T*LN(T)
       -0.002691344*T**2+7.37562667E-08*T**3+20828775*T**(-1);
      7000.00  Y  +105621.967+337.540131*T-60.52207*T*LN(T)
       +0.002171204*T**2-2.32968833E-08*T**3+1.6928265E+08*T**(-1);
     10000.00  N !
$ P2 (g)
 FUNCTION F14448T   298.15  +133357.681+.182114942*T-32.02798*T*LN(T)
       -0.004670767*T**2+7.28558667E-07*T**3+106826.35*T**(-1);
       900.00  Y  +128832.659+49.3136341*T-39.23087*T*LN(T)
       +7.156115E-04*T**2-6.82824333E-08*T**3+666443.5*T**(-1);
      3500.00  Y  +164091.361-27.2592211*T-30.65569*T*LN(T)
       +3.4990285E-04*T**2-1.0132875E-07*T**3-21312200*T**(-1);
      6000.00  N !
$ P3 (g)
 FUNCTION F14471T   298.15  +191023.012+115.134799*T-55.58992*T*LN(T)
       -0.00549647*T**2+8.37126667E-07*T**3+291982.3*T**(-1);
      1000.00  Y  +187367.887+160.095451*T-62.29736*T*LN(T)
       -1.1488665E-05*T**2+3.82699333E-10*T**3+671571.5*T**(-1);
      6000.00  N !
$ P4 (g)
 FUNCTION F14479T   298.15  +31689.2272+246.976573*T-77.33235*T*LN(T)
       -0.0046207025*T**2+6.76817E-07*T**3+563393*T**(-1);
      1100.00  Y  +28520.4461+285.801742*T-83.11153*T*LN(T)
       -6.057165E-06*T**2+1.99865333E-10*T**3+890230*T**(-1);
      6000.00  N !
$ ------------------------------------------------------------------------------
$ Sn
$
$ FCC_A1 revised in unary 3.0
$ HCP_A3 revised in unary 4.1
$ TETRAGONAL_A6 added in unary 4.1
$ CBCC_A12 and CUB_A13 added in unary 4.4
$ FCC_A1 modified in unary 5.0
$ DHCP and TET_ALPHA1_A6 added in unary 5.0
$
$ The DHCP phase is labelled D0_24 in 03Liu and alpha-prime in 92Ans. The
$ phase is present between the fcc and hcp phases in the Au-Sn and Au-In
$ systems.
$
$ Old lattice stabilities for fcc-Sn and hcp-Sn used.
$
 PAR  G(BCT_A5,SN)              100.00  +GHSERSN;                3000 N 91Din !
 PAR  G(DIAMOND_A4,SN)          100.00  +GDIASN;                 3000 N 91Din !
$PAR  G(FCC_A1,SN:VA)           100.00  +GHSERSN+5510-8.46*T;    3000 N 89Fec !
 PAR  G(FCC_A1,SN:VA)           100.00  +GHSERSN+4150-5.2*T;     3000 N 91Din !
 PAR  G(BCC_A2,SN:VA)           100.00  +GHSERSN+4400-6*T;       3000 N 91Din !
$PAR  G(HCP_A3,SN:VA)           100.00  +GHSERSN+3900-7.646*T;   3000 N Ansar !
 PAR  G(HCP_A3,SN:VA)           100.00  +GHSERSN+3900-4.4*T;     3000 N 91Din !
$PAR  G(DHCP,SN)                100.00  +GHSERSN+3803.52-3.46*T; 3000 N 03Liu !
$PAR  G(RHOMBOHEDRAL_A7,SN)     100.00  +GHSERSN+2035;           3000 N 91Din !
$PAR  G(TETRAGONAL_A6,SN)       100.00  +GHSERSN+5387-8.26212*T; 3000 N 99Ans !
$PAR  G(CBCC_A12,SN:VA)         100.00  +GHSERSN+2000;           3000 N 01Mie1 !
$PAR  G(CUB_A13,SN:VA)          100.00  +GHSERSN+2000;           3000 N 01Mie1 !
$PAR  G(TET_ALPHA1_A6,SN)       100.00  +GHSERSN+5510-8.46*T;    3000 N 99Ans !
 PAR  G(LIQUID,SN)              100.00  +GLIQSN;                 3000 N 91Din !
$
 PAR  G(GAS,SN),,                       +F15292T+RTLNP;,,             N 97SUB !
 PAR  G(GAS,SN2),,                      +F15312T+RTLNP;,,             N 97SUB !
$
 FUNCTION GHSERSN   100.00  -7958.517+122.765451*T-25.858*T*LN(T)
       +5.1185E-04*T**2-3.192767E-06*T**3+18440*T**(-1);
       250.00  Y  -5855.135+65.443315*T-15.961*T*LN(T)
       -0.0188702*T**2+3.121167E-06*T**3-61960*T**(-1);
       505.08  Y  +2524.724+4.005269*T-8.2590486*T*LN(T)
       -0.016814429*T**2+2.623131E-06*T**3-1081244*T**(-1)-1.2307E+25*T**(-9);
       800.00  Y  -8256.959+138.99688*T-28.4512*T*LN(T)-1.2307E+25*T**(-9);
      3000.00  N !
 FUNCTION GDIASN    100.00  -9579.608+114.007785*T-22.972*T*LN(T)
       -0.00813975*T**2+2.7288E-06*T**3+25615*T**(-1);
       298.15  Y  -9063.001+104.84654*T-21.5750771*T*LN(T)
       -0.008575282*T**2+1.784447E-06*T**3-2544*T**(-1);
       800.00  Y  -10909.351+147.396535*T-28.4512*T*LN(T);
      3000.00  N !
 FUNCTION GLIQSN    100.00  +7103.092-14.087767*T+GHSERSN+1.47031E-18*T**7;
       505.08  Y  +6971.586-13.814383*T+GHSERSN+1.2307E+25*T**(-9);
       800.00  Y  -1285.372+125.182498*T-28.4512*T*LN(T);
      3000.00  N !
 FUNCTION GBCCSN    298.15  +GHSERSN+4400-6*T;                         3000 N !
$ Sn(g)
 FUNCTION F15292T   298.15  +299805.017-138.265505*T-2.769934*T*LN(T)
       -0.025123235*T**2+2.91121E-06*T**3-225080.65*T**(-1);
       500.00  Y  +299818.158-153.051454*T+.006576569*T*LN(T)
       -0.031759785*T**2+5.12529167E-06*T**3-157706.25*T**(-1);
       900.00  Y  +259620.873+283.605387*T-63.72523*T*LN(T)
       +0.0132323*T**2-8.43548E-07*T**3+4603149.5*T**(-1);
      2000.00  Y  +305551.58+10.5671679*T-27.57385*T*LN(T)
       +5.86253E-04*T**2-1.41879667E-08*T**3-6339225*T**(-1);
      6600.00  Y  +330332.682-10.4578956*T-25.61849*T*LN(T)
       +7.907715E-04*T**2-2.626045E-08*T**3-39037215*T**(-1);
     10000.00  N !
$ Sn2(g)
 FUNCTION F15312T   298.15  +415023.293-24.276484*T-36.02127*T*LN(T)
       -0.005866135*T**2+7.95920667E-07*T**3-134064.05*T**(-1);
      1100.00  Y  +418717.2-28.8639587*T-36.06067*T*LN(T)
       -0.003023904*T**2+1.82022167E-07*T**3-1196854*T**(-1);
      3000.00  Y  +318814.516+319.93647*T-78.71578*T*LN(T)
       +0.0048371295*T**2-7.82327E-08*T**3+41752485*T**(-1);
      6000.00  N !
$ ------------------------------------------------------------------------------
$ Binary system
$
$ K. Oikawa, N. Ueshima, J. Phase Equilib. Diffus., 45, 547-66(2024).
$
$ Checked against paper. Checked at 6000 K.
$
$ The enthalpies and entropies of formation of the phosphides are very much
$ larger than in in 01Mie or 11Hin. This needs to be checked.
$
 PAR  L(LIQUID,P,SN;0),,                +21753;,,                     N 24Oik !
 PAR  L(LIQUID,P,SN;1),,                +12897;,,                     N 24Oik !
$
 PAR  G(SN4P3,SN:P),,                   +4*GHSERSN+3*GHSERPP
             -122263+111.66*T;,,                                      N 24Oik !
 PAR  G(SN3P4,SN:P),,                   +3*GHSERSN+4*GHSERPP
             -177381+197.143*T;,,                                     N 24Oik !
 PAR  G(SNP3,SN:P),,                    +GHSERSN+3*GHSERPP
             -99960+120.049*T;,,                                      N 24Oik !
$
$ Metastable
$
 PAR  L(FCC_A1,P,SN:VA;0),,             +ZERO;,,                      N 24Oik !
 PAR  L(BCC_A2,P,SN:VA;0),,             +ZERO;,,                      N 24Oik !
$ ------------------------------------------------------------------------------
$
$
 LIST-OF-REFERENCE
 NUMBER  SOURCE
  Null   'Unknown source'
  Same   'Same or similar interaction as in the corresponding stable phase'
  COST   'COST 507 database'
  Ansar  'Himo Ansara, unpublished, SGTE unary database V.4.1, 1999; Sn'
  89Fec  'H.J. Fecht, M.X. Zhang, Y.A. Chang, J.H. Perepezko,
          Metall. Trans. A, 20A, 795-803(1989),
          SGTE unary database V.3.0, 1996; Sn'
  91Din  'A.T. Dinsdale, Calphad, 15, 317-425(1991).'
  97SUB  'SGTE substance database, version 1997'
  99Ans  'I. Ansara, S.G. Fries, H.L. Lukas, unpublished, 1999,
          SGTE unary database V.5.0, 2009; In, Sn'
  01Mie1 'J. Miettinen, Calphad, 25, 43-58(2001),
          SGTE unary database V.4.4, 2001; Sn, Zn'
  01SGUN 'SGTE unary database V.4.4, 2001.'
  03Liu  'H.S. Liu, C.L. Liu, K. Ishida, Z.P. Jin, J. Electron. Mater.,
          32, 1290-96(2003), SGTE unary database V.5.0, 2009; Sn'
  24Oik  'K. Oikawa, N. Ueshima,
          J. Phase Equilib. Diffus., 45, 547-66(2024); Sn-P'
!
