$
$ Database for Gd-H from K. Fu et al. 2016.
$
$ K. Fu, G. Li, J. Li, Y. Liu, W. Tian, J. Zheng, X. Li,
$ J. Alloys Compd., 673, 131-37(2016).
$
$ Dataset created 2018.07.15 by Bengt Hallstedt.
$ 2021.01.03: Modified for use with GES6.
$
$ This is a partial modelling of the system without the liquid.
$
$ The models for fcc and hcp are non-standard to include the GdH2 and GdH3
$ phases. The third sublattice in these phases represents tetrahedral
$ interstitial sites. The bcc model is also non-standard.
$
$ ------------------------------------------------------------------------------
 TEMP-LIM 298.15 6000.00 !
$
$ELEMENT NAME  REF. STATE               ATOMIC MASS H298-H0    S298    !
$
 ELEMENT VA   VACUUM                      0.0          0.0      0.0    ! 
 ELEMENT GD   HCP_A3                    157.25      9087.648   68.0894 ! 
 ELEMENT H    1/2_MOLE_H2(G)              1.0079    4234.      65.285  ! 
$ ------------------------------------------------------------------------------
$ Species
$
 SPECIE  H2                                 H2 !
$ ------------------------------------------------------------------------------
$ Phase definitions
$
 PHASE LIQUID:L % 1 1 !
 CONST LIQUID:L : GD H : !
$
$ Fcc (cF4, Fm-3m) and MeX (cF8, Fm-3m) and CaF2 (cF12, Fm-3m)
$
 PHASE FCC_A1 %A 3 1 1 2 !
 CONST FCC_A1 : GD : H VA : H VA : !
$
$ Bcc (cI2, Im-3m)
$
 PHASE BCC_A2 %B 2 1 1 !
 CONST BCC_A2 : GD : H VA% : !
$
$ Hcp (hP2, P6_3/mmc) and Me2X (NiAs-type, hP4, P6_3/mmc, B8_1)
$ and HoH3 (hP24, P-3c1)
$
 PHASE HCP_A3 %A 3 1 1 2 !
 CONST HCP_A3 : GD : H VA : H VA : !
$
 PHASE GAS:G % 1 1 !
 CONST GAS:G : H H2 : !
$ ------------------------------------------------------------------------------
$ Defaults
$
 DEFINE-SYSTEM-DEFAULT ELEMENT 2 !
 DEFAULT-COM DEFINE_SYSTEM_ELEMENT VA !
 TYPE-DEF % SEQ * !
 TYPE-DEF A GES AMEND_PHASE_DESCRIPTION @ MAGNETIC -3 0.28 !
 TYPE-DEF B GES AMEND_PHASE_DESCRIPTION @ MAGNETIC -1 0.4 !
 FUNCTION ZERO      298.15  0;                                         6000 N !
 FUNCTION UN_ASS    298.15  0;                                         6000 N !
 FUNCTION R         298.15  +8.31451;                                  6000 N !
 FUNCTION RTLNP     298.15  +8.31451*T*LN(1E-05*P);                    6000 N !
$ ------------------------------------------------------------------------------
$ Element data
$ ------------------------------------------------------------------------------
$ Gd
$
$ HCP_A3, BCC_A2 and LIQUID revised in unary 3.0
$ Small correction made to top two temperature ranges of bcc_A2 to ensure 
$ continuity in Gibbs energy, AD, Dec 2002
$ FCC_A1 added in unary 4.4
$
$ FCC_A1 from 03Cac and 16Fu not included in unary
$
 PAR  G(HCP_A3,GD:VA:VA)        200.00  +GHSERGD;                3600 N 95She2 !
 PAR  TC(HCP_A3,GD:VA:VA)       200.00    293.4;                 3600 N 95She2 !
 PAR  BM(HCP_A3,GD:VA:VA)       200.00      3.0;                 3600 N 95She2 !
$PAR  TC(HCP_A3,GD:VA:VA)       200.00    291.8;                 3600 N 91Din !
$PAR  BMAGN(HCP_A3,GD:VA:VA)    200.00      3.0;                 3600 N 91Din !
$PAR  G(FCC_A1,GD:VA:VA)        200.00  +GHSERGD+500;            3600 N 00Zin !
$PAR  G(FCC_A1,GD:VA:VA)        200.00  +GHSERGD
$            +1800-0.831451*T;                                   3600 N 03Cac !
 PAR  G(FCC_A1,GD:VA:VA)        200.00  +GHSERGD
             +6232-1.6835667*T;                                  3600 N 16Fu !
 PAR  G(BCC_A2,GD:VA)           200.00  +GBCCGD;                 3600 N 95She2 !
 PAR  G(LIQUID,GD)              200.00  +GLIQGD;                 3600 N 95She2 !
$
 FUNCTION GHSERGD   200.00  -6834.5855+97.13101*T-24.7214131*T*LN(T)
       -0.00285240521*T**2-3.14674076E-07*T**3-8665.73348*T**(-1);
      1000.00  Y  -6483.25362+95.6919924*T-24.6598297*T*LN(T)
       -0.00185225011*T**2-6.61211607E-07*T**3;
      1508.15  Y  -123124.992+699.125537*T-101.800197*T*LN(T)
       +0.0150644246*T**2-6.39165948E-07*T**3+29356890.3*T**(-1);
      3600.00  N !
 FUNCTION GBCCGD    200.00  +3233.80866-2.11184585*T+GHSERGD;
      1000.00  Y  +152792.743-1349.58873*T+180.097094*T*LN(T)
       -0.119550229*T**2+1.17915728E-05*T**3-22038836*T**(-1);
      1508.15  Y  -15783.7618+202.222183*T-38.960425*T*LN(T);
      1586.15  Y  -19850.5562+224.818035*T-41.904333*T*LN(T)
       +8.58222759E-04*T**2-3.77570269E-08*T**3+995428.573*T**(-1);
      3600.00  N !
 FUNCTION GLIQGD    200.00  +13060.0262-8.32179974*T+GHSERGD;
      1000.00  Y  +146262.037-1208.70685*T+159.352082*T*LN(T)
       -0.108247135*T**2+1.06945505E-05*T**3-19678357*T**(-1);
      1508.15  Y  -5397.314+192.336215*T-38.5075*T*LN(T);
      3600.00  N !
$ ------------------------------------------------------------------------------
$ H
$
$ H is not included in unary
$
 PAR  G(LIQUID,H),,                     +0.5*GHSERH2
             +8035+25*T+2*T*LN(T);,,                                  N 06Qiu !
$
 PAR  G(GAS,H),,                        +F10383T+RTLNP;,,             N 97SUB !
 PAR  G(GAS,H2),,                       +GHSERH2+RTLNP;,,             N 97SUB !
$
$ H(g)
 FUNCTION F10383T   298.15  +211801.621+24.4989821*T-20.78611*T*LN(T);
      6000.00  N !
$ H2(g)
 FUNCTION GHSERH2   298.15  -9522.9741+78.5273879*T-31.35707*T*LN(T)
       +0.0027589925*T**2-7.46390667E-07*T**3+56582.3*T**(-1);
      1000.00  Y  +180.108664-15.6128256*T-17.84857*T*LN(T)
       -0.00584168*T**2+3.14618667E-07*T**3-1280036*T**(-1);
      2100.00  Y  -18840.1663+92.3120255*T-32.05082*T*LN(T)
       -0.0010728235*T**2+1.14281783E-08*T**3+3561002.5*T**(-1);
      6000.00  N !
$ ------------------------------------------------------------------------------
$ Binary system
$
$ K. Fu, G. Li, J. Li, Y. Liu, W. Tian, J. Zheng, X. Li,
$ J. Alloys Compd., 673, 131-37(2016).
$
$ Checked against paper. Checked at 6000 K.
$
$ This is a partial modelling of the system without the liquid.
$
$ The models for fcc and hcp are non-standard to include the DyH2 and DyH3
$ phases. The third sublattice in these phases represents tetrahedral
$ interstitial sites. The bcc model si also non-standard.
$
 PAR  L(LIQUID,GD,H;0),,                +UN_ASS;,,                    N !
$
 PAR  G(FCC_A1,GD:H:VA),,               +GHSERGD+0.5*GHSERH2
             -46654+65*T;,,                                           N 16Fu !
 PAR  G(FCC_A1,GD:VA:H),,               +GHSERGD+GHSERH2
             -208455.53+143.28*T;,,                                   N 16Fu !
 PAR  G(FCC_A1,GD:H:H),,                +GHSERGD+1.5*GHSERH2
             -230664.25+195*T;,,                                      N 16Fu !
 PAR  L(FCC_A1,GD:H,VA:VA;0),,          -21032.178;,,                 N 16Fu !
 PAR  L(FCC_A1,GD:H,VA:H;0),,           -21032.178;,,                 N 16Fu !
 PAR  L(FCC_A1,GD:VA:H,VA;0),,          +55779.89-22.6207*T;,,        N 16Fu !
 PAR  L(FCC_A1,GD:H:H,VA;0),,           +55779.89-22.6207*T;,,        N 16Fu !
$
 PAR  G(BCC_A2,GD:H),,                  +GHSERGD+0.5*GHSERH2
             -46654+65*T;,,                                           N 16Fu !
$
 PAR  G(HCP_A3,GD:H:VA),,               +GHSERGD+0.5*GHSERH2
             -77975.16+65*T;,,                                        N 16Fu !
 PAR  G(HCP_A3,GD:VA:H),,               +GHSERGD+GHSERH2
             -143204.66+130*T;,,                                      N 16Fu !
 PAR  G(HCP_A3,GD:H:H),,                +GHSERGD+1.5*GHSERH2
             -254501+209.77*T;,,                                      N 16Fu !
 PAR  L(HCP_A3,GD:H,VA:VA;0),,          +UN_ASS;,,                    N !
 PAR  L(HCP_A3,GD:H,VA:H;0),,           +UN_ASS;,,                    N !
 PAR  L(HCP_A3,GD:VA:H,VA;0),,          -29398.22+4.2503*T;,,         N 16Fu !
 PAR  L(HCP_A3,GD:H:H,VA;0),,           -29398.22+4.2503*T;,,         N 16Fu !
$ ------------------------------------------------------------------------------
$
$
 LIST-OF-REFERENCE
 NUMBER  SOURCE
  Null   'Unknown source'
  Same   'Same or similar interaction as in the corresponding stable phase'
  REFLAV 'Laves phase convention: G(LAVES,X:X)=+3*GHSERXX+15000'
  91Din  'A.T. Dinsdale, Calphad, 15, 317-425(1991).'
  95She2 'H. Shen, W. Zhang, G. Liu, R. Wang, Z. Du, Report F-95-02,
          University of Science and Technology, Beijing, May 1995,
          SGTE unary database V.3.0, 1996; Gd'
  97SUB  'SGTE substance database, version 1997'
  00Zin  'M. Zinkevich, N. Mattern, H. J Seifert,
          J. Phase Equilib., 21, 385-94(2000),
          SGTE unary database V.4.4, 2001; Gd'
  03Cac  'G. Cacciamani, S. De Negri, A. Saccone, R. Ferro,
          Intermetallics, 11, 1135-51(2003); Gd'
  06Qiu  'C. Qiu, S.M. Opalka, G.B. Olson, D.L. Anton,
          Int. J. Mater. Res., 97, 845-53(2006); H'
  16Fu   'K. Fu, G. Li, J. Li, Y. Liu, W. Tian, J. Zheng, X. Li,
          J. Alloys Compd., 673, 131-37(2016); Gd, Gd-H'
!
