$
$ Database for Pd-Sc from Z. Du et al. 2002.
$
$ Z. Du, C. Li, L. Lu, Z. Metallkd., 93, 277-80(2002).
$
$ Dataset created 2018.01.21 by Bengt Hallstedt.
$ 2021.02.03: Modified for use with GES6.
$
$ Bcc and hcp interactions not included in paper.
$
$ The fcc parameters are not acceptable.
$
$ ------------------------------------------------------------------------------
 TEMP-LIM 298.15 6000.00 !
$
$ELEMENT NAME  REF. STATE               ATOMIC MASS H298-H0    S298    !
$
 ELEMENT VA   VACUUM                      0.0          0.0      0.0    ! 
 ELEMENT PD   FCC_A1                    106.42      5468.488   37.8234 ! 
 ELEMENT SC   HCP_A3                     44.9559    5217.448   34.6435 ! 
$ ------------------------------------------------------------------------------
$ Phase definitions
$
 PHASE LIQUID:L % 1 1 !
 CONST LIQUID:L : PD SC : !
$
$ Fcc (cF4, Fm-3m) and MeX (cF8, Fm-3m)
$
 PHASE FCC_A1 %A 2 1 1 !
 CONST FCC_A1 : PD% SC : VA : !
$
$ Bcc (cI2, Im-3m)
$
 PHASE BCC_A2 %B 2 1 3 !
 CONST BCC_A2 : PD SC% : VA : !
$
$ Hcp (hP2, P6_3/mmc) and Me2X (NiAs-type, hP4, P6_3/mmc, B8_1)
$
 PHASE HCP_A3 %A 2 1 0.5 !
 CONST HCP_A3 : PD SC% : VA : !
$
$ Prototype AuCu3 (cP4, Pm-3m)
$
 PHASE PD3SC_L12 % 2 3 1 !
 CONST PD3SC_L12 : PD : SC : !
$
$ unknown structure 
$
 PHASE PD2SC % 2 2 1 !
 CONST PD2SC : PD : SC : !
$
$ Prototype CsCl (cP2, Pm-3m)
$
 PHASE PDSC_B2 % 2 1 1 !
 CONST PDSC_B2 : PD% VA : SC : !
$
$ Prototype NiTi2 (cF96, Fd-3m)
$
 PHASE PDSC2 % 2 1 2 !
 CONST PDSC2 : PD : SC : !
$
$ unknown structure 
$
 PHASE PDSC4 % 2 1 4 !
 CONST PDSC4 : PD : SC : !
$ ------------------------------------------------------------------------------
$ Defaults
$
 DEFINE-SYSTEM-DEFAULT ELEMENT 2 !
 DEFAULT-COM DEFINE_SYSTEM_ELEMENT VA !
 TYPE-DEF % SEQ * !
 TYPE-DEF A GES AMEND_PHASE_DESCRIPTION @ MAGNETIC -3 0.28 !
 TYPE-DEF B GES AMEND_PHASE_DESCRIPTION @ MAGNETIC -1 0.4 !
 FUNCTION ZERO      298.15  0;                                         6000 N !
 FUNCTION UN_ASS    298.15  0;                                         6000 N !
 FUNCTION R         298.15  +8.31451;                                  6000 N !
$ ------------------------------------------------------------------------------
$ Element data
$ ------------------------------------------------------------------------------
$ Pd
$
$ RHOMBOHEDRAL_A7 added in unary 5.0
$
$ RHOMB_C19 from 00Du1 is absurd and not included in unary.
$
 PAR  G(FCC_A1,PD:VA),,                 +GHSERPD;                4000 N 91Din !
 PAR  G(BCC_A2,PD:VA),,                 +GHSERPD+10500-1.8*T;    4000 N 91Din !
 PAR  G(HCP_A3,PD:VA),,                 +GHSERPD+2000+0.1*T;     4000 N 91Din !
$PAR  G(RHOMBOHEDRAL_A7,PD),,           +GHSERPD+4000;           4000 N 06Vre !
$PAR  G(RHOMB_C19,PD),,                 +GHSERPD+714075;         4000 N 00Du1 !
 PAR  G(LIQUID,PD),,                    +GLIQPD;                 4000 N 91Din !
$
 FUNCTION GHSERPD   298.15  -10204.027+176.076315*T-32.211*T*LN(T)
       +0.007120975*T**2-1.919875E-06*T**3+168687*T**(-1);
       900.00  Y  +917.062+49.659892*T-13.5708*T*LN(T)
       -0.00717522*T**2+1.91115E-07*T**3-1112465*T**(-1);
      1828.00  Y  -67161.018+370.102147*T-54.2067086*T*LN(T)
       +0.002091396*T**2-6.2811E-08*T**3+18683526*T**(-1);
      4000.00  N !
 FUNCTION GLIQPD    298.15  +11506.758-5.112162*T+GHSERPD;
       600.00  Y  +23405.778-116.918419*T+10.8922031*T*LN(T)
       -0.027266568*T**2+2.430675E-06*T**3-1853674*T**(-1);
      1828.00  Y  -12373.637+251.416903*T-41.17*T*LN(T);
      4000.00  N !
$ ------------------------------------------------------------------------------
$ Sc
$
$ FCC_A1 and DHCP added in unary 4.4
$
$ FCC_A1 from 02Du absurd and not included in unary
$
 PAR  G(HCP_A3,SC:VA),,                 +GHSERSC;                3200 N 91Din !
 PAR  G(BCC_A2,SC:VA),,                 +GBCCSC;                 3200 N 91Din !
$PAR  G(FCC_A1,SC:VA),,                 +GHSERSC+5000;           3200 N 99Cac !
 PAR  G(FCC_A1,SC:VA),,                 +GHSERSC+125375.1;       3200 N 02Du !
$PAR  G(DHCP,SC),,                      +GHSERSC
$            +1200+0.4157255*T;                                  3200 N 00Nor2 !
 PAR  G(LIQUID,SC),,                    +GLIQSC;                 3200 N 91Din !
$
 PAR  G(PDSC_B2,VA:SC),,                +GHSERSC+5000;,,              N 02Du !
$
 FUNCTION GHSERSC   298.15  -8689.547+153.48097*T-28.1882*T*LN(T)
       +0.00321892*T**2-1.64531E-06*T**3+72177*T**(-1);
       800.00  Y  -7511.295+132.759582*T-24.9132*T*LN(T)
       -5.73295E-04*T**2-8.59345E-07*T**3;
      1608.00  Y  +261143.04-1817.92245*T+241.441051*T*LN(T)
       -0.117529396*T**2+8.7398E-06*T**3-50607159*T**(-1);
      2000.00  Y  -30515.246+286.474338*T-44.2249*T*LN(T);
      3200.00  N !
 FUNCTION GBCCSC    298.15  +1979.728-1.024135*T+GHSERSC;
      1000.00  Y  +230161.408-2004.05469*T+276.76664*T*LN(T)
       -0.167120107*T**2+1.5637371E-05*T**3-33783257*T**(-1);
      1608.00  Y  -25928.011+283.642312*T-44.2249*T*LN(T);
      2000.00  Y  +4587.235-2.832026*T+GHSERSC;
      3200.00  N !
 FUNCTION GLIQSC    298.15  +6478.66+45.427539*T-10.7967803*T*LN(T)
       -0.020636524*T**2+2.13106E-06*T**3-158106*T**(-1);
      1608.00  Y  -11832.111+275.871695*T-44.2249*T*LN(T);
      3200.00  N !
$ ------------------------------------------------------------------------------
$ Binary system
$
$ Z. Du, C. Li, L. Lu, Z. Metallkd., 93, 277-80(2002).
$
$ Checked against paper. Checked at 6000 K.
$
$ Bcc and hcp interactions not included in paper.
$
$ The fcc parameters are not acceptable.
$
 PAR  L(LIQUID,PD,SC;0),,               -257589+26.0238*T;,,          N 02Du !
 PAR  L(LIQUID,PD,SC;1),,               +10099.9-20.212*T;,,          N 02Du !
$
 PAR  L(FCC_A1,PD,SC:VA;0),,            -504164+76.1676*T;,,          N 02Du !
$
 PAR  G(PD3SC_L12,PD:SC),,              +3*GHSERPD+GHSERSC
             -328696.1+72.5546*T;,,                                   N 02Du !
 PAR  G(PD2SC,PD:SC),,                  +2*GHSERPD+GHSERSC
             -254365+48.5251*T;,,                                     N 02Du !
$
 PAR  G(PDSC_B2,PD:SC),,                +GHSERPD+GHSERSC
             -178497.5+27.228*T;,,                                    N 02Du !
 PAR  L(PDSC_B2,PD,VA:SC;0),,           +19547.8;,,                   N 02Du !
$
 PAR  G(PDSC2,PD:SC),,                  +GHSERPD+2*GHSERSC
             -237314.2+54.5888*T;,,                                   N 02Du !
 PAR  G(PDSC4,PD:SC),,                  +GHSERPD+4*GHSERSC
             -303852+97.3543*T;,,                                     N 02Du !
$ ------------------------------------------------------------------------------
$
$
 LIST-OF-REFERENCE
 NUMBER  SOURCE
  Null   'Unknown source'
  Same   'Same or similar interaction as in the corresponding stable phase'
  COST   'COST 507 database'
  91Din  'A.T. Dinsdale, Calphad, 15, 317-425(1991).'
  99Cac  'G. Cacciamani, P. Riani, G. Borzone, N. Parodi, A. Saccone, R. Ferro,
          A. Pisch, R. Schmid-Fetzer, Intermetallics, 7, 101-8(1999),
          SGTE unary database V.4.4, 2001; Sc'
  00Du1  'Z. Du, H. Yang, Z. Metallkd., 91, 455-59(2000); Pd, Sm'
  00Nor2 'S. Norgren, PhD Thesis, KTH, Stockholm, 2000,
          SGTE unary database V.4.4, 2001; Nd, Sc'
  02Du   'Z. Du, C. Li, L. Lu, Z. Metallkd., 93, 277-80(2002); Sc, Pd-Sc'
  06Vre  'J. Vrestal, J. Pinkas, A. Watson, A. Scott, J. Houserova, A. Kroupa,
          Calphad, 30, 14-17(2006), SGTE unary database V.5.0, 2009; Pd'
!
