$
$ Database for Bi-Cs from Y. Djaballah et al. 2015.
$
$ Y. Djaballah, A. Said Amer, S. Ugur, G. Ugur, A. Hidoussi,
$ A. Belgacem-Bouzida, Calphad, 48, 72-78(2015).
$
$ Dataset created 2018.04.03 by Bengt Hallstedt.
$ 2020.12.25: Modified for use with GES6.
$ 2023.02.24: Unary Bi changed from V4.4 to V5.0.
$
$ ------------------------------------------------------------------------------
 TEMP-LIM 298.15 6000.00 !
$
$ELEMENT NAME  REF. STATE               ATOMIC MASS H298-H0    S298    !
$
 ELEMENT VA   VACUUM                      0.0          0.0      0.0    ! 
 ELEMENT BI   RHOMBOHEDRAL_A7           208.98      6426.6     56.735  !
 ELEMENT CS   BCC_A2                    132.9054    7711.000   85.23   ! 
$ ------------------------------------------------------------------------------
$ Species
$
 SPECIE  BICS                               BI1CS1 !
 SPECIE  BICS3                              BI1CS3 !
$ ------------------------------------------------------------------------------
$ Phase definitions
$
 PHASE LIQUID:L % 1 1 !
 CONST LIQUID:L : BI BICS BICS3 CS : !
$
$ Fcc (cF4, Fm-3m) and MeX (cF8, Fm-3m)
$
 PHASE FCC_A1 %A 2 1 1 !
 CONST FCC_A1 : BI CS : VA : !
$
$ Bcc (cI2, Im-3m)
$
 PHASE BCC_A2 %B 2 1 3 !
 CONST BCC_A2 : BI CS% : VA : !
$
$ Hcp (hP2, P6_3/mmc) and Me2X (NiAs-type, hP4, P6_3/mmc, B8_1)
$
 PHASE HCP_A3 %A 2 1 0.5 !
 CONST HCP_A3 : BI CS : VA: !
$
$ Prototype alpha-As (hR2, R-3m)
$
 PHASE RHOMBOHEDRAL_A7 % 1 1 !
 CONST RHOMBOHEDRAL_A7 : BI : !
$
$ Prototype Cu2Mg (cF24, Fd-3m)
$
 PHASE BI2CS_C15 % 2 2 1 !
 CONST BI2CS_C15 : BI : CS : !
$
$ Prototype Rb5As4 (mC20, C2/m)
$
 PHASE BI4CS5 % 2 4 5 !
 CONST BI4CS5 : BI : CS : !
$
$ Prototype Eu3Ga2 (mC20, C2/c)
$
 PHASE BI2CS3 % 2 2 3 !
 CONST BI2CS3 : BI : CS : !
$
$ Prototype BiF3 (cF16, Fm-3m)
$
 PHASE BICS3_D03 % 2 1 3 !
 CONST BICS3_D03 : BI : CS : !
$ ------------------------------------------------------------------------------
$ Defaults
$
 DEFINE-SYSTEM-DEFAULT ELEMENT 2 !
 DEFAULT-COM DEFINE_SYSTEM_ELEMENT VA !
 TYPE-DEF A GES AMEND_PHASE_DESCRIPTION @ MAGNETIC -3 0.28 !
 TYPE-DEF B GES AMEND_PHASE_DESCRIPTION @ MAGNETIC -1 0.4 !
 TYPE-DEF % SEQ * !
 FUNCTION ZERO      298.15  0;                                         6000 N !
 FUNCTION UN_ASS    298.15  0;                                         6000 N !
 FUNCTION R         298.15  +8.31451;                                  6000 N !
$ ------------------------------------------------------------------------------
$ Element data
$ ------------------------------------------------------------------------------
$ Bi
$
$ RHOMBOHEDRAL_A7 and LIQUID modified in unary 5.0
$ DIAMOND_A4 added in unary 5.0
$
 PAR  G(RHOMBOHEDRAL_A7,BI),,           +GHSERBI;                3000 N 09SGUN !
 PAR  G(FCC_A1,BI:VA),,                 +GHSERBI+9900-12.5*T;    3000 N 91Din !
 PAR  G(BCC_A2,BI:VA),,                 +GHSERBI+11297-13.9*T;   3000 N 91Din !
 PAR  G(HCP_A3,BI:VA),,                 +GHSERBI+9900-11.8*T;    3000 N 91Din !
$PAR  G(DIAMOND_A4,BI),,                +GHSERBI
$            +11296.8+9.253655*T;                                3000 N 88Che2 !
$PAR  G(BCT_A5,BI),,                    +GHSERBI+4184.07;        3000 N 91Din !
$PAR  G(TETRAGONAL_A6,BI),,             +GHSERBI+4184.07;        3000 N 91Din !
$PAR  G(TET_ALPHA1_A6,BI),,             +GHSERBI+4234;           3000 N 91Din !
 PAR  G(LIQUID,BI),,                    +GLIQBI;                 3000 N 09SGUN ! 
$
 FUNCTION GHSERBI   298.15  -7817.776+128.418925*T-28.4096529*T*LN(T)
       +0.012338888*T**2-8.381598E-6*T**3;
       544.55  Y  +29293.369-379.605174*T+49.678*T*LN(T)
       -0.0730245*T**2+1.3052833E-5*T**3-3544705*T**(-1)+1.66309E+25*T**(-9);
       800.00  Y  -11085.609+182.955328*T-36.041*T*LN(T)
       +7.4641E-3*T**2-1.05047E-6*T**3+5175*T**(-1)+1.66309E+25*T**(-9);
      1200.00  Y  -7580.864+124.770814*T-27.196*T*LN(T)+1.66309E+25*T**(-9);
      3000.00  N !
 FUNCTION GLIQBI    298.15  +11246.017-20.636399*T+GHSERBI-5.9608E-19*T**7;
       544.55  Y  +40629.667-400.415652*T+49.678*T*LN(T)
       -0.0730245*T**2+1.3052833E-5*T**3-3544705*T**(-1);
       800.00  Y  +250.689+162.14485*T-36.041*T*LN(T)
       +0.0074641*T**2-1.05047E-6*T**3+5175*T**(-1);
      1200.00  Y  +3755.434+103.960336*T-27.196*T*LN(T);
      3000.00 N !
$ ------------------------------------------------------------------------------
$ Cs
$
 PAR  G(BCC_A2,CS:VA)           200.00  +GHSERCS;                2000 N 91Din !
 PAR  G(HCP_A3,CS:VA)           200.00  +GHSERCS+500+2*T;        2000 N 91Din !
 PAR  G(FCC_A1,CS:VA)           200.00  +GHSERCS+500+1.3*T;      2000 N 91Din !
 PAR  G(LIQUID,CS)              200.00  +GLIQCS;                 2000 N 91Din !
$
 FUNCTION GHSERCS   200.00  -17373.82+436.899787*T-90.5212584*T*LN(T)
       +0.2029422*T**2-1.27907669E-04*T**3+245245*T**(-1);
       301.59  Y  -13553.817+218.689955*T-46.7273304*T*LN(T)
       +0.02043269*T**2-4.074846E-06*T**3+181528*T**(-1)+7.8016E+21*T**(-9);
      2000.00  N !
 FUNCTION GLIQCS    200.00  +2091.141-6.931035*T+GHSERCS-3.56867E-18*T**7;
       301.59  Y  +2099.779-6.961111*T+GHSERCS-7.8016E+21*T**(-9);
      2000.00  N !
$ ------------------------------------------------------------------------------
$ Binary system
$
$ Y. Djaballah, A. Said Amer, S. Ugur, G. Ugur, A. Hidoussi,
$ A. Belgacem-Bouzida, Calphad, 48, 72-78(2015).
$
$ Checked against paper and author's tdb. Checked at 6000 K.
$
 PAR  G(LIQUID,BICS),,                  +GLIQBI+GLIQCS-48000+26*T;,,  N 15Dja !
 PAR  G(LIQUID,BICS3),,                 +GLIQBI+3*GLIQCS
             -120000+15*T;,,                                          N 15Dja !
 PAR  L(LIQUID,BI,CS;0),,               -44039+6*T;,,                 N 15Dja !
 PAR  L(LIQUID,BI,BICS;0),,             -35652+2*T;,,                 N 15Dja !
 PAR  L(LIQUID,BI,BICS3;0),,            -87513+15*T;,,                N 15Dja !
 PAR  L(LIQUID,BI,BICS3;1),,            -50000;,,                     N 15Dja !
 PAR  L(LIQUID,BICS,CS;0),,             +10515-9.58*T;,,              N 15Dja !
 PAR  L(LIQUID,BICS,BICS3;0),,          -20000-4*T;,,                 N 15Dja !
 PAR  L(LIQUID,BICS,BICS3;1),,          -15000;,,                     N 15Dja !
 PAR  L(LIQUID,BICS3,CS;0),,            +1000-27*T;,,                 N 15Dja !
 PAR  L(LIQUID,BICS3,CS;1),,            -6800;,,                      N 15Dja !
$
 PAR  L(BCC_A2,BI,CS:VA;0),,            +UN_ASS;,,                    N !
$
 PAR  G(BI2CS_C15,BI:CS),,              +2*GHSERBI+GHSERCS
             -93081+4.554*T;,,                                        N 15Dja !
 PAR  G(BI4CS5,BI:CS),,                 +4*GHSERBI+5*GHSERCS
             -314397+9.891*T;,,                                       N 15Dja !
 PAR  G(BI2CS3,BI:CS),,                 +2*GHSERBI+3*GHSERCS
             -169840-6.445*T;,,                                       N 15Dja !
 PAR  G(BICS3_D03,BI:CS),,              +GHSERBI+3*GHSERCS
             -130272-4.756*T;,,                                       N 15Dja !
$ ------------------------------------------------------------------------------
$
$
 LIST-OF-REFERENCE
 NUMBER  SOURCE
  Null   'Unknown source'
  Same   'Same or similar interaction as in the corresponding stable phase'
  COST   'COST 507 database'
  88Che2 'P.-Y. Chevalier, Thermochim. Acta, 132, 111-16(1988),
          SGTE unary database V.5.0, 2009; Bi' 
  91Din  'A.T. Dinsdale, Calphad, 15, 317-425(1991).'
  09SGUN 'SGTE unary database V.5.0, 2009.'
  15Dja  'Y. Djaballah, A. Said Amer, S. Ugur, G. Ugur, A. Hidoussi,
          A. Belgacem-Bouzida, Calphad, 48, 72-78(2015); Bi-Cs'
!
