$
$ Database for W-C from P. Gustafson 1986
$
$ P. Gustafson, Mater. Sci. Technol., 2, 653-58(1986).
$
$ Dataset created 2010.02.21 by Bengt Hallstedt.
$ 2021.02.05: Modified for use with GES6.
$
$ ------------------------------------------------------------------------------
 TEMP-LIM 298.15 6000.00 !
$
$ELEMENT NAME  REF. STATE               ATOMIC MASS H298-H0    S298    !
$
 ELEMENT VA   VACUUM                      0.0          0.0      0.0    ! 
 ELEMENT C    GRAPHITE                   12.011     1054.0      5.7423 ! 
 ELEMENT W    BCC_A2                    183.85      4970.0     32.6176 ! 
$ ------------------------------------------------------------------------------
$ Phase definitions
$
 PHASE LIQUID:L % 1 1 !
 CONST LIQUID:L : C W : !
$
$ Fcc (cF4, Fm-3m) and MeX (cF8, Fm-3m)
$
 PHASE FCC_A1 %A 2 1 1 !
 CONST FCC_A1 : W : C VA% : !
$
$ Bcc (cI2, Im-3m)
$
 PHASE BCC_A2 %B 2 1 3 !
 CONST BCC_A2 : W : C VA% : !
$
$ Hcp (hP2, P6_3/mmc) and Me2X (NiAs-type, hP4, P6_3/mmc, B8_1)
$
 PHASE HCP_A3 %A 2 1 0.5 !
 CONST HCP_A3 : W : C VA% : !
$
$ Prototype C (cF8, Fd-3m)
$
 PHASE DIAMOND_A4 % 1 1 !
 CONST DIAMOND_A4 : C : !
$
$ Prototype C (hP4, P6_3/mmc)
$
 PHASE GRAPHITE_A9 % 1 1 !
 CONST GRAPHITE_A9 : C : !
$
$ Prototype WC (hP2, P-6m2, SB: B_h)
$
 PHASE MC_SHP % 2 1 1 !
 CONST MC_SHP : W : C : !
$ ------------------------------------------------------------------------------
$ Defaults
$
 DEFINE-SYSTEM-DEFAULT ELEMENT 2 !
 DEFAULT-COM DEFINE_SYSTEM_ELEMENT VA !
 TYPE-DEF % SEQ * !
 TYPE-DEF A GES AMEND_PHASE_DESCRIPTION @ MAGNETIC -3 0.28 !
 TYPE-DEF B GES AMEND_PHASE_DESCRIPTION @ MAGNETIC -1 0.4 !
 FUNCTION ZERO      298.15  0;                                         6000 N !
 FUNCTION UN_ASS    298.15  0;                                         6000 N !
$ ------------------------------------------------------------------------------
$ Element data
$ ------------------------------------------------------------------------------
$ C
$
 PAR  G(GRAPHITE_A9,C),,                +GHSERCC;,,                   N 91Din !
 PAR  G(DIAMOND_A4,C),,                 +GDIACC;,,                    N 91Din !
 PAR  G(LIQUID,C),,                     +GHSERCC+117369-24.63*T;,,    N 91Din !
$
 FUNCTION GHSERCC   298.15  -17368.441+170.73*T-24.3*T*LN(T)
       -4.723E-04*T**2+2562600*T**(-1)-2.643E+08*T**(-2)+1.2E+10*T**(-3);
      6000.00  N !
 FUNCTION GDIACC    298.15  -16359.441+175.61*T-24.31*T*LN(T)
       -4.723E-04*T**2+2698000*T**(-1)-2.61E+08*T**(-2)+1.11E+10*T**(-3);
      6000.00  N !
$ ------------------------------------------------------------------------------
$ W
$
 PAR  G(BCC_A2,W:VA),,                  +GHSERWW;,,                   N 91Din !
 PAR  G(FCC_A1,W:VA),,                  +GHSERWW+19300+0.63*T;,,      N 91Din !
 PAR  G(HCP_A3,W:VA),,                  +GHSERWW+14750;,,             N 91Din !
 PAR  G(LIQUID,W),,                     +GLIQWW;,,                    N 91Din !
$
$PAR  G(MC_ETA,W:VA),,                  +GHSERWW+19300+0.63*T;,,      N 88Gus2 !
$
 FUNCTION GHSERWW   298.15  -7646.311+130.4*T-24.1*T*LN(T)
       -0.001936*T**2+2.07E-07*T**3+44500*T**(-1)-5.33E-11*T**4;
      3695.00  Y  -82868.801+389.362335*T-54*T*LN(T)+1.528621E+33*T**(-9);
      6000.00  N !
 FUNCTION GLIQWW    298.15  +52160.584-14.10999*T+GHSERWW-2.713468E-24*T**7;
      3695.00  Y  -30436.051+375.175*T-54*T*LN(T);
      6000.00  N !
 FUNCTION GFCCWW    298.15  +GHSERWW+19300+0.63*T;                     6000 N !
$ ------------------------------------------------------------------------------
$ Binary system
$
$ P. Gustafson, Mater. Sci. Technol., 2, 653-58(1986).
$
$ Checked against paper. Checked at 6000 K.
$
 PAR  L(LIQUID,C,W;0),,                 -107920+6.38*T;,,             N 86Gus !
 PAR  L(LIQUID,C,W;1),,                 +173900-34.25*T;,,            N 86Gus !
 PAR  L(LIQUID,C,W;2),,                 +83700;,,                     N 86Gus !
$
 PAR  G(BCC_A2,W:C),,                   +GHSERWW+3*GHSERCC
             +375100-35.87*T;,,                                       N 86Gus !
$
 PAR  G(FCC_A1,W:C),,                   +GHSERWW+GHSERCC
             -17864+1.875*T;,,                                        N 86Gus !
 PAR  L(FCC_A1,W:C,VA;0),,              -17.98*T;,,                   N 86Gus !
$
 PAR  G(HCP_A3,W:C),,                   +GHSERWW+0.5*GHSERCC
             -6715-6.65*T;,,                                          N 86Gus !
 PAR  L(HCP_A3,W:C,VA;0),,              +4165;,,                      N 86Gus !
$
 PAR  G(MC_SHP,W:C),,                   -58192+287.16*T-46.48*T*LN(T)
             -0.0021435*T**2-9.2217E-8*T**3+590500*T**(-1);,,         N 86Gus !
$
$ metastable
$
$PAR  G(CEMENTITE_D011,W:C),,           +3*GHSERWW+GHSERCC+54150;,,   N 87Gus1 !
$PAR  G(M7C3_D101,W:C),,                +7*GHSERWW+3*GHSERCC
$            +138000-50*T;,,                                          N 88Gus5 !
$PAR  G(M3C2_D510,W:C),,                +3*GHSERWW+2*GHSERCC-18100;,, N 88Gus5 !
$PAR  G(KSI_CARBIDE,W:C),,              +3*GHSERWW+GHSERCC+303700;,,  N 88Gus3 !
$
$PAR  G(MC_ETA,W:C),,                   -13874+272.78*T
$            -45.4249153*T*LN(T)-0.00300357579*T**2+612893.58*T**(-1)
$            -1.4027703E+09*T**(-3);,,                                N 99Lee !
$PAR  L(MC_ETA,W:C,VA;0),,              -47079;,,                     N 99Lee !
$PAR  L(MC_ETA,W:C,VA;1),,              -3885;,,                      N 99Lee !
$ ------------------------------------------------------------------------------
$
 ASSESSED_SYSTEM
  C-W(TDB -* +LIQ +BCC_A2 +FCC_A1 +HCP_A3 +MC_SHP +GRAPH
  ;G5 C_S:HCP_A3/W:C C_S:FCC/W:C ;P3 TMM:300/4500 STP:0.9/2000/-1) !
$
$
 LIST-OF-REFERENCE
 NUMBER  SOURCE
  Null   'Unknown source'
  86Gus  'P. Gustafson, Mater. Sci. Technol., 2, 653-58(1986); W-C'
  87Gus1 'P. Gustafson, Metall. Trans. A, 18A, 175-88(1987); Fe-W-C'
  88Gus2 'P. Gustafson, Z. Metallkd., 79, 397-402(1988); Mo-W-C'
  88Gus3 'P. Gustafson, Z. Metallkd., 79, 421-25(1988); Fe-Mo-W-C'
  88Gus5 'P. Gustafson, Metall. Trans. A, 19A, 2547-54(1988); Cr-Fe-W-C'
  91Din  'A.T. Dinsdale, Calphad, 15, 317-425(1991).'
  99Lee  'B.-J. Lee, unpublished revision, 1999'
!
