$
$ Database for Ga-Mg from F. Meng et al. 2010.
$
$ F. Meng, J. Wang, M. Rong, L. Liu, Z. Jin,
$ Trans. Nonferrous Met. Soc. China, 20, 450-57(2010).
$
$ Dataset created 2022.04.03 by Bengt Hallstedt.
$
$ ------------------------------------------------------------------------------
 TEMP-LIM 298.15 6000.00 !
$
$ELEMENT NAME  REF. STATE               ATOMIC MASS H298-H0    S298    !
$
 ELEMENT VA   VACUUM                      0.0          0.0      0.0    ! 
 ELEMENT GA   ORTHORHOMBIC_GA            69.72      5572.0     40.7271 ! 
 ELEMENT MG   HCP_A3                     24.305     4998.      32.671  !
$ ------------------------------------------------------------------------------
$ Phase definitions
$
 PHASE LIQUID:L % 1 1 !
 CONST LIQUID:L : GA MG : !
$
$ Fcc (cF4, Fm-3m) and MeX (cF8, Fm-3m)
$
 PHASE FCC_A1 %A 2 1 1 !
 CONST FCC_A1 : GA MG : VA : !
$
$ Bcc (cI2, Im-3m)
$
 PHASE BCC_A2 %B 2 1 3 !
 CONST BCC_A2 : GA MG : VA : !
$
$ Hcp (hP2, P6_3/mmc) and Me2X (NiAs-type, hP4, P6_3/mmc, B8_1)
$
 PHASE HCP_A3 %A 2 1 0.5 !
 CONST HCP_A3 : GA MG% : VA : !
$
$ alpha-Ga (oC8, Cmca)
$
 PHASE ORTHORHOMBIC_A11 % 1 1 !
 CONST ORTHORHOMBIC_A11 : GA : !
$
$ Prototype Ga5Mg2 (tI28, I4/mmm)
$
 PHASE GA5MG2 % 2 5 2 !
 CONST GA5MG2 : GA : MG : !
$
$ Prototype Ga2Mg (oP24, Pbam)
$
 PHASE GA2MG % 2 2 1 !
 CONST GA2MG : GA : MG : !
$
$ Prototype GaMg (tI32, I4_1/a)
$
 PHASE GAMG % 2 1 1 !
 CONST GAMG : GA : MG : !
$
$ Prototype GaMg2 (hP18, P-62c)
$
 PHASE GAMG2 % 2 1 2 !
 CONST GAMG2 : GA : MG : !
$
$ Prototype Ga2Mg5 (oI28, Ibam)
$
 PHASE GA2MG5_D8G % 2 2 5 !
 CONST GA2MG5_D8G : GA : MG : !
$ ------------------------------------------------------------------------------
$ Defaults
$
 DEFINE-SYSTEM-DEFAULT ELEMENT 2 !
 DEFAULT-COM DEFINE_SYSTEM_ELEMENT VA !
 TYPE-DEF % SEQ * !
 TYPE-DEF A GES AMEND_PHASE_DESCRIPTION @ MAGNETIC -3 0.28 !
 TYPE-DEF B GES AMEND_PHASE_DESCRIPTION @ MAGNETIC -1 0.4 !
 FUNCTION ZERO      298.15  0;                                         6000 N !
 FUNCTION UN_ASS    298.15  0;                                         6000 N !
 FUNCTION R         298.15  +8.31451;                                  6000 N !
$ ------------------------------------------------------------------------------
$ Element data
$ ------------------------------------------------------------------------------
$ Ga
$
$ DIAMOND_A4 added in unary 5.0
$
$ Changed name from ORTHORHOMBIC_GA to ORTHORHOMBIC_A11
$
 PAR  G(ORTHORHOMBIC_A11,GA)    200.00  +GHSERGA;                4000 N 91Din !
 PAR  G(FCC_A1,GA:VA)           200.00  +GHSERGA+3800-10.2*T;    4000 N 91Din !
 PAR  G(BCC_A2,GA:VA)           200.00  +GHSERGA+4500-11.7*T;    4000 N 91Din !
 PAR  G(HCP_A3,GA:VA)           200.00  +GHSERGA+4500-9.5*T;     4000 N 91Din !
$PAR  G(DIAMOND_A4,GA)          200.00  +GHSERGA+20900-2*T;      4000 N 09SGUN !
$PAR  G(BCT_A5,GA)              200.00  +GHSERGA+3846-9.8*T;     4000 N 91Din !
$PAR  G(TETRAGONAL_A6,GA)       200.00  +GHSERGA+3500-10*T;      4000 N 91Din !
 PAR  G(LIQUID,GA)              200.00  +GLIQGA;                 4000 N 91Din !
$
 FUNCTION GHSERGA   200.00  -21312.331+585.263691*T-108.228783*T*LN(T)
       +0.227155636*T**2-1.18575257E-04*T**3+439954*T**(-1);
       302.91  Y  -7055.643+132.73019*T-26.0692906*T*LN(T)
       +1.506E-04*T**2-4.0173E-08*T**3-118332*T**(-1)+1.64547E+23*T**(-9);
      4000.00  N !
 FUNCTION GLIQGA    200.00  +5491.298-18.073995*T+GHSERGA-7.0171E-17*T**7;
       302.91  Y  +5666.455-18.681147*T+GHSERGA-1.64547E+23*T**(-9);
      4000.00  N !
$ ------------------------------------------------------------------------------
$ Mg
$
 PAR  G(FCC_A1,MG:VA),,                 +GHSERMG+2600-0.9*T;     3000 N 91Din !
 PAR  G(BCC_A2,MG:VA),,                 +GHSERMG+3100-2.1*T;     3000 N 91Din !
 PAR  G(HCP_A3,MG:VA),,                 +GHSERMG;                3000 N 91Din !
 PAR  G(LIQUID,MG),,                    +GLIQMG;                 3000 N 91Din !
$
 FUNCTION GHSERMG   298.15  -8367.34+143.675547*T-26.1849782*T*LN(T)
       +4.858E-04*T**2-1.393669E-06*T**3+78950*T**(-1);
       923.00  Y  -14130.185+204.716215*T-34.3088*T*LN(T)+1.038192E+28*T**(-9);
      3000.00  N !
 FUNCTION GLIQMG    298.15  +8202.243-8.83693*T+GHSERMG-8.0176E-20*T**7;
       923.00  Y  -5439.869+195.324057*T-34.3088*T*LN(T);
      3000.00  N !
$ ------------------------------------------------------------------------------
$ Binary system
$
$ F. Meng, J. Wang, M. Rong, L. Liu, Z. Jin,
$ Trans. Nonferrous Met. Soc. China, 20, 450-57(2010).
$
$ Checked against paper. Checked at 6000 K.
$
 PAR  L(LIQUID,GA,MG;0),,               -46077.22+16.693*T;,,         N 10Men !
 PAR  L(LIQUID,GA,MG;1),,               +8953.22-6.992*T;,,           N 10Men !
 PAR  L(LIQUID,GA,MG;2),,               +5248.59;,,                   N 10Men !
$
 PAR  L(HCP_A3,GA,MG:VA;0),,            -24803.83+6.461*T;,,          N 10Men !
$
 PAR  G(GA5MG2,GA:MG),,                 +5*GHSERGA+2*GHSERMG
             -80244.71+1.106*T;,,                                     N 10Men !
 PAR  G(GA2MG,GA:MG),,                  +2*GHSERGA+GHSERMG
             -38161.41+0.573*T;,,                                     N 10Men !
 PAR  G(GAMG,GA:MG),,                   +GHSERGA+GHSERMG
             -29078.98+0.4*T;,,                                       N 10Men !
 PAR  G(GAMG2,GA:MG),,                  +GHSERGA+2*GHSERMG
             -39467.04+1.011*T;,,                                     N 10Men !
 PAR  G(GA2MG5_D8G,GA:MG),,             +2*GHSERGA+5*GHSERMG
             -83986+2.31*T;,,                                         N 10Men !
$
$ Metastable
$
 PAR  L(FCC_A1,GA,MG:VA;0),,            -24803.83+6.461*T;,,          N Same !
 PAR  L(BCC_A2,GA,MG:VA;0),,            -24803.83+6.461*T;,,          N Same !
$ ------------------------------------------------------------------------------
$
 ASSESSED_SYSTEM
  GA-MG(TDB -* +LIQUID +HCP_A3 +ORTHO_A11 +GA5MG2 +GA2MG +GAMG +GAMG2
  +GA2MG5_D8G ;P3 TMM:200/1000 *) !
$
$
 LIST-OF-REFERENCE
 NUMBER  SOURCE
  Null   'Unknown source'
  Same   'Same or similar interaction as in the corresponding stable phase'
  REFLAV 'Laves phase convention: G(LAVES,X:X)=+3*GHSERXX+15000'
  COST   'COST 507 database, 1998'
  91Din  'A.T. Dinsdale, Calphad, 15, 317-425(1991).'
  09SGUN 'SGTE unary database V.5.0, 2009.'
  10Men  'F. Meng, J. Wang, M. Rong, L. Liu, Z. Jin,
          Trans. Nonferrous Met. Soc. China, 20, 450-57(2010); Ga-Mg'
!
