$
$ Database for Al-Na from S. Zhang et al. 2006.
$
$ S. Zhang, Q. Han, Z.-K. Liu, J. Alloys Compd., 419, 91-97(2006).
$
$ Dataset created 2018.03.25 by Bengt Hallstedt.
$ 2020.12.22: Modified for use with GES6.
$
$ The liquid interaction is not acceptable.
$
$ ------------------------------------------------------------------------------
 TEMP-LIM 298.15 6000.00 !
$
$ELEMENT NAME  REF. STATE               ATOMIC MASS H298-H0    S298    !
$
 ELEMENT VA   VACUUM                      0.0          0.0      0.0    ! 
 ELEMENT AL   FCC_A1                     26.98154   4540.      28.30   ! 
 ELEMENT NA   BCC_A2                     22.98977   6460.      51.3000 ! 
$ ------------------------------------------------------------------------------
$ Phase definitions
$
 PHASE LIQUID:L % 1 1 !
 CONST LIQUID:L : AL NA : !
$
$ Fcc (cF4, Fm-3m) and MeX (cF8, Fm-3m)
$
 PHASE FCC_A1 %A 2 1 1 !
 CONST FCC_A1 : AL% NA : VA : !
$
$ Bcc (cI2, Im-3m)
$
 PHASE BCC_A2 %B 2 1 3 !
 CONST BCC_A2 : AL NA% : VA : !
$
$ Hcp (hP2, P6_3/mmc) and Me2X (NiAs-type, hP4, P6_3/mmc, B8_1)
$
 PHASE HCP_A3 %A 2 1 0.5 !
 CONST HCP_A3 : AL NA : VA : !
$ ------------------------------------------------------------------------------
$ Defaults
$
 DEFINE-SYSTEM-DEFAULT ELEMENT 2 !
 DEFAULT-COM DEFINE_SYSTEM_ELEMENT VA !
 TYPE-DEF % SEQ * !
 TYPE-DEF A GES AMEND_PHASE_DESCRIPTION @ MAGNETIC -3 0.28 !
 TYPE-DEF B GES AMEND_PHASE_DESCRIPTION @ MAGNETIC -1 0.4 !
 FUNCTION ZERO      298.15  0;                                         6000 N !
 FUNCTION UN_ASS    298.15  0;                                         6000 N !
 FUNCTION R         298.15  +8.31451;                                  6000 N !
$ ------------------------------------------------------------------------------
$ Element data
$ ------------------------------------------------------------------------------
$ Al
$
$ BCT_A5 and DIAMOND_A4 added in unary 3.0
$
 PAR  G(FCC_A1,AL:VA),,                 +GHSERAL;                2900 N 91Din !
 PAR  G(BCC_A2,AL:VA),,                 +GHSERAL+10083-4.813*T;  2900 N 91Din !
 PAR  G(HCP_A3,AL:VA),,                 +GHSERAL+5481-1.8*T;     2900 N 91Din !
$PAR  G(CBCC_A12,AL:VA),,               +GHSERAL
$            +10083.4-4.813*T;                                   2900 N 91Din !
$PAR  G(CUB_A13,AL:VA),,                +GHSERAL
$            +10920.44-4.8116*T;                                 2900 N 91Din !
$PAR  G(BCT_A5,AL),,                    +GHSERAL+10083-4.813*T;  2900 N SGCOST !
$PAR  G(DIAMOND_A4,AL),,                +GHSERAL+30*T;           2900 N SGCOST !
 PAR  G(LIQUID,AL),,                    +GLIQAL;                 2900 N 91Din !
$
 FUNCTION GHSERAL   298.15  -7976.15+137.093038*T-24.3671976*T*LN(T)
       -0.001884662*T**2-8.77664E-07*T**3+74092*T**(-1);
       700.00  Y  -11276.24+223.048446*T-38.5844296*T*LN(T)
       +0.018531982*T**2 -5.764227E-06*T**3+74092*T**(-1);
       933.47  Y  -11278.361+188.684136*T-31.748192*T*LN(T)
       -1.230622E+28*T**(-9);
      2900.00  N !
 FUNCTION GLIQAL    298.15  +11005.045-11.84185*T+GHSERAL+7.9337E-20*T**7;
       933.47  Y  -795.991+177.430209*T-31.748192*T*LN(T);
      2900.00  N !
 FUNCTION GBCCAL    298.15  +GHSERAL+10083-4.813*T;                    2900 N !
$ ------------------------------------------------------------------------------
$ Na
$
 PAR  G(BCC_A2,NA:VA)           200.00  +GHSERNA;                2300 N 91Din !
 PAR  G(HCP_A3,NA:VA)           200.00  +GHSERNA-104+2*T;        2300 N 91Din !
 PAR  G(FCC_A1,NA:VA)           200.00  +GHSERNA-50+1.3*T;       2300 N 91Din !
 PAR  G(LIQUID,NA)              200.00  +GLIQNA;                 2300 N 91Din !
$
 FUNCTION GHSERNA   200.00  -11989.434+260.548732*T-51.0393608*T*LN(T)
       +0.072306633*T**2-4.3638283E-05*T**3+132154*T**(-1);
       370.87  Y  -11009.884+199.619999*T-38.1198801*T*LN(T)
       +0.009745854*T**2-1.70664E-06*T**3+34342*T**(-1)+1.65071E+23*T**(-9);
      2300.00  N !
 FUNCTION GLIQNA    200.00  +2581.02-6.95218*T+GHSERNA-2.76132E-18*T**7;
       370.87  Y  +2609.444-7.032656*T+GHSERNA-1.65071E+23*T**(-9);
      2300.00  N !
$ ------------------------------------------------------------------------------
$ Binary system
$
$ S. Zhang, Q. Han, Z.-K. Liu, J. Alloys Compd., 419, 91-97(2006).
$
$ Checked against paper. Checked at 6000 K.
$
$ The liquid interaction is not acceptable.
$
 PAR  L(LIQUID,AL,NA;0),,               +773708+20.277*T;,,           N 06Zha !
 PAR  L(LIQUID,AL,NA;1),,               -745869;,,                    N 06Zha !
$
 PAR  L(FCC_A1,AL,NA:VA;0),,            +78765;,,                     N 06Zha !
 PAR  L(BCC_A2,AL,NA:VA;0),,            +20000;,,                     N 06Zha !
$
$ Metastable
$
 PAR  L(HCP_A3,AL,NA:VA;0),,            +78765;,,                     N Same !
$ ------------------------------------------------------------------------------
$
$
 LIST-OF-REFERENCE
 NUMBER  SOURCE
  Null   'Unknown source'
  Same   'Same or similar interaction as in the corresponding stable phase'
  REFLAV 'Laves phase convention: G(LAVES,X:X)=+3*GHSERXX+15000'
  COST   'COST 507 database, 1998'
  SGCOST 'COST 507 database, SGTE unary database V.3.0, 1996; Al, B, Nd, Ti, Zn'
  91Din  'A.T. Dinsdale, Calphad, 15, 317-425(1991).'
  06Zha  'S. Zhang, Q. Han, Z.-K. Liu,
          J. Alloys Compd., 419, 91-97(2006); Al-Na'
!
