$
$ Database for Na-H from A.D. Pelton 1993.
$
$ A.D. Pelton, Z. Metallkd., 84, 767-72(1993).
$
$ Dataset created 2018.11.03 by Bengt Hallstedt.
$ 2021.01.31: Modified for use with GES6.
$
$ Solubility of H in solid Na is not modelled.
$
$ ------------------------------------------------------------------------------
 TEMP-LIM 298.15 6000.00 !
$
$ELEMENT NAME  REF. STATE               ATOMIC MASS H298-H0    S298    !
$
 ELEMENT VA   VACUUM                      0.0          0.0      0.0    ! 
 ELEMENT H    1/2_MOLE_H2(G)              1.0079    4234.      65.285  ! 
 ELEMENT NA   BCC_A2                     22.98977   6460.      51.3000 ! 
$ ------------------------------------------------------------------------------
$ Species
$
 SPECIE  H2                                 H2 !
 SPECIE  NA2                                NA2 !
 SPECIE  NAH                                NA1H1 !
$ ------------------------------------------------------------------------------
$ Phase definitions
$
 PHASE LIQUID:L % 1 1 !
 CONST LIQUID:L : NA NAH : !
$
$ Fcc (cF4, Fm-3m) and MeX (cF8, Fm-3m)
$
 PHASE FCC_A1 %A 2 1 1 !
 CONST FCC_A1 : NA : VA : !
$
$ Bcc (cI2, Im-3m)
$
 PHASE BCC_A2 %B 2 1 3 !
 CONST BCC_A2 : NA : VA : !
$
$ Hcp (hP2, P6_3/mmc)
$
 PHASE HCP_A3 %A 2 1 0.5 !
 CONST HCP_A3 : NA : VA : !
$
$ Prototype NaCl (cF8, Fm-3m)
$
 PHASE NAH_B1 % 2 1 1 !
 CONST NAH_B1 : NA : H : !
$
 PHASE GAS:G % 1 1 !
 CONST GAS:G : H H2 NA NA2 NAH : !
$ ------------------------------------------------------------------------------
$ Defaults
$
 DEFINE-SYSTEM-DEFAULT ELEMENT 2 !
 DEFAULT-COM DEFINE_SYSTEM_ELEMENT VA !
 TYPE-DEF % SEQ * !
 TYPE-DEF A GES AMEND_PHASE_DESCRIPTION @ MAGNETIC -3 0.28 !
 TYPE-DEF B GES AMEND_PHASE_DESCRIPTION @ MAGNETIC -1 0.4 !
 FUNCTION ZERO      298.15  0;                                         6000 N !
 FUNCTION UN_ASS    298.15  0;                                         6000 N !
 FUNCTION R         298.15  +8.31451;                                  6000 N !
 FUNCTION RTLNP     298.15  +8.31451*T*LN(1E-05*P);                    6000 N !
$ ------------------------------------------------------------------------------
$ Element data
$ ------------------------------------------------------------------------------
$ H
$
$ H is not included in unary
$
$PAR  G(LIQUID,H),,                     +0.5*GHSERH2
$            +8035+25*T+2*T*LN(T);,,                                  N 06Qiu !
$
 PAR  G(GAS,H),,                        +F10383T+RTLNP;,,             N 97SUB !
 PAR  G(GAS,H2),,                       +GHSERH2+RTLNP;,,             N 97SUB !
$
$ H(g)
 FUNCTION F10383T   298.15  +211801.621+24.4989821*T-20.78611*T*LN(T);
      6000.00  N !
$ H2(g)
 FUNCTION GHSERH2   298.15  -9522.9741+78.5273879*T-31.35707*T*LN(T)
       +0.0027589925*T**2-7.46390667E-07*T**3+56582.3*T**(-1);
      1000.00  Y  +180.108664-15.6128256*T-17.84857*T*LN(T)
       -0.00584168*T**2+3.14618667E-07*T**3-1280036*T**(-1);
      2100.00  Y  -18840.1663+92.3120255*T-32.05082*T*LN(T)
       -0.0010728235*T**2+1.14281783E-08*T**3+3561002.5*T**(-1);
      6000.00  N !
$ ------------------------------------------------------------------------------
$ Na
$
 PAR  G(BCC_A2,NA:VA)           200.00  +GHSERNA;                2300 N 91Din !
 PAR  G(HCP_A3,NA:VA)           200.00  +GHSERNA-104+2*T;        2300 N 91Din !
 PAR  G(FCC_A1,NA:VA)           200.00  +GHSERNA-50+1.3*T;       2300 N 91Din !
 PAR  G(LIQUID,NA)              200.00  +GLIQNA;                 2300 N 91Din !
$
 PAR  G(GAS,NA),,                       +F12933T+RTLNP;,,             N 97SUB !
 PAR  G(GAS,NA2),,                      +F12977T+RTLNP;,,             N 97SUB !
$
 FUNCTION GHSERNA   200.00  -11989.434+260.548732*T-51.0393608*T*LN(T)
       +0.072306633*T**2-4.3638283E-05*T**3+132154*T**(-1);
       370.87  Y  -11009.884+199.619999*T-38.1198801*T*LN(T)
       +0.009745854*T**2-1.70664E-06*T**3+34342*T**(-1)+1.65071E+23*T**(-9);
      2300.00  N !
 FUNCTION GLIQNA    200.00  +2581.02-6.95218*T+GHSERNA-2.76132E-18*T**7;
       370.87  Y  +2609.444-7.032656*T+GHSERNA-1.65071E+23*T**(-9);
      2300.00  N !
$ Na(g)
 FUNCTION F12933T   298.15  +101202.044-12.9290068*T-21.02539*T*LN(T)
       +1.9194285E-04*T**2-2.37558167E-08*T**3+6714.165*T**(-1);
      2700.00  Y  +123818.458-80.8203215*T-13.00233*T*LN(T)
       -6.87485E-04*T**2-3.3153E-08*T**3-10435685*T**(-1);
      5500.00  Y  +200317.377-314.322311*T+14.94379*T*LN(T)
       -0.0049580625*T**2+8.45444167E-08*T**3-45680820*T**(-1);
      9600.00  Y  -248549.945+382.618817*T-61.81729*T*LN(T)
       +8.73722E-04*T**2+1.54938383E-09*T**3+4.4661115E+08*T**(-1);
     10000.00  N !
$ Na2(g)
 FUNCTION F12977T   298.15  +131697.685+6.55101085*T-35.05636*T*LN(T)
       -0.0039954535*T**2+5.82776667E-07*T**3-20127.66*T**(-1);
       800.00  Y  +123510.411+75.1001481*T-44.47351*T*LN(T)
       -5.345085E-04*T**2+6.400745E-07*T**3+1150765*T**(-1);
      1500.00  Y  +79657.0271+417.408691*T-91.76357*T*LN(T)
       +0.022097085*T**2-1.3875195E-06*T**3+8765605*T**(-1);
      3100.00  Y  +841444.171-2436.16812*T+261.4099*T*LN(T)
       -0.0509968*T**2+1.46319E-06*T**3-3.005069E+08*T**(-1);
      4800.00  Y  -471200.866+911.74126*T-131.5149*T*LN(T)
       +0.0011608825*T**2+1.68225167E-07*T**3+5.200375E+08*T**(-1);
      6000.00  N !
$ ------------------------------------------------------------------------------
$ Binary system
$
$ A.D. Pelton, Z. Metallkd., 84, 767-72(1993).
$
$ Checked against paper. Checked at 6000 K.
$
$ Solubility of H in solid Na is not modelled.
$
 PAR  G(LIQUID,NAH),,                   +GNAH+26600-29.167*T;,,       N 93Pel !
 PAR  L(LIQUID,NA,NAH;0),,              +58009.5-25.94*T;,,           N 93Pel !
 PAR  L(LIQUID,NA,NAH;1),,              -11293.5;,,                   N 93Pel !
$
 PAR  G(NAH_B1,NA:H),,                  +GNAH;,,                      N 93Pel !
$
 PAR  G(GAS,NAH),,                      +F10562T+RTLNP;,,             N 97SUB !
$
 FUNCTION GNAH      298.15  +GHSERNA+0.5*GHSERH2-53315-86.293*T
       +28.058*T*LN(T)-0.0320364*T**2+1.7727E-06*T**3
       +12550*T**(-1);
      6000.00  N !
$ NaH(g)
 FUNCTION F10562T   298.15  +132553.465-16.1455876*T-24.82785*T*LN(T)
       -0.010652725*T**2+1.5821195E-06*T**3+2238.863*T**(-1);
       800.00  Y  +129256.792+35.5334784*T-32.81208*T*LN(T)
       -0.0026811235*T**2+1.59482667E-07*T**3+223972.1*T**(-1);
      2500.00  Y  +52224.6946+343.223031*T-71.12485*T*LN(T)
       +0.00541529*T**2-1.38711217E-07*T**3+28391720*T**(-1);
      5800.00  Y  +307909.677-276.144986*T+1.091352*T*LN(T)
       -0.003663472*T**2+7.54038833E-08*T**3-1.4180265E+08*T**(-1);
      6000.00  N !
$ ------------------------------------------------------------------------------
$
$
 LIST-OF-REFERENCE
 NUMBER  SOURCE
  Null   'Unknown source'
  Same   'Same or similar interaction as in the corresponding stable phase'
  COST   'COST 507 database'
  91Din  'A.T. Dinsdale, Calphad, 15, 317-425(1991).'
  93Pel  'A.D. Pelton, Z. Metallkd., 84, 767-72(1993); Na-H'
  97SUB  'SGTE substance database, version 1997'
  06Qiu  'C. Qiu, S.M. Opalka, G.B. Olson, D.L. Anton,
          Int. J. Mater. Res., 97, 845-53(2006); H'
!
