$
$ Database for Au-Tb from S.L. Wang et al. 2016.
$
$ S.L. Wang, J.L. Li, L.L. Qiu, L.J. Zhou, Y.H. Li, C.Q. Ren, C.Y. Fu,
$ Y.H. Lin, C.P. Wang, X.J. Liu, J. Phase Equilib Diffus., 37, 319-26(2016).
$
$ Dataset created 2018.03.30 by Bengt Hallstedt.
$ 2020.12.22: Modified for use with GES6.
$
$ Interactions are not acceptable.
$
$ ------------------------------------------------------------------------------
 TEMP-LIM 298.15 6000.00 !
$
$ELEMENT NAME  REF. STATE               ATOMIC MASS H298-H0    S298    !
$
 ELEMENT VA   VACUUM                      0.0          0.0      0.0    ! 
 ELEMENT AU   FCC_A1                    196.9665    6016.592   47.4884 ! 
 ELEMENT TB   HCP_A3                    158.9254    9426.552   73.3037 ! 
$ ------------------------------------------------------------------------------
$ Phase definitions
$
 PHASE LIQUID:L % 1 1 !
 CONST LIQUID:L : AU TB : !
$
$ Fcc (cF4) and MeX (cF8)
$
 PHASE FCC_A1 %A 2 1 1 !
 CONST FCC_A1 : AU% TB : VA : !
$
$ Bcc (cI2, Im-3m)
$
 PHASE BCC_A2 %B 2 1 3 !
 CONST BCC_A2 : AU TB% : VA : !
$
$ Hcp (hP2, P6_3/mmc) and Me2X (NiAs-type, hP4, P6_3/mmc, B8_1), zeta
$
 PHASE HCP_A3 %A 2 1 0.5 !
 CONST HCP_A3 : AU TB% : VA : !
$
$ Prototype Au6Sm (tP56, P4_2/ncm)
$
 PHASE AU6TB % 2 6 1 !
 CONST AU6TB : AU : TB : !
$
$ Prototype Ag51Gd14 (hP68, P6/m)
$
 PHASE AU51TB14 % 2 51 14 !
 CONST AU51TB14 : AU : TB : !
$
$ Prototype Cu3Ti (oP8, Pmmn)
$
 PHASE AU3TB_D0A % 2 3 1 !
 CONST AU3TB_D0A : AU : TB : !
$
$ Prototype MoSi2 (tI6, I4/mmm)
$
 PHASE AU2TB_C11B % 2 2 1 !
 CONST AU2TB_C11B : AU : TB : !
$
$ Prototype Au10Gd7 (tI136, I4_1/acd)
$
 PHASE AU10TB7 % 2 10 7 !
 CONST AU10TB7 : AU : TB : !
$
$ Prototype Pd4Pu3 (hR14, R-3) 
$
 PHASE AU4TB3 % 2 4 3 !
 CONST AU4TB3 : AU : TB : !
$
$ Prototype CrB (oC8, Cmcm)
$
 PHASE AUTB_B33 % 2 1 1 !
 CONST AUTB_B33 : AU : TB : !
$
$ Prototype CsCl (cP2, Pm3m)
$
 PHASE AUTB_B2 % 2 1 1 !
 CONST AUTB_B2 : AU : TB : !
$
$ Prototype Co2Si (oP12, Pnma)
$
 PHASE AUTB2_C37 % 2 1 2 !
 CONST AUTB2_C37 : AU : TB : !
$ ------------------------------------------------------------------------------
$ Defaults
$
 DEFINE-SYSTEM-DEFAULT ELEMENT 2 !
 DEFAULT-COM DEFINE_SYSTEM_ELEMENT VA !
 TYPE-DEF % SEQ * !
 TYPE-DEF A GES AMEND_PHASE_DESCRIPTION @ MAGNETIC -3 0.28 !
 TYPE-DEF B GES AMEND_PHASE_DESCRIPTION @ MAGNETIC -1 0.4 !
 FUNCTION ZERO      298.15  0;                                         6000 N !
 FUNCTION UN_ASS    298.15  0;                                         6000 N !
 FUNCTION R         298.15  +8.31451;                                  6000 N !
$ ------------------------------------------------------------------------------
$ Element data
$ ------------------------------------------------------------------------------
$ Au
$
$ DHCP added in unary 5.0
$ DHCP replaced by the value from 92Ans in SGSOL 5.0
$
$ HCP_A3 and BCT_A5 from 88Che1 not included in unary
$
$ The DHCP phase is labelled D0_24 in 03Liu and alpha-prime in 92Ans. The
$ phase is present between the fcc and hcp phases in the Au-Sn and Au-In
$ systems. The value for DHCP from 92Ans was used to model these systems,
$ thus this value must be included in the unary database and not the 04Du
$ value.
$
 PAR  G(FCC_A1,AU:VA),,                 +GHSERAU;                3200 N 91Din !
 PAR  G(HCP_A3,AU:VA),,                 +GHSERAU+240.75+1.6*T;   3200 N 91Din !
$PAR  G(HCP_A3,AU:VA),,                 +GHSERAU+550+0.3*T;      3200 N 88Che1 !
 PAR  G(BCC_A2,AU:VA),,                 +GHSERAU+4250-1.1*T;     3200 N 91Din !
$PAR  G(BCT_A5,AU),,                    +GHSERAU+4184;           3200 N 88Che1 !
$PAR  G(DHCP,AU),,                      +GHSERAU+125+0.79*T;     3200 N 92Ans !
$PAR  G(DHCP,AU),,                      +GHSERAU+5000;           3200 N 04Du !
 PAR  G(LIQUID,AU),,                    +GHSERAU
             +12552-9.385866*T;                                  3200 N 91Din !
$
 FUNCTION GHSERAU   298.15  -6938.856+106.830098*T-22.75455*T*LN(T)
       -0.00385924*T**2+3.79625E-07*T**3-25097*T**(-1);
       929.40  Y  -93586.481+1021.69543*T-155.706745*T*LN(T)
       +0.08756015*T**2-1.1518713E-05*T**3+10637210*T**(-1);
      1337.33  Y  +314067.829-2016.37825*T+263.252259*T*LN(T)
       -0.118216828*T**2+8.923844E-06*T**3-67999832*T**(-1);
      1735.80  Y  -12133.783+165.272524*T-30.9616*T*LN(T);
      3200.00  N !
$ ------------------------------------------------------------------------------
$ Tb
$
$ RHOMBOHEDRAL_A7 from 11Wan not included in unary
$ FCC_A1 from 09Wan6 not included in unary
$
 PAR  G(HCP_A3,TB:VA),,                 +GHSERTB;                3000 N 91Din !
 PAR  G(BCC_A2,TB:VA),,                 +GBCCTB;                 3000 N 91Din !
 PAR  G(FCC_A1,TB:VA),,                 +GHSERTB+5000;           3000 N 09Wan6 !
$PAR  G(RHOMBOHEDRAL_A7,TB),,           +GHSERTB+5000;           3000 N 11Wan !
 PAR  G(LIQUID,TB),,                    +GLIQTB;                 3000 N 91Din !
$
 FUNCTION GHSERTB   298.15  -20842.158+409.309555*T-77.5006*T*LN(T)
       +0.0832265*T**2-2.5672833E-05*T**3+562430*T**(-1);
       600.00  Y  -8772.606+102.61162*T-25.8659*T*LN(T)
       -0.002757005*T**2-8.05838E-07*T**3+172355*T**(-1);
      1200.00  Y  -7944.942+101.7776*T-25.9584*T*LN(T)
       -0.001676335*T**2-1.067632E-06*T**3;
      1562.00  Y  -265240.309+1456.04268*T-200.215695*T*LN(T)
       +0.041615159*T**2-2.044697E-06*T**3+65043790*T**(-1);
      3000.00  N !
 FUNCTION GBCCTB    298.15  +4167.835-2.652707*T+GHSERTB;
      1200.00  Y  +633060.245-5157.77779*T+706.580596*T*LN(T)
       -0.373763517*T**2+3.4100235E-05*T**3-1.03233571E+08*T**(-1);
      1562.00  Y  -23398.029+257.388486*T-46.4842*T*LN(T);
      3000.00  N !
 FUNCTION GLIQTB    298.15  +3945.831+29.867521*T-14.252646*T*LN(T)
       -0.020466105*T**2+2.17475E-06*T**3-160724*T**(-1);
      1562.00  Y  -13247.649+251.16889*T-46.4842*T*LN(T);
      3000.00  N !
$ ------------------------------------------------------------------------------
$ Binary system
$
$ S.L. Wang, J.L. Li, L.L. Qiu, L.J. Zhou, Y.H. Li, C.Q. Ren, C.Y. Fu,
$ Y.H. Lin, C.P. Wang, X.J. Liu, J. Phase Equilib Diffus., 37, 319-26(2016).
$
$ Checked against paper. Checked at 6000 K.
$
$ Interactions are not acceptable.
$
 PAR  L(LIQUID,AU,TB;0),,               -290500+5.71*T;,,             N 16Wan !
 PAR  L(LIQUID,AU,TB;1),,               -81100-92.09*T+9*T*LN(T);,,   N 16Wan !
 PAR  L(LIQUID,AU,TB;2),,               +44080-7.85*T;,,              N 16Wan !
 PAR  L(LIQUID,AU,TB;3),,               +38687+13.5*T;,,              N 16Wan !
$
 PAR  L(FCC_A1,AU,TB:VA;0),,            +ZERO;,,                      N 16Wan !
 PAR  L(FCC_A1,AU,TB:VA;1),,            -292672-3*T;,,                N 16Wan !
 PAR  L(BCC_A2,AU,TB:VA;0),,            +ZERO;,,                      N 16Wan !
 PAR  L(BCC_A2,AU,TB:VA;1),,            +170808;,,                    N 16Wan !
 PAR  L(HCP_A3,AU,TB:VA;0),,            +ZERO;,,                      N 16Wan !
 PAR  L(HCP_A3,AU,TB:VA;1),,            +130000;,,                    N 16Wan !
$
 PAR  G(AU6TB,AU:TB),,                  +6*GHSERAU+GHSERTB
             -284970-7.364*T;,,                                       N 16Wan !
 PAR  G(AU51TB14,AU:TB),,               +51*GHSERAU+14*GHSERTB
             -3809520-167.57*T;,,                                     N 16Wan !
 PAR  G(AU3TB_D0A,AU:TB),,              +3*GHSERAU+GHSERTB
             -269160-4.64*T;,,                                        N 16Wan !
 PAR  G(AU2TB_C11B,AU:TB),,             +2*GHSERAU+GHSERTB
             -242643+3.477*T+4.17*T*LN(T)-0.0258*T**2
             +3.528E-06*T**3;,,                                       N 16Wan !
 PAR  G(AU10TB7,AU:TB),,                +10*GHSERAU+7*GHSERTB
             -1444592+28.9*T+23.528*T*LN(T)-0.14586*T**2
             +1.9992E-05*T**3;,,                                      N 16Wan !
 PAR  G(AU4TB3,AU:TB),,                 +4*GHSERAU+3*GHSERTB
             -600985+13.279*T+9.73*T*LN(T)-0.06048*T**2
             +8.204E-06*T**3;,,                                       N 16Wan !
 PAR  G(AUTB_B33,AU:TB),,               +GHSERAU+GHSERTB
             -169180+0.3364*T;,,                                      N 16Wan !
 PAR  G(AUTB_B2,AU:TB),,                +GHSERAU+GHSERTB
             -169040+0.25516*T;,,                                     N 16Wan !
 PAR  G(AUTB2_C37,AU:TB),,              +GHSERAU+2*GHSERTB
             -197484+16.944*T;,,                                      N 16Wan !
$ ------------------------------------------------------------------------------
$
$
 LIST-OF-REFERENCE
 NUMBER  SOURCE
  Null   'Unknown source'
  Same   'Same or similar interaction as in the corresponding stable phase'
  COST   'COST 507 database'
  88Che1 'P.-Y. Chevalier, Thermochim. Acta, 130, 1-13(1988); Au, Sn'
  91Din  'A.T. Dinsdale, Calphad, 15, 317-425(1991).'
  92Ans  'I. Ansara, J.-Ph. Nabot, Calphad, 16, 13-18(1992); Au'
  04Du   'Z. Du, C. Guo, D. Lu, J. Alloys Compd., 364, 117-20(2004),
          SGTE unary database V.5.0, 2009; Au'
  09Wan6 'S.L. Wang, C.P. Wang, X.J. Liu, A.T. Tang, F.S. Pan, K. Ishida,
          J. Alloys Compd., 484, 102-7(2009); Ho, Tb'
  11Wan  'S.L. Wang, Z.B. Hu, F. Gao, C.P. Wang, X.J. Liu,
          J. Phase Equilib. Diffus., 32, 441-46(2011); Tb'
  16Wan  'S.L. Wang, J.L. Li, L.L. Qiu, L.J. Zhou, Y.H. Li, C.Q. Ren, C.Y. Fu,
          Y.H. Lin, C.P. Wang, X.J. Liu,
          J. Phase Equilib Diffus., 37, 319-26(2016); Au-Tb'
!
