$
$ Database for Li-N from P. Franke 2006 (included in LB Vol. 5)
$
$ P. Franke, unpublished work, 2006.
$
$ Dataset created 2016.02.27 by Bengt Hallstedt.
$ 2021.01.24: Modified for use with GES6.
$
$ ------------------------------------------------------------------------------
 TEMP-LIM 298.15 6000.00 !
$
$ELEMENT NAME  REF. STATE               ATOMIC MASS H298-H0    S298    !
$
 ELEMENT VA   VACUUM                      0.0          0.0      0.0    ! 
 ELEMENT LI   BCC_A2                      6.941     4632.00    29.12   ! 
 ELEMENT N    1/2_MOLE_N2(G)             14.007     4335.0     95.751  ! 
$ ------------------------------------------------------------------------------
$ Species
$
 SPECIE  LI2                                LI2 !
 SPECIE  N2                                 N2 !
$ ------------------------------------------------------------------------------
$ Phase definitions
$
 PHASE LIQUID:L % 1 1 !
 CONST LIQUID:L : LI N : !
$
$ Fcc (cF4, Fm-3m) and MeX (cF8, Fm-3m)
$
 PHASE FCC_A1 %A 2 1 1 !
 CONST FCC_A1 : LI : N VA% : !
$
$ Bcc (cI2, Im-3m)
$
 PHASE BCC_A2 %B 2 1 3 !
 CONST BCC_A2 : LI : N VA% : !
$
$ Hcp (hP2, P6_3/mmc) and Me2X (NiAs-type, hP4, P6_3/mmc, B8_1)
$
 PHASE HCP_A3 % 2 1 0.5 !
 CONST HCP_A3 : LI : N VA% : !
$
$ Prototype Li3N (hP4, P6/mmm)
$
 PHASE LI3N % 2 3 1 !
 CONST LI3N : LI : N : !
$
 PHASE N2GAS % 1 1 !
 CONST N2GAS : N2 : !
$
 PHASE GAS:G % 1 1 !
 CONST GAS:G : LI LI2 N2 : !
$ ------------------------------------------------------------------------------
$ Defaults
$
 DEFINE-SYSTEM-DEFAULT ELEMENT 2 !
 DEFAULT-COM DEFINE_SYSTEM_ELEMENT VA !
 DEFAULT-COM REJECT-PHASE N2GAS !
 TYPE-DEF % SEQ * !
 TYPE-DEF A GES AMEND_PHASE_DESCRIPTION @ MAGNETIC -3 0.28 !
 TYPE-DEF B GES AMEND_PHASE_DESCRIPTION @ MAGNETIC -1 0.4 !
 FUNCTION ZERO      298.15  0;                                         6000 N !
 FUNCTION UN_ASS    298.15  0;                                         6000 N !
 FUNCTION R         298.15  +8.31451;                                  6000 N !
 FUNCTION RTLNP     298.15  +8.31451*T*LN(1E-05*P);                    6000 N !
$ ------------------------------------------------------------------------------
$ Element data
$ ------------------------------------------------------------------------------
$ Li
$
 PAR  G(BCC_A2,LI:VA)           200.00  +GHSERLI;                3000 N 91Din !
 PAR  G(FCC_A1,LI:VA)           200.00  +GHSERLI-108+1.3*T;      3000 N 91Din !
 PAR  G(HCP_A3,LI:VA)           200.00  +GHSERLI-154+2*T;        3000 N 91Din !
 PAR  G(LIQUID,LI)              200.00  +GLIQLI;                 3000 N 91Din !
$
 PAR  G(GAS,LI),,                       +F12385T+RTLNP;,,             N 97SGT !
 PAR  G(GAS,LI2),,                      +F12463T+RTLNP;,,             N 97SGT !
$
 FUNCTION GHSERLI   200.00  -10583.817+217.637482*T-38.940488*T*LN(T)
       +0.035466931*T**2-1.9869816E-05*T**3+159994*T**(-1);
       453.60  Y  -559579.123+10547.8799*T-1702.88865*T*LN(T)
       +2.25832944*T**2-5.71066077E-04*T**3+33885874*T**(-1);
       500.00  Y  -9062.994+179.278285*T-31.2283718*T*LN(T)
       +0.002633221*T**2-4.38058E-07*T**3-102387*T**(-1);
      3000.00  N !
 FUNCTION GLIQLI    200.00  +2700.205-5.795621*T+GHSERLI;
       250.00  Y  +12015.027-362.187078*T+61.6104424*T*LN(T)
       -0.182426463*T**2+6.3955671E-05*T**3-559968*T**(-1);
       453.60  Y  -6057.31+172.652183*T-31.2283718*T*LN(T)
       +0.002633221*T**2-4.38058E-07*T**3-102387*T**(-1);
       500.00  Y  +3005.684-6.626102*T+GHSERLI;
      3000.00  N !
$ Li(g)
 FUNCTION F12385T   298.15  +152984.64+2.33568506*T-21.07772*T*LN(T)
       +2.515552E-04*T**2-3.41354333E-08*T**3+7690.735*T**(-1);
      2400.00  Y  +183390.413-110.69493*T-7.20516*T*LN(T)
       -0.002217371*T**2+2.443155E-08*T**3-11648370*T**(-1);
      4800.00  Y  +109652.446+17.2445126*T-21.24264*T*LN(T)
       -0.0015038825*T**2+3.76717667E-08*T**3+50092500*T**(-1);
      8800.00  Y  -72231.6406+344.035356*T-57.87689*T*LN(T)
       +0.0017448465*T**2-1.58650733E-08*T**3+2.178053E+08*T**(-1);
     10000.00  N !
$ Li2(g)
 FUNCTION F12463T   298.15  +203319.119+52.2617041*T-37.02637*T*LN(T)
       -8.421915E-04*T**2-1.078653E-07*T**3+65874.15*T**(-1);
      1100.00  Y  +200885.055+48.6776391*T-35.9057*T*LN(T)
       -0.0039990175*T**2+5.08151333E-07*T**3+883657*T**(-1);
      1900.00  Y  +137315.894+473.019388*T-93.02457*T*LN(T)
       +0.018440525*T**2-1.12358533E-06*T**3+13866255*T**(-1);
      3100.00  Y  +638944.289-1507.74849*T+153.9314*T*LN(T)
       -0.035715045*T**2+1.10781833E-06*T**3-1.776338E+08*T**(-1);
      5100.00  Y  -624845.177+1789.13827*T-234.2722*T*LN(T)
       +0.0173718*T**2-2.55232167E-07*T**3+5.95322E+08*T**(-1);
      6000.00  N !
$ ------------------------------------------------------------------------------
$ N
$
 PAR  G(N2GAS,N2),,                     +2*GHSERNN+RTLNP;,,           N 91Din !
 PAR  G(LIQUID,N),,                     +GHSERNN+29950+59.02*T;,,     N 91Din !
$
 PAR  G(GAS,N2),,                       +2*GHSERNN+RTLNP;,,           N 91Din !
$
 FUNCTION GHSERNN   298.15  -3750.675-9.45425*T-12.7819*T*LN(T)
       -0.00176686*T**2+2.681E-09*T**3-32374*T**(-1);
       950.00  Y  -7358.85+17.2003*T-16.3699*T*LN(T)
       -6.5107E-04*T**2+3.0097E-08*T**3+563070*T**(-1);
      3350.00  Y  -16392.8+50.26*T-20.4695*T*LN(T)
       +2.39754E-04*T**2-8.333E-09*T**3+4596375*T**(-1);
      6000.00  N !
$ ------------------------------------------------------------------------------
$ Binary system
$
$ From P. Franke 2006 (included in LB Vol. 5)
$
$ P. Franke, unpublished work, 2006.
$
$ Checked against LB. Checked at 6000 K.
$
$ Gaseous Li is not included in LB. No check was made if there are any Li-N
$ gas species.
$
 PAR  L(LIQUID,LI,N;0),,                -184105+360.8*T-45*T*LN(T);,, N 06Fra !
 PAR  L(LIQUID,LI,N;1),,                +15*T;,,                      N 06Fra !
$
 PAR  G(LI3N,LI:N),,                    +GLI3N1+31921-24.859*T;,,     N 06Fra !
$
 FUNCTION GLI3N1    298.15  -217970.145+344.258649*T-52.85061*T*LN(T)
       -0.04441609*T**2-8.42608833E-07*T**3+109566.2*T**(-1);
       600.00  Y  -187873.59-175.843146*T+29.57979*T*LN(T)
       -0.14401685*T**2+2.15814833E-05*T**3-1932648*T**(-1);
       900.00  Y  -311817.257+1245.26962*T-179.8948*T*LN(T)
       +0.014653395*T**2-1.13077483E-06*T**3+11938585*T**(-1);
      1700.00  Y  -261247.745+935.676973*T-138.6205*T*LN(T)
       -8.222985E-04*T**2-8.33759667E-10*T**3+17202.455*T**(-1);
      2200.00  N !
$ ------------------------------------------------------------------------------
$
 ASSESSED_SYSTEM
  LI-N(TDB -* +LIQUID +GAS +BCC_A2 +LI3N ;P3 *) !
$
$
 LIST-OF-REFERENCE
 NUMBER  SOURCE
  Null   'Unknown source'
  Same   'Same or similar interaction as in the corresponding stable phase'
  REFLAV 'Laves phase convention: G(LAVES,X:X)=+3*GHSERXX+15000'
  91Din  'A.T. Dinsdale, Calphad, 15, 317-425(1991).'
  97SGT  'SGTE Substance Database, version 1997'
  06Fra  'P. Franke, unpublished work, 2006; Li-N'
!
