$
$ Database for Ba-Ge from R. Benhafid et al. 2019.
$
$ R. Benhafid, A. Belgacem Bouzida, Y. Djaballah, A. Candan, A. Iyigör,
$ G. Ugur, J. Phase Equilib. Diffus., 40, 195-205(2019).
$
$ Dataset created 2019.06.29 by Bengt Hallstedt.
$ 2020.12.22: Modified for use with GES6.
$
$ Invariant equilibria differ by up to 9 K, probably because of rounding
$ errors.
$
$ There is an inverse miscibility gap with a minimum at 2590 K and x(Ge)=0.90.
$
$ ------------------------------------------------------------------------------
 TEMP-LIM 298.15 6000.00 !
$
$ELEMENT NAME  REF. STATE               ATOMIC MASS H298-H0    S298    !
$
 ELEMENT VA   VACUUM                      0.0          0.0      0.0    ! 
 ELEMENT BA   BCC_A2                    137.33      6910.0     62.50   ! 
 ELEMENT GE   DIAMOND_A4                 72.59      4636.0     31.09   ! 
$ ------------------------------------------------------------------------------
$ Phase definitions
$
 PHASE LIQUID:L % 1 1 !
 CONST LIQUID:L : BA GE : !
$
$ Fcc (cF4, Fm-3m) and MeX (cF8, Fm-3m)
$
 PHASE FCC_A1 %A 2 1 1 !
 CONST FCC_A1 : BA GE : VA : !
$
$ Bcc (cI2, Im-3m)
$
 PHASE BCC_A2 %B 2 1 3 !
 CONST BCC_A2 : BA% GE : VA : !
$
$ Hcp (hP2, P6_3/mmc) and Me2X (NiAs-type, hP4, P6_3/mmc, B8_1)
$
 PHASE HCP_A3 %A 2 1 0.5 !
 CONST HCP_A3 : BA GE : VA : !
$
$ Prototype C (cF8, Fd-3m)
$
 PHASE DIAMOND_A4 % 1 1 !
 CONST DIAMOND_A4 : GE : !
$
$ Prototype Co2Si (oP12, Pnma)
$
 PHASE BA2GE_C37 % 2 2 1 !
 CONST BA2GE_C37 : BA : GE : !
$
$ Prototype Ba5Si3 (tP32, P4/ncc)
$
 PHASE BA5GE3 % 2 5 3 !
 CONST BA5GE3 : BA : GE : !
$
$ Prototype CrB (oC8, Cmcm)
$
 PHASE BAGE_B33 % 2 1 1 !
 CONST BAGE_B33 : BA : GE : !
$
$ Prototype Ba3Ge4 (oC56, Cmmm)
$
 PHASE BA3GE4_ALPHA % 2 3 4 !
 CONST BA3GE4_ALPHA : BA : GE : !
$
$ Prototype Ba3Si4 (tP28, P4_2/mnm)
$
 PHASE BA3GE4_BETA % 2 3 4 !
 CONST BA3GE4_BETA : BA : GE : !
$
$ Prototype BaSi2 (oP24, Pnma)
$
 PHASE BAGE2 % 2 1 2 !
 CONST BAGE2 : BA : GE : !
$
$ Prototype K6Sn25 (cP124, P4_132)
$
 PHASE BA6GE25 % 2 6 25 !
 CONST BA6GE25 : BA : GE : !
$
$ Prototype Na4Si23 (cP54, Pm-3n)
$
 PHASE BA8GE43 % 2 8 43 !
 CONST BA8GE43 : BA : GE : !
$ ------------------------------------------------------------------------------
$ Defaults
$
 DEFINE-SYSTEM-DEFAULT ELEMENT 2 !
 DEFAULT-COM DEFINE_SYSTEM_ELEMENT VA !
 TYPE-DEF % SEQ * !
 TYPE-DEF A GES AMEND_PHASE_DESCRIPTION @ MAGNETIC -3 0.28 !
 TYPE-DEF B GES AMEND_PHASE_DESCRIPTION @ MAGNETIC -1 0.4 !
 FUNCTION ZERO      298.15  0;                                         6000 N !
 FUNCTION UN_ASS    298.15  0;                                         6000 N !
 FUNCTION R         298.15  +8.31451;                                  6000 N !
$ ------------------------------------------------------------------------------
$ Element data
$ ------------------------------------------------------------------------------
$ Ba
$
 PAR  G(BCC_A2,BA:VA),,                 +GHSERBA;                4000 N 91Din !
 PAR  G(HCP_A3,BA:VA),,                 +GHSERBA+2000+1.3*T;     4000 N 91Din !
 PAR  G(FCC_A1,BA:VA),,                 +GHSERBA+1800+0.6*T;     4000 N 91Din !
 PAR  G(LIQUID,BA),,                    +GLIQBA;                 4000 N 91Din !
$
 FUNCTION GHSERBA   298.15  -17685.226+233.78606*T-42.889*T*LN(T)
       -0.0018314*T**2-9.5E-11*T**3+705880*T**(-1);
      1000.00  Y  -64873.614+608.188389*T-94.2824199*T*LN(T)
       +0.019504772*T**2-1.051353E-06*T**3+8220192*T**(-1);
      2995.00  Y  +8083.889+136.780042*T-32.2*T*LN(T);
      4000.00  N !
 FUNCTION GLIQBA    298.15  -9738.988+229.540143*T-43.4961089*T*LN(T)
       -0.002346416*T**2+9.91223E-07*T**3+723016*T**(-1);
      1000.00  Y  -7381.093+235.49642*T-45.103*T*LN(T)
       +0.002154*T**2+2.7E-11*T**3-365*T**(-1);
      2995.00  Y  +3856.393-4.568042*T+GHSERBA;
      4000.00  N !
$ ------------------------------------------------------------------------------
$ Ge
$
$ BCT_A5 and RHOMBOHEDRAL_A7 added in unary 4.1
$
 PAR  G(DIAMOND_A4,GE),,                +GHSERGE;                3200 N 91Din !
 PAR  G(FCC_A1,GE:VA),,                 +GHSERGE+36000-22.3*T;   3200 N 91Din !
 PAR  G(BCC_A2,GE:VA),,                 +GHSERGE+34100-23.5*T;   3200 N 91Din !
 PAR  G(HCP_A3,GE:VA),,                 +GHSERGE+35000-21.5*T;   3200 N 91Din !
$PAR  G(BCT_A5,GE),,                    +GHSERGE+28800-16.5*T;   3600 N 99SGUN !
$PAR  G(RHOMBOHEDRAL_A7,GE),,           +GHSERGE+29800-16.5*T;   3600 N 99SGUN !
 PAR  G(LIQUID,GE),,                    +GLIQGE;                 3200 N 91Din !
$
 FUNCTION GHSERGE   298.15  -9486.153+165.635573*T-29.5337682*T*LN(T)
       +0.005568297*T**2-1.513694E-06*T**3+163298*T**(-1);
       900.00  Y  -5689.239+102.86087*T-19.8536239*T*LN(T)-0.003672527*T**2;
      1211.40  Y  -9548.204+156.708024*T-27.6144*T*LN(T)-8.59809E+28*T**(-9);
      3200.00  N !
 FUNCTION GLIQGE    298.15  +37141.489-30.687043*T+GHSERGE+8.56632E-21*T**7;
      1211.40  Y  +27243.473+126.324186*T-27.6144*T*LN(T);
      3200.00  N !
$ ------------------------------------------------------------------------------
$ Binary system
$
$ R. Benhafid, A. Belgacem Bouzida, Y. Djaballah, A. Candan, A. Iyigör,
$ G. Ugur, J. Phase Equilib. Diffus., 40, 195-205(2019).
$
$ Checked against paper. Checked at 6000 K.
$
$ Invariant equilibria differ by up to 9 K, probably because of rounding
$ errors.
$
$ There is an inverse miscibility gap with a minimum at 2590 K and x(Ge)=0.90.
$
 PAR  L(LIQUID,BA,GE;0),,               -244749+41.779*T;,,           N 19Ben !
 PAR  L(LIQUID,BA,GE;1),,               +67593-48.969*T;,,            N 19Ben !
 PAR  L(LIQUID,BA,GE;2),,               +65211-9.686*T;,,             N 19Ben !
$
 PAR  L(BCC_A2,BA,GE:VA;0),,            +UN_ASS;,,                    N !
$
 PAR  G(BA2GE_C37,BA:GE),,              +2*GHSERBA+GHSERGE
             -153390+4.086*T;,,                                       N 19Ben !
 PAR  G(BA5GE3,BA:GE),,                 +5*GHSERBA+3*GHSERGE
             -455040+34.552*T;,,                                      N 19Ben !
 PAR  G(BAGE_B33,BA:GE),,               +GHSERBA+GHSERGE
             -120124+5.212*T;,,                                       N 19Ben !
 PAR  G(BA3GE4_ALPHA,BA:GE),,           +3*GHSERBA+4*GHSERGE
             -413630+26.8933*T;,,                                     N 19Ben !
 PAR  G(BA3GE4_BETA,BA:GE),,            +3*GHSERBA+4*GHSERGE
             -410193+21.287*T;,,                                      N 19Ben !
 PAR  G(BAGE2,BA:GE),,                  +GHSERBA+2*GHSERGE
             -162045+4.878*T;,,                                       N 19Ben !
 PAR  G(BA6GE25,BA:GE),,                +6*GHSERBA+25*GHSERGE
             -986389+29.109*T;,,                                      N 19Ben !
 PAR  G(BA8GE43,BA:GE),,                +8*GHSERBA+43*GHSERGE
             -1081098-181.203*T;,,                                    N 19Ben !
$ ------------------------------------------------------------------------------
$
$
 LIST-OF-REFERENCE
 NUMBER  SOURCE
  Null   'Unknown source'
  Same   'Same or similar interaction as in the corresponding stable phase'
  REFLAV 'Laves phase convention: G(LAVES,X:X)=+3*GHSERXX+15000'
  COST   'COST 507 database, 1998'
  91Din  'A.T. Dinsdale, Calphad, 15, 317-425(1991).'
  99SGUN 'SGTE unary database V.4.1, 1999.'
  19Ben  'R. Benhafid, A. Belgacem Bouzida, Y. Djaballah, A. Candan, A. Iyigör,
          G. Ugur, J. Phase Equilib. Diffus., 40, 195-205(2019); Ba-Ge'
!
