$
$ Database for Fe-Sr from Y. Peng et al. 2011
$
$ Y. Peng, D. Zhao, B. Hu, L. Zhou, Y. Du, T. Gang, S. Liu, K. Chang,
$ J. Phase Equilib. Diffus., 32, 42-47(2011).
$
$ Dataset created 2011.02.19 by Bengt Hallstedt.
$ 2021.01.02: Modified for use with GES6.
$
$ ------------------------------------------------------------------------------
 TEMP-LIM 298.15 6000.00 !
$
$ELEMENT NAME  REF. STATE               ATOMIC MASS H298-H0    S298    !
$
 ELEMENT VA   VACUUM                      0.0          0.0      0.0    ! 
 ELEMENT FE   BCC_A2                     55.847     4489.0     27.2797 ! 
 ELEMENT SR   FCC_A1                     87.62      6568.      55.694  ! 
$ ------------------------------------------------------------------------------
$ Phase definitions
$
 PHASE LIQUID:L % 1 1 !
 CONST LIQUID:L : FE SR : !
$
$ Fcc (cF4, Fm-3m) and MeX (cF8, Fm-3m)
$
 PHASE FCC_A1 %A 2 1 1 !
 CONST FCC_A1 : FE% SR% : VA : !
$
$ Bcc (cI2, Im-3m)
$
 PHASE BCC_A2 %B 2 1 3 !
 CONST BCC_A2 : FE% SR% : VA : !
$
$ Hcp (hP2, P6_3/mmc) and Me2X (NiAs-type, hP4, P6_3/mmc, B8_1)
$
 PHASE HCP_A3 %A 2 1 0.5 !
 CONST HCP_A3 : FE SR : VA : !
$ ------------------------------------------------------------------------------
$ Defaults
$
 DEFINE-SYSTEM-DEFAULT ELEMENT 2 !
 DEFAULT-COM DEFINE_SYSTEM_ELEMENT VA !
 TYPE-DEF % SEQ * !
 TYPE-DEF A GES AMEND_PHASE_DESCRIPTION @ MAGNETIC -3 0.28 !
 TYPE-DEF B GES AMEND_PHASE_DESCRIPTION @ MAGNETIC -1 0.4 !
 FUNCTION ZERO      298.15  0;                                         6000 N !
 FUNCTION UN_ASS    298.15  0;                                         6000 N !
 FUNCTION R         298.15  +8.31451;                                  6000 N !
$ ------------------------------------------------------------------------------
$ Element data
$ ------------------------------------------------------------------------------
$ Fe
$
$ ORTHORHOMBIC_A20 and TETRAGONAL_U added im unary 4.1
$
 PAR  G(BCC_A2,FE:VA),,                 +GHSERFE;,,                   N 91Din !
 PAR  TC(BCC_A2,FE:VA),,                 1043.00;,,                   N 91Din !
 PAR  BM(BCC_A2,FE:VA),,                    2.22;,,                   N 91Din !
 PAR  G(FCC_A1,FE:VA),,                 +GFCCFE;,,                    N 91Din !
 PAR  TC(FCC_A1,FE:VA),,                 -201.00;,,                   N 91Din !
 PAR  BM(FCC_A1,FE:VA),,                   -2.10;,,                   N 91Din !
 PAR  G(HCP_A3,FE:VA),,                 +GHCPFE;,,                    N 91Din !
$PAR  G(CBCC_A12,FE:VA),,               +GHSERFE+4745;,,              N 91Din !
$PAR  G(CUB_A13,FE:VA),,                +GHSERFE+3745;,,              N 91Din !
$PAR  G(ORTHORHOMBIC_A20,FE),,          +GHSERFE+5000;,,              N 99SGUN !
$PAR  G(TETRAGONAL_U,FE),,              +GHSERFE+5000;,,              N 99SGUN !
 PAR  G(LIQUID,FE),,                    +GLIQFE;,,                    N 91Din !
$
 FUNCTION GHSERFE   298.15  +1225.7+124.134*T-23.5143*T*LN(T)
       -0.00439752*T**2-5.8927E-08*T**3+77359*T**(-1);
      1811.00  Y  -25383.581+299.31255*T-46*T*LN(T)+2.29603E+31*T**(-9);
      6000.00  N !
 FUNCTION GFCCFE    298.15  -1462.4+8.282*T-1.15*T*LN(T)
       +6.4E-04*T**2+GHSERFE;
      1811.00  Y  -1713.815+0.940009*T+GHSERFE+4.9251E+30*T**(-9);
      6000.00  N !
 FUNCTION GHCPFE    298.15  -3705.78+12.591*T-1.15*T*LN(T)
       +6.4E-04*T**2+GHSERFE;
      1811.00  Y  -3957.195+5.249009*T+GHSERFE+4.9251E+30*T**(-9);
      6000.00  N !
 FUNCTION GLIQFE    298.15  +12040.17-6.55843*T+GHSERFE-3.67516E-21*T**7;
      1811.00  Y  -10838.83+291.302*T-46*T*LN(T);
      6000.00  N !
$ ------------------------------------------------------------------------------
$ Sr
$
 PAR  G(FCC_A1,SR:VA),,                 +GHSERSR;                3000 N 91Din !
 PAR  G(BCC_A2,SR:VA),,                 +GBCCSR;                 3000 N 91Din !
 PAR  G(HCP_A3,SR:VA),,                 +GHSERSR+250+0.7*T;      3000 N 91Din !
 PAR  G(LIQUID,SR),,                    +GLIQSR;                 3000 N 91Din !
$
 FUNCTION GHSERSR   298.15  -7532.367+107.183879*T-23.905*T*LN(T)
       -0.00461225*T**2-1.67477E-07*T**3-2055*T**(-1);
       820.00  Y  -13380.102+153.196104*T-30.0905432*T*LN(T)
       -0.003251266*T**2+1.84189E-07*T**3+850134*T**(-1);
      3000.00  N !
 FUNCTION GBCCSR    298.15  -6779.234+116.583654*T-25.6708365*T*LN(T)
       -0.003126762*T**2+2.2965E-07*T**3+27649*T**(-1);
       820.00  Y  -6970.594+122.067301*T-26.57*T*LN(T)
       -0.0019493*T**2-1.7895E-08*T**3+16495*T**(-1);
      1050.00  Y  +8168.357+0.423037*T-9.7788593*T*LN(T)
       -0.009539908*T**2+5.20221E-07*T**3-2414794*T**(-1);
      3000.00  N !
 FUNCTION GLIQSR    298.15  +2194.997-10.118994*T-5.0668978*T*LN(T)
       -0.031840595*T**2+4.981237E-06*T**3-265559*T**(-1);
      1050.00  Y  -10855.29+213.406219*T-39.463*T*LN(T);
      3000.00  N !
$ ------------------------------------------------------------------------------
$ Binary system
$
$ Y. Peng, D. Zhao, B. Hu, L. Zhou, Y. Du, T. Gang, S. Liu, K. Chang,
$ J. Phase Equilib. Diffus., 32, 42-47(2011).
$
$ Checked against paper. Checked at 6000 K.
$
 PAR  L(LIQUID,FE,SR;0),,               +107641.46+3.4551*T;,,        N 11Pen !
 PAR  L(FCC_A1,FE,SR:VA;0),,            +93941.28;,,                  N 11Pen !
 PAR  L(BCC_A2,FE,SR:VA;0),,            +93198.82;,,                  N 11Pen !
$
$ Metastable
$
 PAR  L(HCP_A3,FE,SR:VA;0),,            +93941.28;,,                  N Same !
$ ------------------------------------------------------------------------------
$
$
 LIST-OF-REFERENCE
 NUMBER  SOURCE
  Null   'Unknown source'
  Same   'Same or similar interaction as in the corresponding stable phase'
  COST   'COST 507 database'
  91Din  'A.T. Dinsdale, Calphad, 15, 317-425(1991).'
  99SGUN 'SGTE unary database V.4.1, 1999.'
  11Pen  'Y. Peng, D. Zhao, B. Hu, L. Zhou, Y. Du, T. Gang, S. Liu, K. Chang,
          J. Phase Equilib. Diffus., 32, 42-47(2011); Fe-Sr'
!
