$
$ Database for Ga-Mg from P. Franke 2005 (included in LB Vol. 5)
$
$ P. Franke, unpublished, 2005.
$
$ Dataset created 2016.02.09 by Bengt Hallstedt.
$ 2021.01.03: Modified for use with GES6.
$
$ Revised from M. Notin, B. Belbacha, J. Charles, J. Hertz,
$ J. Alloys Compd., 176, 25-38(1991) using SGTE unaries.
$
$ ------------------------------------------------------------------------------
 TEMP-LIM 298.15 6000.00 !
$
$ELEMENT NAME  REF. STATE               ATOMIC MASS H298-H0    S298    !
$
 ELEMENT VA   VACUUM                      0.0          0.0      0.0    ! 
 ELEMENT GA   ORTHORHOMBIC_GA            69.72      5572.0     40.7271 ! 
 ELEMENT MG   HCP_A3                     24.305     4998.      32.671  !
$ ------------------------------------------------------------------------------
$ Phase definitions
$
 PHASE LIQUID:L % 1 1 !
 CONST LIQUID:L : GA MG : !
$
$ Fcc (cF4, Fm-3m) and MeX (cF8, Fm-3m)
$
 PHASE FCC_A1 %A 2 1 1 !
 CONST FCC_A1 : GA MG : VA : !
$
$ Bcc (cI2, Im-3m)
$
 PHASE BCC_A2 %B 2 1 3 !
 CONST BCC_A2 : GA MG : VA : !
$
$ Hcp (hP2, P6_3/mmc) and Me2X (NiAs-type, hP4, P6_3/mmc, B8_1)
$
 PHASE HCP_A3 %A 2 1 0.5 !
 CONST HCP_A3 : GA MG% : VA : !
$
$ alpha-Ga (oC8, Cmca)
$
 PHASE ORTHORHOMBIC_A11 % 1 1 !
 CONST ORTHORHOMBIC_A11 : GA : !
$
$ Prototype Ga5Mg2 (tI28, I4/mmm)
$
 PHASE GA5MG2 % 2 5 2 !
 CONST GA5MG2 : GA : MG : !
$
$ Prototype Ga2Mg (oP24, Pbam)
$
 PHASE GA2MG % 2 2 1 !
 CONST GA2MG : GA : MG : !
$
$ Prototype GaMg (tI32, I4_1/a)
$
 PHASE GAMG % 2 1 1 !
 CONST GAMG : GA : MG : !
$
$ Prototype GaMg2 (hP18, P-62c)
$
 PHASE GAMG2 % 2 1 2 !
 CONST GAMG2 : GA : MG : !
$
$ Prototype Ga2Mg5 (oI28, Ibam)
$
 PHASE GA2MG5_D8G % 2 2 5 !
 CONST GA2MG5_D8G : GA : MG : !
$ ------------------------------------------------------------------------------
$ Defaults
$
 DEFINE-SYSTEM-DEFAULT ELEMENT 2 !
 DEFAULT-COM DEFINE_SYSTEM_ELEMENT VA !
 TYPE-DEF % SEQ * !
 TYPE-DEF A GES AMEND_PHASE_DESCRIPTION @ MAGNETIC -3 0.28 !
 TYPE-DEF B GES AMEND_PHASE_DESCRIPTION @ MAGNETIC -1 0.4 !
 FUNCTION ZERO      298.15  0;                                         6000 N !
 FUNCTION UN_ASS    298.15  0;                                         6000 N !
 FUNCTION R         298.15  +8.31451;                                  6000 N !
$ ------------------------------------------------------------------------------
$ Element data
$ ------------------------------------------------------------------------------
$ Ga
$
$ DIAMOND_A4 added in unary 5.0
$
$ Changed name from ORTHORHOMBIC_GA to ORTHORHOMBIC_A11
$
 PAR  G(ORTHORHOMBIC_A11,GA)    200.00  +GHSERGA;                4000 N 91Din !
 PAR  G(FCC_A1,GA:VA)           200.00  +GHSERGA+3800-10.2*T;    4000 N 91Din !
 PAR  G(BCC_A2,GA:VA)           200.00  +GHSERGA+4500-11.7*T;    4000 N 91Din !
 PAR  G(HCP_A3,GA:VA)           200.00  +GHSERGA+4500-9.5*T;     4000 N 91Din !
$PAR  G(DIAMOND_A4,GA)          200.00  +GHSERGA+20900-2*T;      4000 N 09SGUN !
$PAR  G(BCT_A5,GA)              200.00  +GHSERGA+3846-9.8*T;     4000 N 91Din !
$PAR  G(TETRAGONAL_A6,GA)       200.00  +GHSERGA+3500-10*T;      4000 N 91Din !
 PAR  G(LIQUID,GA)              200.00  +GLIQGA;                 4000 N 91Din !
$
 FUNCTION GHSERGA   200.00  -21312.331+585.263691*T-108.228783*T*LN(T)
       +0.227155636*T**2-1.18575257E-04*T**3+439954*T**(-1);
       302.91  Y  -7055.643+132.73019*T-26.0692906*T*LN(T)
       +1.506E-04*T**2-4.0173E-08*T**3-118332*T**(-1)+1.64547E+23*T**(-9);
      4000.00  N !
 FUNCTION GLIQGA    200.00  +5491.298-18.073995*T+GHSERGA-7.0171E-17*T**7;
       302.91  Y  +5666.455-18.681147*T+GHSERGA-1.64547E+23*T**(-9);
      4000.00  N !
$ Ga(g)
 FUNCTION F10135T   298.15  +259072.278+88.0130706*T-38.71057*T*LN(T)
       +0.01053784*T**2-9.86907833E-07*T**3+338489.2*T**(-1);
       600.00  Y  +263812.519+33.4871435*T-30.75007*T*LN(T)
       +0.00537745*T**2-5.46534E-07*T**3-150942.65*T**(-1);
      1400.00  Y  +270292.501-28.1810494*T-21.9834*T*LN(T)
       +3.192416E-04*T**2-1.46299133E-08*T**3-992093*T**(-1);
      6000.00  Y  +340110.007-140.262257*T-9.704267*T*LN(T)
       -4.5138725E-04*T**2-1.13427367E-08*T**3-68387950*T**(-1);
     10000.00  N !
$ Ga2(g)
 FUNCTION F10197T   298.15  +422882.385-36.0787973*T-33.72863*T*LN(T)
       -0.009368525*T**2+7.62775167E-07*T**3-19520.385*T**(-1);
      1100.00  Y  +419324.178+8.33965897*T-40.33555*T*LN(T)
       -0.0041854135*T**2+2.679565E-08*T**3+312119.6*T**(-1);
      2500.00  N !
$ ------------------------------------------------------------------------------
$ Mg
$
 PAR  G(FCC_A1,MG:VA),,                 +GHSERMG+2600-0.9*T;     3000 N 91Din !
 PAR  G(BCC_A2,MG:VA),,                 +GHSERMG+3100-2.1*T;     3000 N 91Din !
 PAR  G(HCP_A3,MG:VA),,                 +GHSERMG;                3000 N 91Din !
 PAR  G(LIQUID,MG),,                    +GLIQMG;                 3000 N 91Din !
$
 FUNCTION GHSERMG   298.15  -8367.34+143.675547*T-26.1849782*T*LN(T)
       +4.858E-04*T**2-1.393669E-06*T**3+78950*T**(-1);
       923.00  Y  -14130.185+204.716215*T-34.3088*T*LN(T)+1.038192E+28*T**(-9);
      3000.00  N !
 FUNCTION GLIQMG    298.15  +8202.243-8.83693*T+GHSERMG-8.0176E-20*T**7;
       923.00  Y  -5439.869+195.324057*T-34.3088*T*LN(T);
      3000.00  N !
$ ------------------------------------------------------------------------------
$ Binary system
$
$ From P. Franke 2005 (included in LB Vol. 5)
$
$ P. Franke, unpublished, 2005.
$
$ Revised from M. Notin, B. Belbacha, J. Charles, J. Hertz,
$ J. Alloys Compd., 176, 25-38(1991) using SGTE unaries.
$
$ Checked against LB and report. Checked at 6000 K.
$
 PAR  L(LIQUID,GA,MG;0),,               -45780+12.97*T;,,             N 05Fra !
 PAR  L(LIQUID,GA,MG;1),,               +9094-5.55*T;,,               N 05Fra !
 PAR  L(LIQUID,GA,MG;2),,               +9325-5.859*T;,,              N 05Fra !
 PAR  L(LIQUID,GA,MG;3),,               -4356+1.956*T;,,              N 05Fra !
$
 PAR  L(HCP_A3,GA,MG:VA;0),,            -17100-7*T;,,                 N 05Fra !
$
 PAR  G(GA5MG2,GA:MG),,                 +5*GHSERGA+2*GHSERMG
             -67863.6-25.158*T;,,                                     N 05Fra !
 PAR  G(GA2MG,GA:MG),,                  +2*GHSERGA+GHSERMG
             -31164-14.04*T;,,                                        N 05Fra !
 PAR  G(GAMG,GA:MG),,                   +GHSERGA+GHSERMG
             -26366-5.58*T;,,                                         N 05Fra !
 PAR  G(GAMG2,GA:MG),,                  +GHSERGA+2*GHSERMG
             -34389-8.355*T;,,                                        N 05Fra !
 PAR  G(GA2MG5_D8G,GA:MG),,             +2*GHSERGA+5*GHSERMG
             -76489-13.65*T;,,                                        N 05Fra !
$
$ Metastable
$
 PAR  L(FCC_A1,GA,MG:VA;0),,            -17100-7*T;,,                 N Same !
 PAR  L(BCC_A2,GA,MG:VA;0),,            -17100-7*T;,,                 N Same !
$ ------------------------------------------------------------------------------
$
 ASSESSED_SYSTEM
  GA-MG(TDB -* +LIQUID +HCP_A3 +ORTHO_A11 +GA5MG2 +GA2MG +GAMG +GAMG2
  +GA2MG5_D8G ;P3 TMM:200/1000 *) !
$
$
 LIST-OF-REFERENCE
 NUMBER  SOURCE
  Null   'Unknown source'
  Same   'Same or similar interaction as in the corresponding stable phase'
  REFLAV 'Laves phase convention: G(LAVES,X:X)=+3*GHSERXX+15000'
  COST   'COST 507 database, 1998'
  91Din  'A.T. Dinsdale, Calphad, 15, 317-425(1991).'
  05Fra  'P. Franke, unpublished, 2005; Ga-Mg'
  09SGUN 'SGTE unary database V.5.0, 2009.'
!
