$
$ Database for Cu-Sn from K. Oikawa and N. Ueshima 2024.
$
$ K. Oikawa, N. Ueshima, J. Phase Equilib. Diffus., 45, 547-66(2024).
$
$ Dataset created 2025.01.17 by Bengt Hallstedt.
$
$ Modified from 13Li.
$
$ Associate liquid with Cu3Sn associates. No one else used associates to model
$ this system and this should not be necessary.
$
$ There are rather large differences for some invariant equilibria. Further
$ adjustments of the Gibbs energies of the compounds will be needed before
$ using this dataset.
$
$ A positive hcp interaction is needed to avoid hcp becoming stable close to
$ Sn.
$
$ ------------------------------------------------------------------------------
 TEMP-LIM 298.15 6000.00 !
$
$ELEMENT NAME  REF. STATE               ATOMIC MASS H298-H0    S298    !
$
 ELEMENT VA   VACUUM                      0.0          0.0      0.0    ! 
 ELEMENT CU   FCC_A1                     63.546     5004.      33.15   !
 ELEMENT SN   BCT_A5                    118.69      6323.      51.18   ! 
$ ------------------------------------------------------------------------------
$ Species
$
 SPECIE  CU3SN                              CU3SN1 !
$ ------------------------------------------------------------------------------
$ Phase definitions
$
 PHASE LIQUID:L % 1 1 !
 CONST LIQUID:L : CU CU3SN SN : !
$
$ Fcc (cF4, Fm-3m) and MeX (cF8, Fm-3m)
$
 PHASE FCC_A1 %A 2 1 1 !
 CONST FCC_A1 : CU% SN : VA : !
$
$ Bcc (cI2, Im-3m)
$
 PHASE BCC_A2 %B 2 1 3 !
 CONST BCC_A2 : CU SN : VA : !
$
$ Disordered part of BD3_BCC, identical to BCC_A2
$
 PHASE A2_BCC %B 2 1 3 !
 CONST A2_BCC : CU SN : VA : !
$
$ Prototype CsCl (B2, cP2, Pm-3m), NaTl (B32, cF16, Fd-3m),
$ BiF3 (D0_3, cF16, Fm-3m), AlCu2Mn (L2_1, cF16)
$ D0_3 is stable as Cu3Sn-h (gamma)
$
 PHASE BCC_4SL %BO 5 0.25 0.25 0.25 0.25 3 !
 CONST BCC_4SL : CU% SN : CU% SN : CU% SN : CU SN% : VA : !
$
$ Hcp (hP2, P6_3/mmc) and Me2X (NiAs-type, hP4, P6_3/mmc, B8_1)
$
 PHASE HCP_A3 %A 2 1 0.5 !
 CONST HCP_A3 : CU SN : VA: !
$
$ Prototype C (cF8, Fd-3m)
$
 PHASE DIAMOND_A4 % 1 1 !
 CONST DIAMOND_A4 : SN : !
$
$ Prototype beta-Sn (tI4, I4_1/amd)
$
 PHASE BCT_A5 % 1 1 !
 CONST BCT_A5 : SN : !
$
$ Prototype Cu41Sn11 (cF416, F-43m), delta
$
 PHASE CU41SN11 %  2 0.788 0.212 !
 CONST CU41SN11 : CU : SN : !
$
$ Prototype Cu10Sn3 (hP26, P6_3), zeta
$
 PHASE CU10SN3 % 2 0.769 0.231 !
 CONST CU10SN3 : CU : SN : !
$
$ Prototype Cu3Sn (oC80, Cmcm), epsilon
$
 PHASE CU3SN_L % 2 0.75 0.25 !
 CONST CU3SN_L : CU : SN : !
$
$ Prototype Cu6Sn5 (mC44, C2/c) and/or Cu5Sn4 (mP36, P2_1/c and/or mC54, C2)
$ eta-prime
$
 PHASE CU6SN5_L %  2 0.545 0.455 !
 CONST CU6SN5_L : CU : CU SN% : !
$
$ Prototype NiAs (hP4, P6_3/mmc), Also h-Cu5Sn4, eta
$ Model is incompatible with crystallography
$
 PHASE CU6SN5_B81 %  3 0.545 0.122 0.333 !
 CONST CU6SN5_B81 : CU : CU SN : SN : !
$ ------------------------------------------------------------------------------
$ Defaults
$
 DEFINE-SYSTEM-DEFAULT ELEMENT 2 !
 DEFAULT-COM DEFINE_SYSTEM_ELEMENT VA !
 TYPE-DEF % SEQ * !
 TYPE-DEF A GES AMEND_PHASE_DESCRIPTION @ MAGNETIC -3 0.28 !
 TYPE-DEF B GES AMEND_PHASE_DESCRIPTION @ MAGNETIC -1 0.4 !
 TYPE-DEF O GES AMEND_PHASE_DESCRIPTION BCC_4SL DIS_PART A2_BCC !
 FUNCTION ZERO      298.15  0;                                         6000 N !
 FUNCTION UN_ASS    298.15  0;                                         6000 N !
 FUNCTION R         298.15  +8.31451;                                  6000 N !
$ ------------------------------------------------------------------------------
$ Element data
$ ------------------------------------------------------------------------------
$ Cu
$
$ BCT_A5 from 00Moo not included in unary
$
 PAR  G(FCC_A1,CU:VA),,                 +GHSERCU;                3200 N 91Din !
 PAR  G(BCC_A2,CU:VA),,                 +GHSERCU+4017-1.255*T;   3200 N 91Din !
 PAR  G(A2_BCC,CU:VA),,                 +GHSERCU+4017-1.255*T;   3200 N 91Din !
 PAR  G(HCP_A3,CU:VA),,                 +GHSERCU+600+0.2*T;      3200 N 91Din !
$PAR  G(BCT_A5,CU),,                    +GHSERCU+4184;           3200 N 00Moo !
 PAR  G(LIQUID,CU),,                    +GLIQCU;                 3200 N 91Din !
$
 PAR  G(CU6SN5_L,CU:CU),,               +GHSERCU+1000;           3200 N 13Li !
$
 FUNCTION GHSERCU   298.15  -7770.458+130.485235*T-24.112392*T*LN(T)
       -0.00265684*T**2+1.29223E-07*T**3+52478*T**(-1);
      1357.77  Y  -13542.026+183.803828*T-31.38*T*LN(T)+3.64167E+29*T**(-9);
      3200.00  N !
 FUNCTION GLIQCU    298.15  +12964.735-9.511904*T+GHSERCU-5.8489E-21*T**7;
      1357.77  Y  -46.545+173.881484*T-31.38*T*LN(T);
      3200.00  N !
 FUNCTION GBCCCU    298.15  +GHSERCU+4017-1.255*T;                     3200 N !
$ ------------------------------------------------------------------------------
$ Sn
$
$ FCC_A1 revised in unary 3.0
$ HCP_A3 revised in unary 4.1
$ TETRAGONAL_A6 added in unary 4.1
$ CBCC_A12 and CUB_A13 added in unary 4.4
$ FCC_A1 modified in unary 5.0
$ DHCP and TET_ALPHA1_A6 added in unary 5.0
$
$ The DHCP phase is labelled D0_24 in 03Liu and alpha-prime in 92Ans. The
$ phase is present between the fcc and hcp phases in the Au-Sn and Au-In
$ systems.
$
 PAR  G(BCT_A5,SN)              100.00  +GHSERSN;                3000 N 91Din !
 PAR  G(DIAMOND_A4,SN)          100.00  +GDIASN;                 3000 N 91Din !
 PAR  G(FCC_A1,SN:VA)           100.00  +GHSERSN+5510-8.46*T;    3000 N 89Fec !
$PAR  G(FCC_A1,SN:VA)           100.00  +GHSERSN+4150-5.2*T;     3000 N 91Din !
 PAR  G(BCC_A2,SN:VA)           100.00  +GHSERSN+4400-6*T;       3000 N 91Din !
 PAR  G(A2_BCC,SN:VA)           100.00  +GHSERSN+4400-6*T;       3000 N 91Din !
 PAR  G(HCP_A3,SN:VA)           100.00  +GHSERSN+3900-7.646*T;   3000 N Ansar !
$PAR  G(HCP_A3,SN:VA)           100.00  +GHSERSN+3900-4.4*T;     3000 N 91Din !
$PAR  G(DHCP,SN)                100.00  +GHSERSN+3803.52-3.46*T; 3000 N 03Liu !
$PAR  G(RHOMBOHEDRAL_A7,SN)     100.00  +GHSERSN+2035;           3000 N 91Din !
$PAR  G(TETRAGONAL_A6,SN)       100.00  +GHSERSN+5387-8.26212*T; 3000 N 99Ans !
$PAR  G(CBCC_A12,SN:VA)         100.00  +GHSERSN+2000;           3000 N 01Mie !
$PAR  G(CUB_A13,SN:VA)          100.00  +GHSERSN+2000;           3000 N 01Mie !
$PAR  G(TET_ALPHA1_A6,SN)       100.00  +GHSERSN+5510-8.46*T;    3000 N 99Ans !
 PAR  G(LIQUID,SN)              100.00  +GLIQSN;                 3000 N 91Din !
$
 FUNCTION GHSERSN   100.00  -7958.517+122.765451*T-25.858*T*LN(T)
       +5.1185E-04*T**2-3.192767E-06*T**3+18440*T**(-1);
       250.00  Y  -5855.135+65.443315*T-15.961*T*LN(T)
       -0.0188702*T**2+3.121167E-06*T**3-61960*T**(-1);
       505.08  Y  +2524.724+4.005269*T-8.2590486*T*LN(T)
       -0.016814429*T**2+2.623131E-06*T**3-1081244*T**(-1)-1.2307E+25*T**(-9);
       800.00  Y  -8256.959+138.99688*T-28.4512*T*LN(T)-1.2307E+25*T**(-9);
      3000.00  N !
 FUNCTION GDIASN    100.00  -9579.608+114.007785*T-22.972*T*LN(T)
       -0.00813975*T**2+2.7288E-06*T**3+25615*T**(-1);
       298.15  Y  -9063.001+104.84654*T-21.5750771*T*LN(T)
       -0.008575282*T**2+1.784447E-06*T**3-2544*T**(-1);
       800.00  Y  -10909.351+147.396535*T-28.4512*T*LN(T);
      3000.00  N !
 FUNCTION GLIQSN    100.00  +7103.092-14.087767*T+GHSERSN+1.47031E-18*T**7;
       505.08  Y  +6971.586-13.814383*T+GHSERSN+1.2307E+25*T**(-9);
       800.00  Y  -1285.372+125.182498*T-28.4512*T*LN(T);
      3000.00  N !
 FUNCTION GBCCSN    298.15  +GHSERSN+4400-6*T;                         3000 N !
$ ------------------------------------------------------------------------------
$ Binary system
$
$ K. Oikawa, N. Ueshima, J. Phase Equilib. Diffus., 45, 547-66(2024).
$
$ Checked against paper. Checked at 6000 K.
$
$ Modified from 13Li.
$
$ Associate liquid with Cu3Sn associates. No one else used associates to model
$ this system and this should not be necessary.
$
$ There are rather large differences for some invariant equilibria. Further
$ adjustments of the Gibbs energies of the compounds will be needed before
$ using this dataset.
$
$ A positive hcp interaction is needed to avoid hcp becoming stable close to
$ Sn.
$
 PAR  G(LIQUID,CU3SN),,                 +3*GLIQCU+GLIQSN
             -40889+18.093*T;,,                                       N 24Oik !
 PAR  L(LIQUID,CU,SN;0),,               -7694-4.87*T;,,               N 24Oik !
 PAR  L(LIQUID,CU,SN;1),,               -10143;,,                     N 24Oik !
 PAR  L(LIQUID,CU,SN;2),,               -2070;,,                      N 24Oik !
 PAR  L(LIQUID,CU,CU3SN;0),,            -15000;,,                     N 24Oik !
 PAR  L(LIQUID,CU3SN,SN;0),,            +15978;,,                     N 24Oik !
 PAR  L(LIQUID,CU3SN,SN;1),,            +2177;,,                      N 24Oik !
$
 PAR  L(FCC_A1,CU,SN:VA;0),,            -9500+0.2*T;,,                N 24Oik !
 PAR  L(FCC_A1,CU,SN:VA;1),,            -18500+6.8*T;,,               N 13Li !
$
 PAR  L(BCC_A2,CU,SN:VA;0),,            +5224;,,                      N 13Li !
 PAR  L(BCC_A2,CU,SN:VA;1),,            -95350+9.28*T;,,              N 13Li !
 PAR  L(BCC_A2,CU,SN:VA;2),,            +29870;,,                     N 13Li !
$
 PAR  L(A2_BCC,CU,SN:VA;0),,            +5224;,,                      N 13Li !
 PAR  L(A2_BCC,CU,SN:VA;1),,            -95350+9.28*T;,,              N 13Li !
 PAR  L(A2_BCC,CU,SN:VA;2),,            +29870;,,                     N 13Li !
$
 PAR  G(BCC_4SL,CU:CU:CU:SN:VA),,       +GBCU3SN;,,                   N 13Li !
 PAR  G(BCC_4SL,CU:CU:SN:CU:VA),,       +GBCU3SN;,,                   N 13Li !
 PAR  G(BCC_4SL,CU:SN:CU:CU:VA),,       +GBCU3SN;,,                   N 13Li !
 PAR  G(BCC_4SL,SN:CU:CU:CU:VA),,       +GBCU3SN;,,                   N 13Li !
 PAR  G(BCC_4SL,CU:CU:SN:SN:VA),,       +GB2CUSN;,,                   N 13Li !
 PAR  G(BCC_4SL,CU:SN:CU:SN:VA),,       +GB32CUSN;,,                  N 13Li !
 PAR  G(BCC_4SL,CU:SN:SN:CU:VA),,       +GB32CUSN;,,                  N 13Li !
 PAR  G(BCC_4SL,SN:CU:CU:SN:VA),,       +GB32CUSN;,,                  N 13Li !
 PAR  G(BCC_4SL,SN:CU:SN:CU:VA),,       +GB32CUSN;,,                  N 13Li !
 PAR  G(BCC_4SL,SN:SN:CU:CU:VA),,       +GB2CUSN;,,                   N 13Li !
 PAR  G(BCC_4SL,CU:SN:SN:SN:VA),,       +GBCUSN3;,,                   N 13Li !
 PAR  G(BCC_4SL,SN:CU:SN:SN:VA),,       +GBCUSN3;,,                   N 13Li !
 PAR  G(BCC_4SL,SN:SN:CU:SN:VA),,       +GBCUSN3;,,                   N 13Li !
 PAR  G(BCC_4SL,SN:SN:SN:CU:VA),,       +GBCUSN3;,,                   N 13Li !
$
 PAR  G(CU41SN11,CU:SN),,               +0.788*GHSERCU+0.212*GHSERSN
             -6730-1.123*T;,,                                         N 24Oik !
 PAR  G(CU10SN3,CU:SN),,                +0.769*GHSERCU+0.231*GHSERSN
             -6879-1.4798*T;,,                                        N 24Oik !
 PAR  G(CU3SN_L,CU:SN),,                +0.75*GHSERCU+0.25*GHSERSN
             -8764-1.3735*T+0.26314*T*LN(T);,,                        N 24Oik !
 PAR  G(CU6SN5_L,CU:SN),,               +0.545*GHSERCU+0.455*GHSERSN
             -7978.7+2.6425*T-8.10967E-04*T*LN(T)-0.00148678*T**2;,,  N 24Oik !
$
 PAR  G(CU6SN5_B81,CU:CU:SN),,          +0.667*GHSERCU+0.333*GHSERSN
             +3200+2*T;,,                                             N 13Li !
 PAR  G(CU6SN5_B81,CU:SN:SN),,          +0.545*GHSERCU+0.455*GHSERSN
             -7449+1.49261*T-8.10967E-04*T*LN(T)-0.00148678*T**2;,,   N 24Oik !
 PAR  L(CU6SN5_B81,CU:CU,SN:SN;0),,     -7129+0.4509*T;,,             N 24Oik !
$
$ metastable
$
 PAR  L(HCP_A3,CU,SN:VA;0),,            +5000;,,                      N !
$
 FUNCTION UB1CUSN   298.15  -4297.5;                                   6000 N !
 FUNCTION UB2CUSN   298.15  -4775;                                     6000 N !
 FUNCTION GBCU3SN   298.15  +2*UB1CUSN+1.5*UB2CUSN;                    6000 N !
 FUNCTION GB2CUSN   298.15  +4*UB1CUSN;                                6000 N !
 FUNCTION GB32CUSN  298.15  +2*UB1CUSN+3*UB2CUSN;                      6000 N !
 FUNCTION GBCUSN3   298.15  +2*UB1CUSN+1.5*UB2CUSN;                    6000 N !
$ ------------------------------------------------------------------------------
$
 ASSESSED_SYSTEM
  CU-SN(TDB -* +LIQUID +FCC_A1 +BCC_4SL +CU10SN3 +CU3SN_L +CU41SN11
  +CU6SN5_B81 +CU6SN5_L +CU3SN_D03 +BCT_A5 ;P3 TMM:300/2000 STP:.5/1000/-2 ) !
$
$
 LIST-OF-REFERENCE
 NUMBER  SOURCE
  Null   'Unknown source'
  Same   'Same or similar interaction as in the corresponding stable phase'
  COST   'COST 507 database'
  Ansar  'Himo Ansara, unpublished, SGTE unary database V.4.1, 1999; Sn'
  89Fec  'H.J. Fecht, M.X. Zhang, Y.A. Chang, J.H. Perepezko,
          Metall. Trans. A, 20A, 795-803 (1989),
          SGTE unary database V.3.0, 1996; Sn'
  91Din  'A.T. Dinsdale, Calphad, 15, 317-425(1991).'
  91TC   'Thermo-Calc additions to the SGTE unary database V.2.0, 1991'
  96Shi  'J.-H. Shim, C.-S. Oh, B.-J. Lee, D.N. Lee,
          Z. Metallkd., 87, 205-12 (1996); Cu-Sn'
  99Ans  'I. Ansara, S.G. Fries, H.L. Lukas, unpublished, 1999,
          SGTE unary database V.5.0, 2009; In, Sn'
  00Moo  'K.W. Moon, W.J. Boettinger, U.R. Kattner, F.S. Biancaniello,
          C.A, Handwerker, J. Electron. Mater., 29, 1122-36(2000); Cu'
  01Mie  'J. Miettinen, Calphad, 25, 43-58 (2001),
          SGTE unary database V.4.4, 2001; Sn, Zn'
  03Liu  'H.S. Liu, C.L. Liu, K. Ishida, Z.P. Jin, J. Electron. Mater.,
          32, 1290-96(2003), SGTE unary database V.5.0, 2009; Sn'
  13Li   'D. Li, P. Franke, S. Fuertauer, D.M. Cupid, H. Flandorfer,
          Intermetallics, 34, 148-58(2013); Cu-Sn'
  24Oik  'K. Oikawa, N. Ueshima,
          J. Phase Equilib. Diffus., 45, 547-66(2024); Cu-Sn'
!
