$
$ Database for Dy-Mg from Z. Du et al. 2004
$
$ Z. Du, X. Yang, G. Ling, H. Liu, Z. Metallkd., 95, 1115-19(2004).
$
$ Dataset created 2015.05.24 by Bengt Hallstedt.
$ 2020.12.26: Modified for use with GES6.
$
$ ------------------------------------------------------------------------------
 TEMP-LIM 298.15 6000.00 !
$
$ELEMENT NAME  REF. STATE               ATOMIC MASS H298-H0    S298    !
$
 ELEMENT VA   VACUUM                      0.0          0.0      0.0    ! 
 ELEMENT DY   HCP_A3                    162.50      8865.896   74.9559 ! 
 ELEMENT MG   HCP_A3                     24.305     4998.      32.671  !
$ ------------------------------------------------------------------------------
$ Phase definitions
$
 PHASE LIQUID:L % 1 1 !
 CONST LIQUID:L : DY MG : !
$
$ Fcc (cF4, Fm-3m) and MeX (cF8, Fm-3m)
$
 PHASE FCC_A1 %A 2 1 1 !
 CONST FCC_A1 : DY MG : VA : !
$
$ Bcc (cI2, Im-3m)
$
 PHASE BCC_A2 %B 2 1 3 !
 CONST BCC_A2 : DY MG : VA : !
$
$ Prototype CsCl (cP2, Pm3m)
$
 PHASE DYMG_B2 % 2 1 1 !
 CONST DYMG_B2 : DY% MG : MG% VA : !
$
$ Hcp (hP2, P6_3/mmc) and Me2X (NiAs-type, hP4, P6_3/mmc, B8_1)
$
 PHASE HCP_A3 %A 2 1 0.5 !
 CONST HCP_A3 : DY MG : VA : !
$
$ Prototype MgZn2 (hP12, P6_3/mmc)
$
 PHASE C14_LAVES % 2 2 1 !
 CONST C14_LAVES : DY MG% : DY% MG : !
$
$ Prototype BiF3 (cF16, Fm-3m)
$
 PHASE DYMG3_D03 % 2 1 3 !
 CONST DYMG3_D03 : DY : MG : !
$
$ Prototype alpha-Mn (cI58, I-43m)
$
 PHASE DY5MG24_A12 % 2 5 24 !
 CONST DY5MG24_A12 : DY% MG : DY MG% : !
$ ------------------------------------------------------------------------------
$ Defaults
$
 DEFINE-SYSTEM-DEFAULT ELEMENT 2 !
 DEFAULT-COM DEFINE_SYSTEM_ELEMENT VA !
 TYPE-DEF % SEQ * !
 TYPE-DEF A GES AMEND_PHASE_DESCRIPTION @ MAGNETIC -3 0.28 !
 TYPE-DEF B GES AMEND_PHASE_DESCRIPTION @ MAGNETIC -1 0.4 !
 FUNCTION ZERO      298.15  0;                                         6000 N !
 FUNCTION UN_ASS    298.15  0;                                         6000 N !
 FUNCTION R         298.15  +8.31451;                                  6000 N !
$ ------------------------------------------------------------------------------
$ Element data
$ ------------------------------------------------------------------------------
$ Dy
$
$ HCP_A3, BCC_A2 and LIQUID revised in unary 3.0
$
$ FCC_A1 from 03Cac not included in unary (but it should be)
$
 PAR  G(HCP_A3,DY:VA)           100.00  +GHSERDY;                3000 N 95She1 !
 PAR  TC(HCP_A3,DY:VA)          100.00    179;                   3000 N 95She1 !
 PAR  BMAGN(HCP_A3,DY:VA)       100.00      3.0;                 3000 N 95She1 !
 PAR  G(BCC_A2,DY:VA)           100.00  +GBCCDY;                 3000 N 95She1 !
 PAR  G(FCC_A1,DY:VA)           100.00  +GHSERDY
             +1300-0.6651608*T;                                  3000 N 03Cac !
 PAR  G(LIQUID,DY)              100.00  +GLIQDY;                 3000 N 95She1 !
$
 PAR  G(DYMG_B2,DY:VA)          100.00  +GHSERDY+5000;           3000 N 04Du !
 PAR  G(C14_LAVES,DY:DY)        100.00  +3*GHSERDY+15000;        3000 N REFLAV !
 PAR  G(DY5MG24_A12,DY:DY)      100.00  +29*GHSERDY+145000;      3000 N 04Du !
$
 FUNCTION GHSERDY   100.00  -7937.16586+102.307412*T-26.3917167*T*LN(T)
       -7.61683657E-04*T**2-5.86914125E-07*T**3+4010.90565*T**(-1);
      1000.00  Y  -13733.328+214.012934*T-43.8283359*T*LN(T)
       +0.0166909801*T**2-3.49702836E-06*T**3+0.0173619874*T**(-1);
      1654.15  Y  -404681.371+2032.1415*T-272.123952*T*LN(T)
       +0.0578301681*T**2-2.76169148E-06*T**3+1.09616238E+08*T**(-1);
      3000.00  N !
 FUNCTION GBCCDY    100.00  +1508.1802-0.566616181*T+GHSERDY;
      1000.00  Y  +327500.062-2868.04585*T+391.515418*T*LN(T)
       -0.224042148*T**2+2.04076075E-05*T**3-48652656.5*T**(-1);
      1654.15  Y  -33708.7949+291.409631*T-50.208*T*LN(T);
      1685.15  Y  -40775.4966+330.318068*T-55.2811171*T*LN(T)
       +0.0015254673*T**2-7.7437116E-08*T**3+1776589.32*T**(-1);
      3000.00  N !
 FUNCTION GLIQDY    100.00  +13196.6185-7.5443643*T+GHSERDY;
      1000.00  Y  +300126.971-2519.78614*T+341.302578*T*LN(T)
       -0.196153225*T**2+1.76197799E-05*T**3-43071677.5*T**(-1);
      1685.15  Y  -21864.7344+282.205014*T-49.9151*T*LN(T);
      3000.00  N !
$ ------------------------------------------------------------------------------
$ Mg
$
 PAR  G(FCC_A1,MG:VA),,                 +GHSERMG+2600-0.9*T;     3000 N 91Din !
 PAR  G(BCC_A2,MG:VA),,                 +GHSERMG+3100-2.1*T;     3000 N 91Din !
 PAR  G(HCP_A3,MG:VA),,                 +GHSERMG;                3000 N 91Din !
 PAR  G(LIQUID,MG),,                    +GLIQMG;                 3000 N 91Din !
$
 PAR  G(DYMG_B2,MG:MG),,                +2*GBCCMG;               3000 N 04Du !
 PAR  G(DYMG_B2,MG:VA),,                +GHSERMG+5000;           3000 N 04Du !
 PAR  G(C14_LAVES,MG:MG),,              +3*GHSERMG+15000;        3000 N REFLAV !
 PAR  G(DY5MG24_A12,MG:MG),,            +29*GHSERMG+145000;      3000 N 04Du !
$
 FUNCTION GHSERMG   298.15  -8367.34+143.675547*T-26.1849782*T*LN(T)
       +4.858E-04*T**2-1.393669E-06*T**3+78950*T**(-1);
       923.00  Y  -14130.185+204.716215*T-34.3088*T*LN(T)+1.038192E+28*T**(-9);
      3000.00  N !
 FUNCTION GLIQMG    298.15  +8202.243-8.83693*T+GHSERMG-8.0176E-20*T**7;
       923.00  Y  -5439.869+195.324057*T-34.3088*T*LN(T);
      3000.00  N !
 FUNCTION GBCCMG    298.15  +GHSERMG+3100-2.1*T;                       3000 N !
$ ------------------------------------------------------------------------------
$ Binary system
$
$ Z. Du, X. Yang, G. Ling, H. Liu, Z. Metallkd., 95, 1115-19(2004).
$
$ Checked against paper. Checked at 6000 K.
$
 PAR  L(LIQUID,DY,MG;0),,               -14489.2-11.4202*T;,,         N 04Du !
 PAR  L(LIQUID,DY,MG;1),,               +13949+7.476*T;,,             N 04Du !
 PAR  L(LIQUID,DY,MG;2),,               -8096.5-5.0023*T;,,           N 04Du !
$
 PAR  L(BCC_A2,DY,MG:VA;0),,            -29349.2+4.7269*T;,,          N 04Du !
 PAR  L(BCC_A2,DY,MG:VA;1),,            +37152.7-20.5179*T;,,         N 04Du !
$
 PAR  L(HCP_A3,DY,MG:VA;0),,            -21832+5.1758*T;,,            N 04Du !
 PAR  L(HCP_A3,DY,MG:VA;1),,            +31837.6-18.4901*T;,,         N 04Du !
$
 PAR  G(DYMG_B2,DY:MG),,                +GHSERDY+GHSERMG
             -25919.9+2.0599*T;,,                                     N 04Du !
 PAR  L(DYMG_B2,DY,MG:MG;0),,           -13449.5+10.6486*T;,,         N 04Du !
 PAR  L(DYMG_B2,DY,MG:VA;0),,           -13449.5+10.6486*T;,,         N 04Du !
 PAR  L(DYMG_B2,DY:MG,VA;0),,           +14027.8+5.7852*T;,,          N 04Du !
 PAR  L(DYMG_B2,MG:MG,VA;0),,           +14027.8+5.7852*T;,,          N 04Du !
$
 PAR  G(C14_LAVES,DY:MG),,              +2*GHSERDY+GHSERMG
             +48198.9-14.0271*T;,,                                    N 04Du !
 PAR  G(C14_LAVES,MG:DY),,              +2*GHSERMG+GHSERDY
             -48198.9+14.0271*T;,,                                    N 04Du !
 PAR  L(C14_LAVES,DY,MG:DY;0),,         +44301.6+13.7949*T;,,         N 04Du !
 PAR  L(C14_LAVES,DY,MG:MG;0),,         +44301.6+13.7949*T;,,         N 04Du !
 PAR  L(C14_LAVES,DY:DY,MG;0),,         -44582.1+37.9119*T;,,         N 04Du !
 PAR  L(C14_LAVES,MG:DY,MG;0),,         -44582.1+37.9119*T;,,         N 04Du !
$
 PAR  G(DYMG3_D03,DY:MG),,              +GHSERDY+3*GHSERMG
             -64262.2+28.0732*T;,,                                    N 04Du !
$
 PAR  G(DY5MG24_A12,DY:MG),,            +5*GHSERDY+24*GHSERMG
             -397888.4+190.4992*T;,,                                  N 04Du !
 PAR  G(DY5MG24_A12,MG:DY),,            +5*GHSERMG+24*GHSERDY
             +397888.4-190.4992*T;,,                                  N 04Du !
 PAR  L(DY5MG24_A12,DY,MG:DY;0),,       -111364.2+1.9016*T;,,         N 04Du !
 PAR  L(DY5MG24_A12,DY,MG:MG;0),,       -111364.2+1.9016*T;,,         N 04Du !
 PAR  L(DY5MG24_A12,DY:DY,MG;0),,       +161297.6+5.9267*T;,,         N 04Du !
 PAR  L(DY5MG24_A12,MG:DY,MG;0),,       +161297.6+5.9267*T;,,         N 04Du !
$
$ Metastable
$
 PAR  L(FCC_A1,DY,MG:VA;0),,            -21832.0+5.1758*T;,,          N Same !
 PAR  L(FCC_A1,DY,MG:VA;1),,            +31837.6-18.4901*T;,,         N Same !
$ ------------------------------------------------------------------------------
$
 ASSESSED_SYSTEM
  DY-MG(TDB -* +LIQUID +HCP_A3 +BCC_A2 +DYMG_B2 +C14_LAVES +DY5MG24 +DYMG3 
  ;G5 C_S:BCC_B2/DY:MG:VA MAJ:BCC_B2/DY:DY:VA ;P3 STP:.2/800/1) !
$
$
 LIST-OF-REFERENCE
 NUMBER  SOURCE
  Null   'Unknown source'
  Same   'Same or similar interaction as in the corresponding stable phase'
  COST   'COST 507 database'
  REFLAV 'Laves phase convention: G(LAVES,X:X)=+3*GHSERXX+15000'
  91Din  'A.T. Dinsdale, Calphad, 15, 317-425(1991).'
  95She1 'H. Shen, W. Zhang, G. Liu, R. Wang, Z. Du, Report F-95-01,
          University of Science and Technology, Beijing, May 1995,
          SGTE unary database V.3.0, 1996; Dy'
  98Lia  'P. Liang, H.-L. Su, P. Donnadieu, M.G. Harmelin, A. Quivy, P. Ochin,
          G. Effenberg, H.J. Seifert, H.L. Lukas, F. Aldinger,
          Z. Metallkd., 89, 536-40 (1998); Al-Mg'
  03Cac  'G. Cacciamani, S. De Negri, A. Saccone, R. Ferro,
          Intermetallics, 11, 1135-51(2003); Dy'
  04Du   'Z. Du, X. Yang, G. Ling, H. Liu,
          Z. Metallkd., 95, 1115-19(2004); Dy-Mg'
!
