$
$ Database for Cr-Hf from J. Pavlu et al. 2010
$
$ J. Pavlu, J. Vrestal, M. Sob, Calphad, 34, 215-21(2010).
$
$ Dataset created 2014.04.06 by Bengt Hallstedt.
$ 2020.08.09: Modified for use with GES6.
$
$ Both 2-SL and 3-SL models are included for the C14_LAVES and C36_LAVES phases.
$ This dataset includes the 2-SL models.
$
$ Some Laves phase parameters are different in the paper and the submitted tdb.
$ The parameters from the tdb are used here. These have also been used to
$ calculate the figures in the paper.
$
$ ------------------------------------------------------------------------------
 TEMP-LIM 298.15 6000.00 !
$
$ELEMENT NAME  REF. STATE               ATOMIC MASS H298-H0    S298    !
$
 ELEMENT VA   VACUUM                      0.0          0.0      0.0    ! 
 ELEMENT CR   BCC_A2                     51.996     4050.0     23.5429 ! 
 ELEMENT HF   HCP_A3                    178.49      5845.0     43.56   ! 
$ ------------------------------------------------------------------------------
$ Phase definitions
$
 PHASE LIQUID:L % 1 1 !
 CONST LIQUID:L : CR HF : !
$
$ Fcc (cF4, Fm-3m) and MeX (cF8, Fm-3m)
$
 PHASE FCC_A1 %A 2 1 1 !
 CONST FCC_A1 : CR HF : VA : !
$
$ Bcc (cI2, Im-3m)
$
 PHASE BCC_A2 %B 2 1 3 !
 CONST BCC_A2 : CR% HF% : VA : !
$
$ Hcp (hP2, P6_3/mmc) and Me2X (NiAs-type, hP4, P6_3/mmc, B8_1)
$
 PHASE HCP_A3 %A 2 1 0.5 !
 CONST HCP_A3 : CR HF% : VA : !
$
$ Prototype MgZn2 (hP12, P6_3/mmc), gamma
$
 PHASE C14_LAVES % 2 2 1 !
 CONST C14_LAVES : CR HF : CR HF : !
$
$ Prototype Cu2Mg (cF24, Fd-3m), alpha
$
 PHASE C15_LAVES % 2 2 1 !
 CONST C15_LAVES : CR HF : CR HF : !
$ ------------------------------------------------------------------------------
$ Defaults
$
 DEFINE-SYSTEM-DEFAULT ELEMENT 2 !
 DEFAULT-COM DEFINE_SYSTEM_ELEMENT VA !
 TYPE-DEF % SEQ * !
 TYPE-DEF A GES AMEND_PHASE_DESCRIPTION @ MAGNETIC -3 0.28 !
 TYPE-DEF B GES AMEND_PHASE_DESCRIPTION @ MAGNETIC -1 0.4 !
 FUNCTION ZERO      298.15  0;                                         6000 N !
 FUNCTION UN_ASS    298.15  0;                                         6000 N !
 FUNCTION R         298.15  +8.31451;                                  6000 N !
$ ------------------------------------------------------------------------------
$ Element data
$ ------------------------------------------------------------------------------
$ Cr
$
 PAR  G(BCC_A2,CR:VA),,                 +GHSERCR;,,                   N 91Din !
 PAR  TC(BCC_A2,CR:VA),,                 -311.50;,,                   N 91Din !
 PAR  BM(BCC_A2,CR:VA),,                   -0.008;,,                  N 91Din !
 PAR  G(FCC_A1,CR:VA),,                 +GHSERCR+7284+0.163*T;,,      N 91Din !
 PAR  TC(FCC_A1,CR:VA),,                -1109.00;,,                   N 91Din !
 PAR  BM(FCC_A1,CR:VA),,                   -2.46;,,                   N 91Din !
 PAR  G(HCP_A3,CR:VA),,                 +GHSERCR+4438;,,              N 91Din !
 PAR  TC(HCP_A3,CR:VA),,                -1109.00;,,                   N 91Din !
 PAR  BM(HCP_A3,CR:VA),,                   -2.46;,,                   N 91Din !
$PAR  G(CUB_A13,CR:VA),,                +GHSERCR+15899+0.6276*T;,,    N 91Din !
$PAR  G(CBCC_A12,CR:VA),,               +GHSERCR+11087+2.7196*T;,,    N 91Din !
 PAR  G(LIQUID,CR),,                    +GLIQCR;,,                    N 91Din !
$
 PAR  G(C14_LAVES,CR:CR),,              +3*GHSERCR+85900;,,           N 10Pav !
 PAR  G(C15_LAVES,CR:CR),,              +3*GHSERCR+81877;,,           N 10Pav !
$
 FUNCTION GHSERCR   298.15  -8856.94+157.48*T-26.908*T*LN(T)
       +0.00189435*T**2-1.47721E-06*T**3+139250*T**(-1);
      2180.00  Y  -34869.344+344.18*T-50*T*LN(T)-2.88526E+32*T**(-9);
      6000.00  N !
 FUNCTION GLIQCR    298.15  +24339.955-11.420225*T+GHSERCR+2.37615E-21*T**7;
      2180.00  Y  -16459.984+335.616316*T-50*T*LN(T);
      6000.00  N !
 FUNCTION GFCCCR    298.15  +GHSERCR+7284+0.163*T;                     6000 N !
$ ------------------------------------------------------------------------------
$ Hf
$
$ HCP_A3 and BCC_A2 modified in unary 5.0
$ (upper T interval added + trailing decimals added)
$
 PAR  G(HCP_A3,HF:VA),,                 +GHSERHF;                3001 N 91Din !
 PAR  G(BCC_A2,HF:VA),,                 +GBCCHF;                 3001 N 91Din !
 PAR  G(FCC_A1,HF:VA),,                 +GHSERHF+10000-2.2*T;    3001 N 91Din !
 PAR  G(LIQUID,HF),,                    +GLIQHF;                 3001 N 91Din !
$
 PAR  G(C14_LAVES,HF:HF),,              +3*GHSERHF+96312;        3001 N 10Pav !
 PAR  G(C15_LAVES,HF:HF),,              +3*GHSERHF+114000;       3001 N 10Pav !
$
 FUNCTION GHSERHF   298.15  -6987.297+110.744026*T-22.7075*T*LN(T)
       -0.004146145*T**2-4.77E-10*T**3-22590*T**(-1);
      2506.00  Y  -1446776.329+6193.609991*T-787.5363829*T*LN(T)
       +0.1735215*T**2-7.575759E-06*T**3+5.01742495E+08*T**(-1);
      3000.00  Y  -34274.698+277.882368*T-44*T*LN(T);
      3001.00  N !
 FUNCTION GBCCHF    298.15  +5370.703+103.836026*T-22.8995*T*LN(T)
       -0.004206605*T**2+8.71923E-07*T**3-22590*T**(-1)-1.446E-10*T**4;
      2506.00  Y  +1912456.771-8624.20573*T+1087.6141247*T*LN(T)
       -0.286857065*T**2+1.3427829E-05*T**3-6.10085091E+08*T**(-1);
      3000.00  Y  -32498.178+276.723247*T-44*T*LN(T);
      3001.00  N !
 FUNCTION GLIQHF    298.15  +27402.256-10.953093*T+GHSERHF;
      1000.00  Y  +49731.499-149.91739*T+12.116812*T*LN(T)
       -0.021262021*T**2+1.376466E-06*T**3-4449699*T**(-1);
      2506.00  Y  -4247.217+265.470523*T-44*T*LN(T);
      3001.00  N !
$ ------------------------------------------------------------------------------
$ Binary system
$
$ J. Pavlu, J. Vrestal, M. Sob, Calphad, 34, 215-21(2010).
$
$ Both 2-SL and 3-SL models are included for the C14_LAVES and C36_LAVES phases.
$ This dataset includes the 2-SL models.
$
$ Checked against paper and author's tdb. Checked at 6000 K.
$
$ Some Laves phase parameters are different in the paper and the submitted tdb.
$ The parameters from the tdb are used here. These have also been used to
$ calculate the figures in the paper.
$
 PAR  L(LIQUID,CR,HF;0),,               -30000+8*T;,,                 N 10Pav !
 PAR  L(LIQUID,CR,HF;1),,               +3800;,,                      N 10Pav !
$
 PAR  L(BCC_A2,CR,HF:VA;0),,            +42847.5-12*T;,,              N 09Yan !
 PAR  L(BCC_A2,CR,HF:VA;1),,            +12064;,,                     N 09Yan !
$
 PAR  L(HCP_A3,CR,HF:VA;0),,            +43774+0.64729*T;,,           N 09Yan !
 PAR  L(HCP_A3,CR,HF:VA;1),,            +15000;,,                     N 09Yan !
$
$ Parameter from paper below
$PAR  G(C14_LAVES,CR:HF),,              +2*GHSERCR+GHSERHF
$            -26095+0.67*T-0.67*T*LN(T);,,                            N 10Pav !
$ Parameter from author's tdb below
 PAR  G(C14_LAVES,CR:HF),,              +2*GHSERCR+GHSERHF
             -26095+0.665*T-0.665*T*LN(T);,,                          N 10Pav !
 PAR  G(C14_LAVES,HF:CR),,              +2*GHSERHF+GHSERCR
             +289901;,,                                               N 10Pav !
$ Parameter from paper below
$PAR  L(C14_LAVES,CR,HF:HF;0),,         -3500;,,                      N 10Pav !
$ Parameter from author's tdb below
 PAR  L(C14_LAVES,CR,HF:HF;0),,         -5000;,,                      N 10Pav !
$
$ Parameter from paper below
$PAR  G(C15_LAVES,CR:HF),,              +2*GHSERCR+GHSERHF
$            -31130+0.17*T-0.17*T*LN(T);,,                            N 10Pav !
$ Parameter from author's tdb below
 PAR  G(C15_LAVES,CR:HF),,              +2*GHSERCR+GHSERHF
             -31130+0.166*T-0.166*T*LN(T);,,                          N 10Pav !
 PAR  G(C15_LAVES,HF:CR),,              +2*GHSERHF+GHSERCR
             +310380;,,                                               N 10Pav !
 PAR  L(C15_LAVES,CR,HF:HF;0),,         -24000;,,                     N 10Pav !
$
$ metastable
$
 PAR  L(FCC_A1,CR,HF:VA;0),,            +43774+0.64729*T;,,           N Same !
 PAR  L(FCC_A1,CR,HF:VA;1),,            +15000;,,                     N Same !
$ ------------------------------------------------------------------------------
$
$
 LIST-OF-REFERENCE
 NUMBER  SOURCE
  Null   'Unknown source'
  Same   'Same or similar interaction as in the corresponding stable phase'
  REFLAV 'Laves phase convention: G(LAVES,X:X)=+3*GHSERXX+15000'
  91Din  'A.T. Dinsdale, Calphad, 15, 317-425(1991).'
  09Yan  'Y. Yang, J. Schoonover, B.P. Bewlay, D. Lewis, Y.A. Chang,
          Intermetallics, 17, 305-12(2009); Cr-Hf'
  10Pav  'J. Pavlu, J. Vrestal, M. Sob, Calphad, 34, 215-21(2010); Cr-Hf'
!
