$
$ Database for Al-Dy from H. Bo et al. 2014.
$
$ H. Bo, L. Liu, X. Xiong, Z. Jin, Chin. Sci. Bull., 59, 1738-46(2014).
$
$ Dataset created 2024.07.18 by Bengt Hallstedt.
$
$ I don't have a pdf of this paper, but the parameter table is available as
$ supplemental material.
$
$ The phase diagram is fairly similar to 03Cac, but with much less temperature
$ dependence and no inverse miscibility gap.
$
$ ------------------------------------------------------------------------------
 TEMP-LIM 298.15 6000.00 !
$
$ELEMENT NAME  REF. STATE               ATOMIC MASS H298-H0    S298    !
$
 ELEMENT VA   VACUUM                      0.0          0.0      0.0    ! 
 ELEMENT AL   FCC_A1                     26.98154   4540.      28.30   ! 
 ELEMENT DY   HCP_A3                    162.50      8865.896   74.9559 ! 
$ ------------------------------------------------------------------------------
$ Phase definitions
$
 PHASE LIQUID:L % 1 1 !
 CONST LIQUID:L : AL DY : !
$
$ Fcc (cF4, Fm-3m) and MeX (cF8, Fm-3m)
$
 PHASE FCC_A1 %A 2 1 1 !
 CONST FCC_A1 : AL% DY : VA : !
$
$ Bcc (cI2, Im-3m)
$
 PHASE BCC_A2 %B 2 1 3 !
 CONST BCC_A2 : AL DY% : VA : !
$
$ Hcp (hP2, P6_3/mmc) and Me2X (NiAs-type, hP4, P6_3/mmc, B8_1)
$
 PHASE HCP_A3 %A 2 1 0.5 !
 CONST HCP_A3 : AL DY% : VA : !
$
$ Prototype Ni3Ti (hP16, P6_3/mmc), low T
$
 PHASE AL3DY_D024 % 2 3 1 !
 CONST AL3DY_D024 : AL : DY : !
$
$ Prototype Al3Ho (hR20, R-3m), high T
$
 PHASE AL3DY_HT % 2 3 1 !
 CONST AL3DY_HT : AL : DY : !
$
$ Prototype Cu2Mg (cF24, Fd-3m)
$
 PHASE C15_LAVES % 2 2 1 !
 CONST C15_LAVES : AL% DY : AL DY% : !
$
$ Prototype AlDy (oP16, Pbcm)
$
 PHASE ALDY % 2 1 1 !
 CONST ALDY : AL : DY : !
$
$ Prototype Al2Gd3 (tP20, P4_2nm)
$
 PHASE AL2DY3 % 2 2 3 !
 CONST AL2DY3 : AL : DY : !
$
$ Prototype Co2Si (oP12, Pnma)
$
 PHASE ALDY2_C37 % 2 1 2 !
 CONST ALDY2_C37 : AL : DY : !
$ ------------------------------------------------------------------------------
$ Defaults
$
 DEFINE-SYSTEM-DEFAULT ELEMENT 2 !
 DEFAULT-COM DEFINE_SYSTEM_ELEMENT VA !
 TYPE-DEF % SEQ * !
 TYPE-DEF A GES AMEND_PHASE_DESCRIPTION @ MAGNETIC -3 0.28 !
 TYPE-DEF B GES AMEND_PHASE_DESCRIPTION @ MAGNETIC -1 0.4 !
 FUNCTION ZERO      298.15  0;                                         6000 N !
 FUNCTION UN_ASS    298.15  0;                                         6000 N !
 FUNCTION R         298.15  +8.31451;                                  6000 N !
$ ------------------------------------------------------------------------------
$ Element data
$ ------------------------------------------------------------------------------
$ Al
$
$ BCT_A5 and DIAMOND_A4 added in unary 3.0
$
 PAR  G(FCC_A1,AL:VA),,                 +GHSERAL;                2900 N 91Din !
 PAR  G(BCC_A2,AL:VA),,                 +GHSERAL+10083-4.813*T;  2900 N 91Din !
 PAR  G(HCP_A3,AL:VA),,                 +GHSERAL+5481-1.8*T;     2900 N 91Din !
$PAR  G(CBCC_A12,AL:VA),,               +GHSERAL
$            +10083.4-4.813*T;                                   2900 N 91Din !
$PAR  G(CUB_A13,AL:VA),,                +GHSERAL
$            +10920.44-4.8116*T;                                 2900 N 91Din !
$PAR  G(BCT_A5,AL),,                    +GHSERAL+10083-4.813*T;  2900 N SGCOST !
$PAR  G(DIAMOND_A4,AL),,                +GHSERAL+30*T;           2900 N SGCOST !
 PAR  G(LIQUID,AL),,                    +GLIQAL;                 2900 N 91Din !
$
 PAR  G(C15_LAVES,AL:AL),,              +3*GHSERAL+15000;,,           N REFLAV !
$
 FUNCTION GHSERAL   298.15  -7976.15+137.093038*T-24.3671976*T*LN(T)
       -0.001884662*T**2-8.77664E-07*T**3+74092*T**(-1);
       700.00  Y  -11276.24+223.048446*T-38.5844296*T*LN(T)
       +0.018531982*T**2 -5.764227E-06*T**3+74092*T**(-1);
       933.47  Y  -11278.361+188.684136*T-31.748192*T*LN(T)
       -1.230622E+28*T**(-9);
      2900.00  N !
 FUNCTION GLIQAL    298.15  +11005.045-11.84185*T+GHSERAL+7.9337E-20*T**7;
       933.47  Y  -795.991+177.430209*T-31.748192*T*LN(T);
      2900.00  N !
 FUNCTION GBCCAL    298.15  +GHSERAL+10083-4.813*T;                    2900 N !
$ ------------------------------------------------------------------------------
$ Dy
$
$ HCP_A3, BCC_A2 and LIQUID revised in unary 3.0
$
$ FCC_A1 from 03Cac not included in unary (but it should be)
$
 PAR  G(HCP_A3,DY:VA)           100.00  +GHSERDY;                3000 N 95She1 !
 PAR  TC(HCP_A3,DY:VA)          100.00    179;                   3000 N 95She1 !
 PAR  BM(HCP_A3,DY:VA)          100.00      3.0;                 3000 N 95She1 !
 PAR  G(BCC_A2,DY:VA)           100.00  +GBCCDY;                 3000 N 95She1 !
 PAR  G(FCC_A1,DY:VA)           100.00  +GHSERDY
             +1300-0.6651608*T;                                  3000 N 03Cac !
 PAR  G(LIQUID,DY)              100.00  +GLIQDY;                 3000 N 95She1 !
$
 PAR  G(C15_LAVES,DY:DY),,              +3*GHSERDY+15000;,,           N REFLAV !
$
 FUNCTION GHSERDY   100.00  -7937.16586+102.307412*T-26.3917167*T*LN(T)
       -7.61683657E-04*T**2-5.86914125E-07*T**3+4010.90565*T**(-1);
      1000.00  Y  -13733.328+214.012934*T-43.8283359*T*LN(T)
       +0.0166909801*T**2-3.49702836E-06*T**3+0.0173619874*T**(-1);
      1654.15  Y  -404681.371+2032.1415*T-272.123952*T*LN(T)
       +0.0578301681*T**2-2.76169148E-06*T**3+1.09616238E+08*T**(-1);
      3000.00  N !
 FUNCTION GBCCDY    100.00  +1508.1802-0.566616181*T+GHSERDY;
      1000.00  Y  +327500.062-2868.04585*T+391.515418*T*LN(T)
       -0.224042148*T**2+2.04076075E-05*T**3-48652656.5*T**(-1);
      1654.15  Y  -33708.7949+291.409631*T-50.208*T*LN(T);
      1685.15  Y  -40775.4966+330.318068*T-55.2811171*T*LN(T)
       +0.0015254673*T**2-7.7437116E-08*T**3+1776589.32*T**(-1);
      3000.00  N !
 FUNCTION GLIQDY    100.00  +13196.6185-7.5443643*T+GHSERDY;
      1000.00  Y  +300126.971-2519.78614*T+341.302578*T*LN(T)
       -0.196153225*T**2+1.76197799E-05*T**3-43071677.5*T**(-1);
      1685.15  Y  -21864.7344+282.205014*T-49.9151*T*LN(T);
      3000.00  N !
$ ------------------------------------------------------------------------------
$ Binary system
$
$ H. Bo, L. Liu, X. Xiong, Z. Jin, Chin. Sci. Bull., 59, 1738-46(2014).
$
$ Checked at 6000 K.
$
$ I don't have a pdf of this paper, but the parameter table is available as
$ supplemental material.
$
$ The phase diagram is fairly similar to 03Cac, but with much less temperature
$ dependence and no inverse miscibility gap.
$
 PAR  L(LIQUID,AL,DY;0),,               -127000+21*T;,,               N 14Bo !
 PAR  L(LIQUID,AL,DY;1),,               -32000;,,                     N 14Bo !
 PAR  L(LIQUID,AL,DY;2),,               +9000;,,                      N 14Bo !
$
 PAR  L(FCC_A1,AL,DY:VA;0),,            +ZERO;,,                      N 14Bo !
 PAR  L(BCC_A2,AL,DY:VA;0),,            -47260;,,                     N 14Bo !
 PAR  L(HCP_A3,AL,DY:VA;0),,            +ZERO;,,                      N 14Bo !
$
 PAR  G(AL3DY_D024,AL:DY),,             +3*GHSERAL+GHSERDY
             -169402+28.37*T;,,                                       N 14Bo !
 PAR  G(AL3DY_HT,AL:DY),,               +3*GHSERAL+GHSERDY
             -150000+13.19*T;,,                                       N 14Bo !
$
 PAR  G(C15_LAVES,AL:DY),,              +2*GHSERAL+GHSERDY
             -151835+21.16*T;,,                                       N 14Bo !
 PAR  G(C15_LAVES,DY:AL),,              +2*GHSERDY+GHSERAL
             +181835-21.16*T;,,                                       N 14Bo !
$
 PAR  G(ALDY,AL:DY),,                   +GHSERAL+GHSERDY
             -82711+10.35*T;,,                                        N 14Bo !
 PAR  G(AL2DY3,AL:DY),,                 +2*GHSERAL+3*GHSERDY
             -171000+18.9*T;,,                                        N 14Bo !
 PAR  G(ALDY2_C37,AL:DY),,              +GHSERAL+2*GHSERDY
             -88600+10.19*T;,,                                        N 14Bo !
$ ------------------------------------------------------------------------------
$
 ASSESSED_SYSTEM
   AL-DY(TDB- * +LIQUID +FCC_A1 +BCC_A2 +HCP_A3 +C15_LAVES +AL2DY3 +AL3DY_D024
   +AL3DY_HT +ALDY +ALDY2_C37 ;P3 *) !
$
$
 LIST-OF-REFERENCE
 NUMBER  SOURCE
  Null   'Unknown source'
  COST   'COST 507 database'
  REFLAV 'Laves phase convention: G(LAVES,X:X)=+3*GHSERXX+15000'
  SGCOST 'COST 507 database, SGTE unary database V.3.0, 1996; Al, B, Nd, Ti, Zn'
  91Din  'A.T. Dinsdale, Calphad, 15, 317-425(1991).'
  95She1 'H. Shen, W. Zhang, G. Liu, R. Wang, Z. Du, Report F-95-01,
          University of Science and Technology, Beijing, May 1995,
          SGTE unary database V.3.0, 1996; Dy'
  98Sac  'A. Saccone, G. Cacciamani, D. Maccio, G. Borzone, R. Ferro,
          Intermetallics, 6, 201-15(1998); Al'
  01Yin  'F. Yin, X. Su, Z. Li, P. Zhang,
          Z. Metallkd., 92, 447-50(2001); Al'
  03Cac  'G. Cacciamani, S. De Negri, A. Saccone, R. Ferro,
          Intermetallics, 11, 1135-51(2003); Dy, Ho, Al-Dy'
  14Bo   'H. Bo, L. Liu, X. Xiong, Z. Jin,
          Chin. Sci. Bull., 59, 1738-46(2014); Al-Dy'
!
