$
$ Database for Cu-Sm from W. Zhuang et al. 1996
$
$ W. Zhuang, Z.-Y. Qiao, S. Wei, J. Shen, J. Phase Equilib., 17, 508-21(1996).
$
$ Dataset created 2017.11.26 by Bengt Hallstedt.
$
$ Cu is not included in rhomb-C19 or bcc and Sm is not included in fcc in the
$ paper.
$
$ With the new unary data for hcp-Sm in the unary database hcp-Sm is stable
$ between 1000 and 1190 K.
$
$ Invariant equilibria are shifted by up to 2 K from rounding errors from
$ fractional compositions.
$
$ ------------------------------------------------------------------------------
 TEMP-LIM 298.15 6000.00 !
$
$ELEMENT NAME  REF. STATE               ATOMIC MASS H298-H0    S298    !
$
 ELEMENT VA   VACUUM                      0.0          0.0      0.0    ! 
 ELEMENT CU   FCC_A1                     63.546     5004.      33.15   !
 ELEMENT SM   RHOMB_C19                 150.36      7573.04    69.4962 ! 
$ ------------------------------------------------------------------------------
$ Phase definitions
$
 PHASE LIQUID:L % 1 1 !
 CONST LIQUID:L : CU SM : !
$
$ Fcc (cF4, Fm-3m) and MeX (cF8, Fm-3m)
$
 PHASE FCC_A1 %A 2 1 1 !
 CONST FCC_A1 : CU : VA : !
$
$ Bcc (cI2, Im-3m)
$
 PHASE BCC_A2 %B 2 1 3 !
 CONST BCC_A2 : CU SM% : VA : !
$
$ Hcp (hP2, P6_3/mmc) and Me2X (NiAs-type, hP4, P6_3/mmc, B8_1)
$
 PHASE HCP_A3 %A 2 1 0.5 !
 CONST HCP_A3 : CU SM : VA : !
$
$ Prototype alpha-Sm (hR9, R-3m)
$
 PHASE RHOMB_C19 % 1 1 !
 CONST RHOMB_C19 : SM : !
$
$ Prototype CeCu6 (oP28, Pnma)
$
 PHASE CU6SM % 2 6 1 !
 CONST CU6SM : CU : SM : !
$
$ Prototype CaCu5 (hP6, P6/mmm)
$
 PHASE CU5SM_D2D % 2 5 1 !
 CONST CU5SM_D2D : CU : SM : !
$
$ unknown structure
$
 PHASE CU4SM % 2 4 1 !
 CONST CU4SM : CU : SM : !
$
$ Prototype Hg2K (oI12, Imma)
$
 PHASE CU2SM % 2 2 1 !
 CONST CU2SM : CU : SM : !
$
$ Prototype FeB (oP8, Pnma, lt) and CsCl (cP2, Pm-3m)
$
 PHASE CUSM % 2 1 1 !
 CONST CUSM : CU : SM : !
$ ------------------------------------------------------------------------------
$ Defaults
$
 DEFINE-SYSTEM-DEFAULT ELEMENT 2 !
 DEFAULT-COM DEFINE_SYSTEM_ELEMENT VA !
 TYPE-DEF % SEQ * !
 TYPE-DEF A GES AMEND_PHASE_DESCRIPTION @ MAGNETIC -3 0.28 !
 TYPE-DEF B GES AMEND_PHASE_DESCRIPTION @ MAGNETIC -1 0.4 !
 FUNCTION ZERO      298.15  0;                                         6000 N !
 FUNCTION UN_ASS    298.15  0;                                         6000 N !
 FUNCTION R         298.15  +8.31451;                                  6000 N !
$ ------------------------------------------------------------------------------
$ Element data
$ ------------------------------------------------------------------------------
$ Cu
$
 PAR  G(FCC_A1,CU:VA),,                 +GHSERCU;                3200 N 91Din !
 PAR  G(BCC_A2,CU:VA),,                 +GHSERCU+4017-1.255*T;   3200 N 91Din !
 PAR  G(HCP_A3,CU:VA),,                 +GHSERCU+600+0.2*T;      3200 N 91Din !
 PAR  G(LIQUID,CU),,                    +GLIQCU;                 3200 N 91Din !
$
 FUNCTION GHSERCU   298.15  -7770.458+130.485235*T-24.112392*T*LN(T)
       -0.00265684*T**2+1.29223E-07*T**3+52478*T**(-1);
      1357.77  Y  -13542.026+183.803828*T-31.38*T*LN(T)+3.64167E+29*T**(-9);
      3200.00  N !
 FUNCTION GLIQCU    298.15  +12964.735-9.511904*T+GHSERCU-5.8489E-21*T**7;
      1357.77  Y  -46.545+173.881484*T-31.38*T*LN(T);
      3200.00  N !
$ ------------------------------------------------------------------------------
$ Sm
$
$ HCP_A3 added in unary 4.4
$ HCP_A3 modified in unary 5.0
$
$ FCC_A1 from 00Du1 (used in SGSOL 5.0; this value is absurd)
$ not included in unary
$ FCC_A1 from 02Zin not included in unary
$ FCC_A1, CBCC_A12, CUB_A13 from 09Wan1 not included in unary
$
 PAR  G(RHOMB_C19,SM),,                 +GHSERSM;                2100 N 91Din !
 PAR  G(BCC_A2,SM:VA),,                 +GBCCSM;                 2100 N 91Din !
$PAR  G(FCC_A1,SM:VA),,                 +GHSERSM+180946;         2100 N 00Du1 !
$PAR  G(FCC_A1,SM:VA),,                 +GHSERSM+5000;           2100 N 98Su1 !
$PAR  G(FCC_A1,SM:VA),,                 +GHSERSM+1000;           2100 N 09Wan1 !
 PAR  G(HCP_A3,SM:VA),,                 +GHSERSM
             +69.977-0.069491*T;                                 2100 N 98Su2 !
$PAR  G(CBCC_A12,SM:VA),,               +GHSERSM+1000;           2100 N 09Wan1 !
$PAR  G(CUB_A13,SM:VA),,                +GHSERSM+5000;           2100 N 09Wan1 !
 PAR  G(LIQUID,SM),,                    +GLIQSM;                 2100 N 91Din !
$
 FUNCTION GHSERSM   298.15  -3872.013-32.10748*T-1.6485*T*LN(T)
       -0.050254*T**2+1.010345E-05*T**3-82168*T**(-1);
       700.00  Y  -50078.215+627.869894*T-102.665*T*LN(T)
       +0.0474522*T**2-7.538383E-06*T**3+3861770*T**(-1);
      1190.00  Y  +289719.819-2744.50976*T+381.41982*T*LN(T)
       -0.254986338*T**2+2.7512152E-05*T**3-40102102*T**(-1);
      1345.00  Y  -23056.079+282.194375*T-50.208*T*LN(T);
      2100.00  N !
 FUNCTION GBCCSM    298.15  -4368.72+55.972523*T-16.9298494*T*LN(T)
       -0.025446016*T**2+3.579527E-06*T**3+94209*T**(-1);
      1190.00  Y  -15957.862+253.121044*T-46.9445*T*LN(T);
      1345.00  Y  +111191.653-624.680805*T+71.6856914*T*LN(T)
       -0.047314968*T**2+3.329865E-06*T**3-24870276*T**(-1);
      2100.00  N !
 FUNCTION GLIQSM    298.15  +3468.783+20.117456*T-11.6968284*T*LN(T)
       -0.032418177*T**2+4.544272E-06*T**3+23528*T**(-1);
      1190.00  Y  -11728.229+273.487076*T-50.208*T*LN(T);
      2100.00  N !
$ ------------------------------------------------------------------------------
$ Binary system
$
$ W. Zhuang, Z.-Y. Qiao, S. Wei, J. Shen, J. Phase Equilib., 17, 508-21(1996).
$
$ Checked against paper. Checked at 6000K.
$
$ Cu is not included in rhomb-C19 or bcc and Sm is not included in fcc in the
$ paper.
$
$ With the new unary data for hcp-Sm in the unary database hcp-Sm is stable
$ between 1000 and 1190 K.
$
$ Invariant equilibria are shifted by up to 2 K from rounding errors from
$ fractional compositions.
$
 PAR  L(LIQUID,CU,SM;0),,               -75873+7.59*T;,,              N 96Zhu !
 PAR  L(LIQUID,CU,SM;1),,               -28692+2.87*T;,,              N 96Zhu !
$
 PAR  L(BCC_A2,CU,SM:VA;0),,            +UN_ASS;,,                    N !
 PAR  L(HCP_A3,CU,SM:VA;0),,            +30000;,,                     N 16SOL !
$
 PAR  G(CU6SM,CU:SM),,                  +6*GHSERCU+GHSERSM
             -95529+0.77*T;,,                                         N 96Zhu !
 PAR  G(CU5SM_D2D,CU:SM),,              +5*GHSERCU+GHSERSM
             -90156+0.96*T;,,                                         N 96Zhu !
 PAR  G(CU4SM,CU:SM),,                  +4*GHSERCU+GHSERSM
             -82990+1.2*T;,,                                          N 96Zhu !
 PAR  G(CU2SM,CU:SM),,                  +2*GHSERCU+GHSERSM
             -63393+0.78*T;,,                                         N 96Zhu !
 PAR  G(CUSM,CU:SM),,                   +GHSERCU+GHSERSM
             -41710+0.54*T;,,                                         N 96Zhu !
$ ------------------------------------------------------------------------------
$
$
 LIST-OF-REFERENCE
 NUMBER  SOURCE
  Null   'Unknown source'
  COST   'COST 507 database'
  91Din  'A.T. Dinsdale, Calphad, 15, 317-425(1991).'
  96Zhu  'W. Zhuang, Z.-Y. Qiao, S. Wei, J. Shen,
          J. Phase Equilib., 17, 508-21(1996); Cu-Sm'
  98Su1  'X. Su, W. Zhang, G. Liu, Z. Du,
          J. Alloys Compd., 267, 149-53(1998); Sm'
  98Su2  'X. Su, W. Zhang, Z. Du, J. Alloys Compd., 278, 182-84(1998)
          SGTE unary database V.4.4, 2001; Sm'
  00Du1  'Z. Du, H. Yang, Z. Metallkd., 91 455-59(2000); Pd, Sm'
  09Wan1 'C.P. Wang, H.L. Zhang, S.L. Wang, Z. Lin, X.J. Liu, A.T. Tang,
          F.S. Pan, J. Alloys Compd., 481, 291-95(2009); Ho, Mn, Sm'
  16SOL  'SGTE Solution database, hcp stability reduced, 2016; Cu-Sm'
!
