$
$ Database for Mn-Y from H. Ye et al. 2024.
$
$ H. Ye, J. Wang, Q. Chen, G. Rao, H. Zhou,
$ Mater. Genome Eng. Adv., 2, 39(2024).
$
$ Dataset created 2024.07.24 by Bengt Hallstedt.
$
$ This dataset has several problems.
$
$ There is a misprint for Mn12Y which could be corrected.
$
$ Mn2Y is not stable between 668 and 892 K. As a compensation it is stable
$ above 2622 K.
$
$ The L = Mn23Y6 + Mn2Y eutectic is at 1358 K instead of 1370 K and the
$ L = Mn2Y + hcp-Y eutectic is at 1149 K instead of 1152 K. There seems to be
$ more than one misprint in the Mn2Y function.
$
$ ------------------------------------------------------------------------------
 TEMP-LIM 298.15 6000.00 !
$
$ELEMENT NAME  REF. STATE               ATOMIC MASS H298-H0    S298    !
$
 ELEMENT VA   VACUUM                      0.0          0.0      0.0    ! 
 ELEMENT MN   CBCC_A12                   54.9380    4995.696   32.2206 ! 
 ELEMENT Y    HCP_A3                     88.9059    5983.457   44.7875 ! 
$ ------------------------------------------------------------------------------
$ Phase definitions
$
 PHASE LIQUID:L % 1 1 !
 CONST LIQUID:L : MN Y : !
$
$ Fcc (cF4, Fm-3m) and MeX (cF8, Fm-3m)
$
 PHASE FCC_A1 %A 2 1 1 !
 CONST FCC_A1 : MN% Y : VA : !
$
$ Bcc (cI2, Im-3m)
$
 PHASE BCC_A2 %B 2 1 1.5 !
 CONST BCC_A2 : MN% Y% : VA : !
$
$ Hcp (hP2, P6_3/mmc) and Me2X (NiAs-type, hP4, P6_3/mmc, B8_1)
$
 PHASE HCP_A3 % 2 1 0.5 !
 CONST HCP_A3 : MN Y% : VA : !
$
$ Prototype alpha-Mn (cI58, I-43m)
$
 PHASE CBCC_A12 %A 2 1 1 !
 CONST CBCC_A12 : MN : VA : !
$
$ Prototype beta-Mn (cP20, P4_132)
$
 PHASE CUB_A13 % 2 1 1 !
 CONST CUB_A13 : MN : VA : !
$
$ Prototype Mn12Th (tI26, I4/mmm)
$
 PHASE MN12Y_D2B % 2 12 1 !
 CONST MN12Y_D2B : MN : Y : !
$
$ Prototype Mn23Th6 (cF116, Fm-3m)
$
 PHASE MN23Y6_D8A %A 2 23 6 !
 CONST MN23Y6_D8A : MN : Y : !
$
$ Prototype Cu2Mg (cF24, Fd-3m)
$
 PHASE MN2Y_C15 %A 2 2 1 !
 CONST MN2Y_C15 : MN : Y : !
$ ------------------------------------------------------------------------------
$ Defaults
$
 DEFINE-SYSTEM-DEFAULT ELEMENT 2 !
 DEFAULT-COM DEFINE_SYSTEM_ELEMENT VA !
 TYPE-DEF % SEQ * !
 TYPE-DEF B GES AMEND_PHASE_DESCRIPTION @ MAGNETIC -1 0.4 !
 TYPE-DEF A GES AMEND_PHASE_DESCRIPTION @ MAGNETIC -3 0.28 !
 FUNCTION ZERO      298.15  0;                                         6000 N !
 FUNCTION UN_ASS    298.15  0;                                         6000 N !
 FUNCTION R         298.15  +8.31451;                                  6000 N !
 FUNCTION RTLNP     298.15  +8.31451*T*LN(1E-05*P);                    6000 N !
$ ------------------------------------------------------------------------------
$ Element data
$ ------------------------------------------------------------------------------
$ Mn
$
 PAR  G(CBCC_A12,MN:VA),,               +GHSERMN;                2000 N 91Din !
 PAR  TC(CBCC_A12,MN:VA),,               -285.00;                2000 N 91Din !
 PAR  BM(CBCC_A12,MN:VA),,                 -0.66;                2000 N 91Din !
 PAR  G(CUB_A13,MN:VA),,                +GCUBMN;                 2000 N 91Din !
 PAR  G(FCC_A1,MN:VA),,                 +GFCCMN;                 2000 N 91Din !
 PAR  TC(FCC_A1,MN:VA),,                -1620.00;                2000 N 91Din !
 PAR  BM(FCC_A1,MN:VA),,                   -1.86;                2000 N 91Din !
 PAR  G(BCC_A2,MN:VA),,                 +GBCCMN;                 2000 N 91Din !
 PAR  TC(BCC_A2,MN:VA),,                 -580.00;                2000 N 91Din !
 PAR  BM(BCC_A2,MN:VA),,                   -0.27;                2000 N 91Din !
 PAR  G(HCP_A3,MN:VA),,                 +GHCPMN;                 2000 N 91Din !
 PAR  TC(HCP_A3,MN:VA),,                -1620.00;                2000 N 91Din !
 PAR  BM(HCP_A3,MN:VA),,                   -1.86;                2000 N 91Din !
 PAR  G(LIQUID,MN),,                    +GLIQMN;                 2000 N 91Din !
$
 FUNCTION GHSERMN   298.15  -8115.28+130.059*T-23.4582*T*LN(T)
       -0.00734768*T**2+69827*T**(-1);
      1519.00  Y  -28733.41+312.2648*T-48*T*LN(T)+1.656847E+30*T**(-9);
      2000.00  N !
 FUNCTION GCUBMN    298.15  -5800.4+135.995*T-24.8785*T*LN(T)
       -0.00583359*T**2+70269*T**(-1);
      1519.00  Y  +442.65-0.9715*T+GHSERMN+2.310723E+30*T**(-9);
      2000.00  N !
 FUNCTION GFCCMN    298.15  -3439.3+131.884*T-24.5177*T*LN(T)
       -0.006*T**2+69600*T**(-1);
      1519.00  Y  +2663.31-2.5984*T+GHSERMN+2.205113E+30*T**(-9);
      2000.00  N !
 FUNCTION GBCCMN    298.15  -3235.3+127.85*T-23.7*T*LN(T)
       -0.00744271*T**2+60000*T**(-1);
      1519.00  Y  +5544.58-4.5605*T+GHSERMN-3.91695E+29*T**(-9);
      2000.00  N !
 FUNCTION GHCPMN    298.15  -4439.3+133.007*T-24.5177*T*LN(T)
       -0.006*T**2+69600*T**(-1);
      1519.00  Y  +1663.31-1.4754*T+GHSERMN+2.205113E+30*T**(-9);
      2000.00  N !
 FUNCTION GLIQMN    298.15  +17859.91-12.6208*T+GHSERMN-4.41929E-21*T**7;
      1519.00  Y  -9993.9+299.036*T-48*T*LN(T);
      2000.00  N !
$ ------------------------------------------------------------------------------
$ Y
$
$ HCP_A3, BCC_A2 and LIQUID revised in unary 3.0
$ FCC_A1 added in unary 4.1
$
 PAR  G(HCP_A3,Y:VA)            100.00  +GHSERYY;                3700 N 95She3 !
 PAR  G(BCC_A2,Y:VA)            100.00  +GBCCYY;                 3700 N 95She3 !
 PAR  G(FCC_A1,Y:VA)            100.00  +GHSERYY+6000;           3700 N Frie2 !
 PAR  G(LIQUID,Y)               100.00  +GLIQYY;                 3700 N 95She3 !
$
 FUNCTION GHSERYY   100.00  -8011.09379+128.572856*T-25.6656992*T*LN(T)
       -0.00175716414*T**2-4.17561786E-07*T**3+26911.509*T**(-1);
      1000.00  Y  -7179.74574+114.497104*T-23.4941827*T*LN(T)
       -0.0038211802*T**2-8.2534534E-08*T**3;
      1795.15  Y  -67480.7761+382.124727*T-56.9527111*T*LN(T)
       +0.00231774379*T**2-7.22513088E-08*T**3+18077162.6*T**(-1);
      3700.00  N !
 FUNCTION GBCCYY    100.00  -833.658863+123.667346*T-25.5832578*T*LN(T)
       -0.00237175965*T**2+9.10372497E-09*T**3+27340.0687*T**(-1);
      1000.00  Y  -1297.79829+134.528352*T-27.3038477*T*LN(T)
       -5.41757644E-04*T**2-3.05012175E-07*T**3;
      1795.15  Y  +15389.4975+0.981325399*T-8.88296647*T*LN(T)
       -0.00904576576*T**2+4.02944768E-07*T**3-2542575.96*T**(-1);
      3700.00  N !
 FUNCTION GLIQYY    100.00  +2098.50738+119.41873*T-24.6467508*T*LN(T)
       -0.00347023463*T**2-8.12981167E-07*T**3+23713.7332*T**(-1);
      1000.00  Y  +7386.44846+19.4520171*T-9.0681627*T*LN(T)
       -0.0189533369*T**2+1.7595327E-06*T**3;
      1795.15  Y  -12976.5957+257.400783*T-43.0952*T*LN(T);
      3700.00  N !
$ ------------------------------------------------------------------------------
$ Binary system
$
$ H. Ye, J. Wang, Q. Chen, G. Rao, H. Zhou,
$ Mater. Genome Eng. Adv., 2, 39(2024).
$
$ Checked against paper. Checked at 6000 K.
$
$ This dataset has several problems.
$
$ There is a misprint for Mn12Y which could be corrected.
$
$ Mn2Y is not stable between 668 and 892 K. As a compensation it is stable
$ above 2622 K.
$
$ The L = Mn23Y6 + Mn2Y eutectic is at 1358 K instead of 1370 K and the
$ L = Mn2Y + hcp-Y eutectic is at 1149 K instead of 1152 K. There seems to be
$ more than one misprint in the Mn2Y function.
$
 PAR  L(LIQUID,MN,Y;0),,                -6700-2.5*T;,,                N 24Ye !
 PAR  L(LIQUID,MN,Y;1),,                -5100-2.1*T;,,                N 24Ye !
 PAR  L(LIQUID,MN,Y;2),,                -3100;,,                      N 24Ye !
$
 PAR  L(FCC_A1,MN,Y:VA;0),,             +80000;,,                     N Same !
 PAR  L(BCC_A2,MN,Y:VA;0),,             +50000;,,                     N 24Ye !
 PAR  L(HCP_A3,MN,Y:VA;0),,             +80000;,,                     N 24Ye !
$
 PAR  G(MN12Y_D2B,MN:Y),,               +13*GMN12Y;,,                 N 24Ye !
$
 PAR  G(MN23Y6_D8A,MN:Y),,              +23*GHSERMN+6*GHSERYY
             -123250-71.978*T;,,                                      N 24Ye !
 PAR  TC(MN23Y6_D8A,MN:Y),,               486.00;,,                   N 24Ye !
$ 1 mole of atoms below
$PAR  BMAG(MN23Y6_D8A,MN:Y),,               0.096;,,                  N 24Ye !
 PAR  BMAG(MN23Y6_D8A,MN:Y),,              13.273;,,                  N 24Ye !
$
 PAR  G(MN2Y_C15,MN:Y),,                +3*GMN2Y;,,                   N 24Ye !
 PAR  TC(MN2Y_C15,MN:Y),,                -300.00;,,                   N 24Ye !
$ 1 mole of atoms below
$PAR  BMAG(MN2Y_C15,MN:Y),,                -2.700;,,                  N 24Ye !
 PAR  BMAG(MN2Y_C15,MN:Y),,               -49.653;,,                  N 24Ye !
$
$ Misprinted function below
$FUNCTION GMN12Y    298.15  -12207-1.336*T-0.0066*T**2+EGMN12Y;        6000 N !
 FUNCTION GMN12Y    298.15  -10243-1.336*T-0.0066*T**2+EGMN12Y;        6000 N !
 FUNCTION TGMN12Y   298.15  +265;                                      6000 N !
 FUNCTION FGMN12Y   298.15  +1-EXP(-TGMN12Y*T**(-1));                  6000 N !
 FUNCTION EGMN12Y   298.15  +12.471765*TGMN12Y+24.94353*T*LN(FGMN12Y); 6000 N !
$
 FUNCTION GMN2Y     298.15  -16060+2.625*T-0.012*T**2+EGMN2Y;          6000 N !
 FUNCTION TGMN2Y    298.15  +280;                                      6000 N !
 FUNCTION FGMN2Y    298.15  +1-EXP(-TGMN2Y*T**(-1));                   6000 N !
 FUNCTION EGMN2Y    298.15  +12.471765*TGMN2Y+24.94353*T*LN(FGMN2Y);   6000 N !
$ ------------------------------------------------------------------------------
$
 ASSESSED_SYSTEM
  MN-Y(TDB -* +LIQUID +BCC_A2 +CBCC_A12 +CUB_A13 +FCC_A1 +HCP_A3 +MN12Y_D2B
  +MN23Y6_D8A +MN2Y_C15  ;G5 MAJ:FCC_A1/MN:VA
  ;P3 TMM:300/2000 STP:0.8/1400/1) !
$
$
 LIST-OF-REFERENCE
 NUMBER  SOURCE
  Null   'Unknown source'
  Same   'Same or similar interaction as in the corresponding stable phase'
  COST   'COST 507 database'
  Frie2  'Suzana Fries and Leo Lukas, unpublished,
          SGTE unary database V.4.1, 1999; Y'
  91Din  'A.T. Dinsdale, Calphad, 15, 317-425(1991).'
  95She3 'H. Shen, W. Zhang, G. Liu, R. Wang, Z. Du, Report F-95-03,
          University of Science and Technology, Beijing, May 1995,
          SGTE unary database V.3.0, 1996; Y'
  24Ye   'H. Ye, J. Wang, Q. Chen, G. Rao, H. Zhou,
          Mater. Genome Eng. Adv., 2, 39(2024); Mn-Y'
!
