$
$ Database for Fe-Pd from G. Ghosh et al. 1999 (included in LB Vol. 3)
$
$ G. Ghosh, C. Kantner, G.B. Olson, J. Phase Equilib., 20, 295-308(1999).
$
$ Dataset created 2015.06.06 by Bengt Hallstedt.
$ 2021.01.02: Modified for use with GES6.
$ 2024.09.23: Removed duplicate parameters.
$
$ FEPD_L10 is named B2_FEPD in LB.
$
$ There is a magnetic miscibility gap in FEPD3_L12 below 425 K (not noticed
$ in previous calculations).
$
$ ------------------------------------------------------------------------------
 TEMP-LIM 298.15 6000.00 !
$
$ELEMENT NAME  REF. STATE               ATOMIC MASS H298-H0    S298    !
$
 ELEMENT VA   VACUUM                      0.0          0.0      0.0    ! 
 ELEMENT FE   BCC_A2                     55.847     4489.0     27.2797 ! 
 ELEMENT PD   FCC_A1                    106.42      5468.488   37.8234 ! 
$ ------------------------------------------------------------------------------
$ Phase definitions
$
 PHASE LIQUID:L % 1 1 !
 CONST LIQUID:L : FE PD : !
$
$ Fcc (cF4, Fm-3m) and MeX (cF8, Fm-3m)
$
 PHASE FCC_A1 %A 2 1 1 !
 CONST FCC_A1 : FE% PD% : VA : !
$
$ Bcc (cI2, Im-3m)
$
 PHASE BCC_A2 %B 2 1 3 !
 CONST BCC_A2 : FE% PD : VA : !
$
$ Hcp (hP2, P6_3/mmc) and Me2X (NiAs-type, hP4, P6_3/mmc, B8_1)
$
 PHASE HCP_A3 %A 2 1 0.5 !
 CONST HCP_A3 : FE PD : VA : !
$
$ Prototype AuCu (tP2, P4/mmm)
$
 PHASE FEPD_L10 %A 2 0.5 0.5 !
 CONST FEPD_L10 : FE% PD : FE PD% : !
$
$ Prototype AuCu3 (cP4, Pm-3m)
$
 PHASE FEPD3_L12 %A 2 0.25 0.75 !
 CONST FEPD3_L12 : FE% PD : FE PD% : !
$ ------------------------------------------------------------------------------
$ Defaults
$
 DEFINE-SYSTEM-DEFAULT ELEMENT 2 !
 DEFAULT-COM DEFINE_SYSTEM_ELEMENT VA !
 TYPE-DEFINITION % SEQ * !
 TYPE_DEF A GES AMEND_PHASE_DESCRIPTION @ MAGNETIC -3 0.28 !
 TYPE_DEF B GES AMEND_PHASE_DESCRIPTION @ MAGNETIC -1 0.4 !
 FUNCTION ZERO      298.15  0;                                         6000 N !
 FUNCTION UN_ASS    298.15  0;                                         6000 N !
 FUNCTION R         298.15  +8.31451;                                  6000 N !
$ ------------------------------------------------------------------------------
$ Element data
$ ------------------------------------------------------------------------------
$ Fe
$
$ ORTHORHOMBIC_A20 and TETRAGONAL_U added im unary 4.1
$
$ RHOMB_C19 from 02Zin not included in unary
$
 PAR  G(BCC_A2,FE:VA),,                 +GHSERFE;,,                   N 91Din !
 PAR  TC(BCC_A2,FE:VA),,                 1043.00;,,                   N 91Din !
 PAR  BM(BCC_A2,FE:VA),,                    2.22;,,                   N 91Din !
 PAR  G(FCC_A1,FE:VA),,                 +GFCCFE;,,                    N 91Din !
 PAR  TC(FCC_A1,FE:VA),,                 -201.00;,,                   N 91Din !
 PAR  BM(FCC_A1,FE:VA),,                   -2.10;,,                   N 91Din !
 PAR  G(HCP_A3,FE:VA),,                 +GHCPFE;,,                    N 91Din !
$PAR  G(CBCC_A12,FE:VA),,               +GHSERFE+4745;,,              N 91Din !
$PAR  G(CUB_A13,FE:VA),,                +GHSERFE+3745;,,              N 91Din !
$PAR  G(ORTHORHOMBIC_A20,FE),,          +GHSERFE+5000;,,              N 99SGUN !
$PAR  G(TETRAGONAL_U,FE),,              +GHSERFE+5000;,,              N 99SGUN !
$PAR  G(RHOMB_C19,FE),,                 +GHSERFE+5000;,,              N 02Zin !
 PAR  G(LIQUID,FE),,                    +GLIQFE;,,                    N 91Din !
$
 PAR  G(FEPD_L10,FE:FE),,               +GHSERFE+10000;,,             N 99Gho !
 PAR  TC(FEPD_L10,FE:FE),,                 67.00;,,                   N 99Gho !
 PAR  BM(FEPD_L10,FE:FE),,                  0.7;,,                    N 99Gho !
 PAR  G(FEPD3_L12,FE:FE),,              +GFCCFE;,,                    N 99Gho !
 PAR  TC(FEPD3_L12,FE:FE),,                67.00;,,                   N 99Gho !
 PAR  BM(FEPD3_L12,FE:FE),,                 0.7;,,                    N 99Gho !
$
 FUNCTION GHSERFE   298.15  +1225.7+124.134*T-23.5143*T*LN(T)
       -0.00439752*T**2-5.8927E-08*T**3+77359*T**(-1);
      1811.00  Y  -25383.581+299.31255*T-46*T*LN(T)+2.29603E+31*T**(-9);
      6000.00  N !
 FUNCTION GFCCFE    298.15  -1462.4+8.282*T-1.15*T*LN(T)
       +6.4E-04*T**2+GHSERFE;
      1811.00  Y  -1713.815+0.940009*T+GHSERFE+4.9251E+30*T**(-9);
      6000.00  N !
 FUNCTION GHCPFE    298.15  -3705.78+12.591*T-1.15*T*LN(T)
       +6.4E-04*T**2+GHSERFE;
      1811.00  Y  -3957.195+5.249009*T+GHSERFE+4.9251E+30*T**(-9);
      6000.00  N !
 FUNCTION GLIQFE    298.15  +12040.17-6.55843*T+GHSERFE-3.67516E-21*T**7;
      1811.00  Y  -10838.83+291.302*T-46*T*LN(T);
      6000.00  N !
$ ------------------------------------------------------------------------------
$ Pd
$
$ RHOMBOHEDRAL_A7 added in unary 5.0
$
 PAR  G(FCC_A1,PD:VA),,                 +GHSERPD;                4000 N 91Din !
 PAR  G(BCC_A2,PD:VA),,                 +GHSERPD+10500-1.8*T;    4000 N 91Din !
 PAR  G(HCP_A3,PD:VA),,                 +GHSERPD+2000+0.1*T;     4000 N 91Din !
$PAR  G(RHOMBOHEDRAL_A7,PD),,           +GHSERPD+4000;           4000 N 06Vre !
 PAR  G(LIQUID,PD),,                    +GLIQPD;                 4000 N 91Din !
$
 PAR  G(FEPD_L10,PD:PD),,               +GHSERPD+2000;           4000 N 99Gho !
 PAR  G(FEPD3_L12,PD:PD),,              +GHSERPD;                4000 N 99Gho !
$
 FUNCTION GHSERPD   298.15  -10204.027+176.076315*T-32.211*T*LN(T)
       +0.007120975*T**2-1.919875E-06*T**3+168687*T**(-1);
       900.00  Y  +917.062+49.659892*T-13.5708*T*LN(T)
       -0.00717522*T**2+1.91115E-07*T**3-1112465*T**(-1);
      1828.00  Y  -67161.018+370.102147*T-54.2067086*T*LN(T)
       +0.002091396*T**2-6.2811E-08*T**3+18683526*T**(-1);
      4000.00  N !
 FUNCTION GLIQPD    298.15  +11506.758-5.112162*T+GHSERPD;
       600.00  Y  +23405.778-116.918419*T+10.8922031*T*LN(T)
       -0.027266568*T**2+2.430675E-06*T**3-1853674*T**(-1);
      1828.00  Y  -12373.637+251.416903*T-41.17*T*LN(T);
      4000.00  N !
$ ------------------------------------------------------------------------------
$ Binary system
$
$ From G. Ghosh et al. 1999 (included in LB Vol. 3)
$
$ G. Ghosh, C. Kantner, G.B. Olson, J. Phase Equilib., 20, 295-308(1999).
$
$ Checked against LB and paper. Checked at 6000 K.
$
$ FEPD_L10 is named B2_FEPD in LB.
$
$ There is a magnetic miscibility gap in FEPD3_L12 below 425 K (not noticed
$ in previous calculations).
$
 PAR  L(LIQUID,FE,PD;0),,               +10666.2262-45.9291*T;,,      N 99Gho !
 PAR  L(LIQUID,FE,PD;1),,               +5171.3739+17.9258*T;,,       N 99Gho !
$
 PAR  L(FCC_A1,FE,PD:VA;0),,            -36989.664-10.8485*T;,,       N 99Gho !
 PAR  L(FCC_A1,FE,PD:VA;1),,            +63662.7285-19.5828*T;,,      N 99Gho !
 PAR  TC(FCC_A1,FE,PD:VA;0),,           +3288.8573;,,                 N 99Gho !
 PAR  TC(FCC_A1,FE,PD:VA;1),,            +270.6573;,,                 N 99Gho !
 PAR  BM(FCC_A1,FE,PD:VA;0),,              +7.5933;,,                 N 99Gho !
 PAR  BM(FCC_A1,FE,PD:VA;1),,              -1.7957;,,                 N 99Gho !
$
 PAR  L(BCC_A2,FE,PD:VA;0),,            -38705.8678-12.987*T;,,       N 99Gho !
 PAR  L(BCC_A2,FE,PD:VA;1),,            +54410.3132-15.1683*T;,,      N 99Gho !
$
 PAR  G(FEPD_L10,FE:PD),,               +0.5*GHSERFE+0.5*GHSERPD
             -15600.1941+2.5125*T;,,                                  N 99Gho !
 PAR  TC(FEPD_L10,FE:PD),,                850.00;,,                   N 99Gho !
 PAR  BM(FEPD_L10,FE:PD),,                  0.8;,,                    N 99Gho !
 PAR  G(FEPD_L10,PD:FE),,               +0.5*GHSERPD+0.5*GHSERFE
             -15600.1941+2.5125*T;,,                                  N 99Gho !
 PAR  TC(FEPD_L10,PD:FE),,                850.00;,,                   N 99Gho !
 PAR  BM(FEPD_L10,PD:FE),,                  0.8;,,                    N 99Gho !
 PAR  L(FEPD_L10,FE,PD:FE;0),,          -6036.1203+7.8404*T;,,        N 99Gho !
 PAR  L(FEPD_L10,FE,PD:FE;1),,          +761.1389+10.2047*T;,,        N 99Gho !
 PAR  L(FEPD_L10,FE:FE,PD;0),,          -6036.1203+7.8404*T;,,        N 99Gho !
 PAR  L(FEPD_L10,FE:FE,PD;1),,          +761.1389+10.2047*T;,,        N 99Gho !
 PAR  L(FEPD_L10,FE,PD:PD;0),,          -35688.1325+4.1642*T;,,       N 99Gho !
 PAR  L(FEPD_L10,FE,PD:PD;1),,          -1692.1112-15.8677*T;,,       N 99Gho !
 PAR  L(FEPD_L10,FE,PD:PD;2),,          +2364.664-7.8803*T;,,         N 99Gho !
 PAR  L(FEPD_L10,PD:FE,PD;0),,          -35688.1325+4.1642*T;,,       N 99Gho !
 PAR  L(FEPD_L10,PD:FE,PD;1),,          -1692.1112-15.8677*T;,,       N 99Gho !
 PAR  L(FEPD_L10,PD:FE,PD;2),,          +2364.664-7.8803*T;,,         N 99Gho !
$
 PAR  G(FEPD3_L12,FE:PD),,              +0.25*GHSERFE+0.75*GHSERPD
             -21619.2689+3.2068*T;,,                                  N 99Gho !
 PAR  TC(FEPD3_L12,FE:PD),,               536.00;,,                   N 99Gho !
 PAR  BM(FEPD3_L12,FE:PD),,                 1.1;,,                    N 99Gho !
 PAR  G(FEPD3_L12,PD:FE),,              +0.25*GHSERPD+0.75*GHSERFE
             +21619.2689-3.2068*T;,,                                  N 99Gho !
 PAR  TC(FEPD3_L12,PD:FE),,               363.00;,,                   N 99Gho !
 PAR  L(FEPD3_L12,FE,PD:PD;0),,         -2467.4791+1.261*T;,,         N 99Gho !
 PAR  TC(FEPD3_L12,FE,PD:PD;0),,          205.00;,,                   N 99Gho !
 PAR  BM(FEPD3_L12,FE,PD:PD;0),,            0.35;,,                   N 99Gho !
 PAR  L(FEPD3_L12,FE:FE,PD;0),,         +8237.6898+1.261*T;,,         N 99Gho !
 PAR  L(FEPD3_L12,FE:FE,PD;1),,         +19320.1824+6.2266*T;,,       N 99Gho !
 PAR  TC(FEPD3_L12,FE:FE,PD;0),,         -205.00;,,                   N 99Gho !
$
$ Metastable
$
 PAR  L(HCP_A3,FE,PD:VA;0),,            -36989.664-10.8485*T;,,       N Same !
 PAR  L(HCP_A3,FE,PD:VA;1),,            +63662.7285-19.5828*T;,,      N Same !
$ ------------------------------------------------------------------------------
$
 ASSESSED_SYSTEM
  FE-PD(TDB -* +LIQUID +FCC_A1 +BCC_A2 +FEPD_L10 +FEPD3_L12
  ;G5 C_S:FCC_A1/FE:VA MAJ:FCC_A1/PD:VA ;P3 TMM:300/2300 STP:.4/1300/2/-2) !
$
$
 LIST-OF-REFERENCE
 NUMBER  SOURCE
  Null   'Unknown source'
  Same   'Same or similar interaction as in the corresponding stable phase'
  COST   'COST 507 database'
  SGCOST 'COST 507 database, SGTE unary database V.3.0, 1996; Al, B, Nd, Ti, Zn'
  91Din  'A.T. Dinsdale, Calphad, 15, 317-425(1991).'
  99Gho  'G. Ghosh, C. Kantner, G.B. Olson,
          J. Phase Equilib., 20, 295-308(1999); Fe-Pd'
  99SGUN 'SGTE unary database V.4.1, 1999.'
  02Zin  'M. Zinkevich, N. Mattern, A. Handstein, O. Gutfleisch,
          J. Alloys Compd., 339, 118-139(2002); Fe, Sm, Fe-Sm'
  06Vre  'J. Vrestal, J. Pinkas, A. Watson, A. Scott, J. Houserova, A. Kroupa,
          Calphad, 30, 14-17(2006), SGTE unary database V.5.0, 2009; Pd'
!
