$
$ Database for Au-Zr from X. Su et al. 2000 (Included in LB Vol. 5)
$
$ X. Su, F. Yin, Z. Li, Y. Shi, Z. Metallkd., 91, 744-47(2000).
$
$ Dataset created 2015.04.25 by Bengt Hallstedt.
$ 2020.12.22: Modified for use with GES6.
$
$ ------------------------------------------------------------------------------
 TEMP-LIM 298.15 6000.00 !
$
$ELEMENT NAME  REF. STATE               ATOMIC MASS H298-H0    S298    !
$
 ELEMENT VA   VACUUM                      0.0          0.0      0.0    ! 
 ELEMENT AU   FCC_A1                    196.9665    6016.592   47.4884 ! 
 ELEMENT ZR   HCP_A3                     91.22      5566.27    39.1809 ! 
$ ------------------------------------------------------------------------------
$ Phase definitions
$
 PHASE LIQUID:L % 1 1 !
 CONST LIQUID:L : AU ZR : !
$
$ Fcc (cF4) and MeX (cF8)
$
 PHASE FCC_A1 %A 2 1 1 !
 CONST FCC_A1 : AU% ZR : VA : !
$
$ Bcc (cI2, Im-3m)
$
 PHASE BCC_A2 %B 2 1 3 !
 CONST BCC_A2 : AU ZR% : VA : !
$
$ Hcp (hP2, P6_3/mmc) and Me2X (NiAs-type, hP4, P6_3/mmc, B8_1)
$
 PHASE HCP_A3 %A 2 1 0.5 !
 CONST HCP_A3 : AU ZR% : VA : !
$
$ Prototype Au4Zr (oP20, Pnma)
$
 PHASE AU4ZR % 2 4 1 !
 CONST AU4ZR : AU : ZR : !
$
$ Prototype Cu3Ti (oP8, Pmmn)
$
 PHASE AU3ZR_D0A % 2 3 1 !
 CONST AU3ZR_D0A : AU : ZR : !
$
$ Prototype MoSi2 (tI6, I4/mmm)
$
 PHASE AU2ZR_C11B % 2 2 1 !
 CONST AU2ZR_C11B : AU : ZR : !
$
$ Pearson tI34
$
 PHASE AU10ZR7 % 2 10 7 !
 CONST AU10ZR7 : AU : ZR : !
$
$ Prototype AuZr (mP32, P2/m) alpha-AuZr
$ Prototype CuTi3 (tP4, P4/mmm, L6_0) beta-AuZr
$
 PHASE AUZR % 2 1 1 !
 CONST AUZR : AU : ZR : !
$
$ unknown structure
$
 PHASE AU2ZR3 % 2 2 3 !
 CONST AU2ZR3 : AU : ZR : !
$
$ Prototype CuZr2 (tI6, I4/mmm)
$
 PHASE AUZR2 % 2 1 2 !
 CONST AUZR2 : AU : ZR : !
$
$ Prototype Cr3Si (cP8, Pm-3n)
$
 PHASE AUZR3_A15 % 2 1 3 !
 CONST AUZR3_A15 : AU : ZR : !
$ ------------------------------------------------------------------------------
$ Defaults
$
 DEFINE-SYSTEM-DEFAULT ELEMENT 2 !
 DEFAULT-COM DEFINE_SYSTEM_ELEMENT VA !
 TYPE-DEF % SEQ * !
 TYPE-DEF A GES AMEND_PHASE_DESCRIPTION @ MAGNETIC -3 0.28 !
 TYPE-DEF B GES AMEND_PHASE_DESCRIPTION @ MAGNETIC -1 0.4 !
 FUNCTION ZERO      298.15  0;                                         6000 N !
 FUNCTION UN_ASS    298.15  0;                                         6000 N !
 FUNCTION R         298.15  +8.31451;                                  6000 N !
$ ------------------------------------------------------------------------------
$ Element data
$ ------------------------------------------------------------------------------
$ Au
$
$ DHCP added in unary 5.0
$
$ DHCP replaced by the value from 92Ans in SGSOL 5.0
$
$ The DHCP phase is labelled D0_24 in 03Liu and alpha-prime in 92Ans. The
$ phase is present between the fcc and hcp phases in the Au-Sn and Au-In
$ systems. The value for DHCP from 92Ans was used to model these systems,
$ thus this value must be included in the unary database and not the 04Du
$ value.
$
 PAR  G(FCC_A1,AU:VA),,                 +GHSERAU;                3200 N 91Din !
 PAR  G(HCP_A3,AU:VA),,                 +GHSERAU+240.75+1.6*T;   3200 N 91Din !
 PAR  G(BCC_A2,AU:VA),,                 +GHSERAU+4250-1.1*T;     3200 N 91Din !
$PAR  G(DHCP,AU),,                      +GHSERAU+125+0.79*T;     3200 N 92Ans !
$PAR  G(DHCP,AU),,                      +GHSERAU+5000;           3200 N 04Du !
 PAR  G(LIQUID,AU),,                    +GHSERAU
             +12552-9.385866*T;                                  3200 N 91Din !
$
 FUNCTION GHSERAU   298.15  -6938.856+106.830098*T-22.75455*T*LN(T)
       -0.00385924*T**2+3.79625E-07*T**3-25097*T**(-1);
       929.40  Y  -93586.481+1021.69543*T-155.706745*T*LN(T)
       +0.08756015*T**2-1.1518713E-05*T**3+10637210*T**(-1);
      1337.33  Y  +314067.829-2016.37825*T+263.252259*T*LN(T)
       -0.118216828*T**2+8.923844E-06*T**3-67999832*T**(-1);
      1735.80  Y  -12133.783+165.272524*T-30.9616*T*LN(T);
      3200.00  N !
$ ------------------------------------------------------------------------------
$ Zr
$
$ CUB_A13, CBCC_A12, ORTHORHOMBIC_A20 and TETRAGONAL_U added in unary 4.1
$
 PAR  G(HCP_A3,ZR:VA)           130.00  +GHSERZR;,,                   N 91Din !
 PAR  G(BCC_A2,ZR:VA)           130.00  +GBCCZR;,,                    N 91Din !
$PAR  G(OMEGA,ZR)               130.00  +GOMEZR;,,                    N 91Din !
 PAR  G(FCC_A1,ZR:VA)           130.00  +GHSERZR+7600-0.9*T;,,        N 91Din !
$PAR  G(CBCC_A12,ZR:VA)         130.00  +GHSERZR+4602.2;,,            N 99SGUN !
$PAR  G(CUB_A13,ZR:VA)          130.00  +GHSERZR+7531.2;,,            N 99SGUN !
$PAR  G(ORTHORHOMBIC_A20,ZR)    130.00  +GBCCZR+5000;,,               N 99SGUN !
$PAR  G(TETRAGONAL_U,ZR)        130.00  +GBCCZR+5000;,,               N 99SGUN !
 PAR  G(LIQUID,ZR)              130.00  +GLIQZR;,,                    N 91Din !
$
 FUNCTION GHSERZR   130.00  -7827.595+125.64905*T-24.1618*T*LN(T)
       -0.00437791*T**2+34971*T**(-1);
      2128.00  Y  -26085.921+262.724183*T-42.144*T*LN(T)-1.342896E+31*T**(-9);
      6000.00  N !
 FUNCTION GBCCZR    130.00  -525.539+124.9457*T-25.607406*T*LN(T)
       -3.40084E-04*T**2-9.729E-09*T**3+25233*T**(-1)-7.6143E-11*T**4;
      2128.00  Y  -4620.034+1.55998*T+GHSERZR+1.4103476E+32*T**(-9);
      6000.00  N !
 FUNCTION GOMEZR    130.00  -8878.082+144.432234*T-26.8556*T*LN(T)
       -0.002799446*T**2+38376*T**(-1);
      2128.00  Y  -3414.603+2.566675*T+GHSERZR+8.517346E+31*T**(-9);
      6000.00  N !
 FUNCTION GLIQZR    130.00  +18147.69-9.080812*T+GHSERZR+1.6275E-22*T**7;
      2128.00  Y  -8281.26+253.812609*T-42.144*T*LN(T);
      6000.00  N !
$ ------------------------------------------------------------------------------
$ Binary system
$
$ From X. Su et al. 2000 (Included in LB Vol. 5)
$
$ X. Su, F. Yin, Z. Li, Y. Shi, Z. Metallkd., 91, 744-47(2000).
$
$ Checked against LB and paper. Checked at 6000 K.
$
 PAR  L(LIQUID,AU,ZR;0),,               -198916.2+29.9367*T;,,        N 00Su !
 PAR  L(LIQUID,AU,ZR;1),,               +12869.9-7.6684*T;,,          N 00Su !
$
 PAR  L(FCC_A1,AU,ZR:VA;0),,            -159355;,,                    N 00Su !
 PAR  L(BCC_A2,AU,ZR:VA;0),,            -132232+4.347*T;,,            N 00Su !
 PAR  L(HCP_A3,AU,ZR:VA;0),,            -120790;,,                    N 00Su !
$
 PAR  G(AU4ZR,AU:ZR),,                  +4*GHSERAU+GHSERZR
             -208796.1+26.6754*T;,,                                   N 00Su !
 PAR  G(AU3ZR_D0A,AU:ZR),,              +3*GHSERAU+GHSERZR
             -205812.6+27.6114*T;,,                                   N 00Su !
 PAR  G(AU2ZR_C11B,AU:ZR),,             +2*GHSERAU+GHSERZR
             -178334+24.1504*T;,,                                     N 00Su !
 PAR  G(AU10ZR7,AU:ZR),,                +10*GHSERAU+7*GHSERZR
             -1013612.21+122.6875*T;,,                                N 00Su !
 PAR  G(AUZR,AU:ZR),,                   +GHSERAU+GHSERZR
             -119646.3+12.5555*T;,,                                   N 00Su !
 PAR  G(AU2ZR3,AU:ZR),,                 +2*GHSERAU+3*GHSERZR
             -265475.1+30.2602*T+0.3134*T*LN(T);,,                    N 00Su !
 PAR  G(AUZR2,AU:ZR),,                  +GHSERAU+2*GHSERZR
             -146230.3+20.2613*T;,,                                   N 00Su !
 PAR  G(AUZR3_A15,AU:ZR),,              +GHSERAU+3*GHSERZR
             -146145.7+11.8011*T;,,                                   N 00Su !
$ ------------------------------------------------------------------------------
$
 ASSESSED_SYSTEM
  AU-ZR(TDB -* +LIQUID +FCC +BCC_A2 +HCP_A3 +AU4ZR +AU3ZR +AU2ZR +AU10ZR7 
  +AUZR +AU2ZR3 +AUZR2 +AUZR3 ;P3 *) !
$
$
 LIST-OF-REFERENCE
 NUMBER  SOURCE
  Null   'Unknown source'
  Same   'Same or similar interaction as in the corresponding stable phase'
  COST   'COST 507 database'
  91Din  'A.T. Dinsdale, Calphad, 15, 317-425(1991).'
  92Ans  'I. Ansara, J.-Ph. Nabot, Calphad, 16, 13-18(1992); Au'
  99SGUN 'SGTE unary database V.4.1, 1999.'
  00Su   'X. Su, F. Yin, Z. Li, Y. Shi, Z. Metallkd., 91, 744-47(2000); Au-Zr'
  03Du   'Z. Du, L. Yang, J. Alloys Compd., 353, 213-16(2003); Au-Hf'
  04Du   'Z. Du, C. Guo, D. Lu, J. Alloys Compd., 364, 117-20(2004),
          SGTE unary database V.5.0, 2009; Au'
!
