$
$ Database for Fe-Os from L.J. Swartzendruber and B. Sundman 1983.
$
$ L.J. Swartzendruber, B. Sundman, Bull. Alloy Phase Diag., 4, 396-99(1983).
$
$ Dataset created 2021.12.05 by Bengt Hallstedt.
$
$ The fcc-Os and bcc-Os lattice stabilities are very different from the
$ SGTE lattice stabilities.
$
$ The phase diagram is only roughly reproduced. The L+fcc=bcc peritectic is at
$ 1853 K instead of 1825 K and the L+hcp=fcc peritectic is at 2123 K instead
$ of about 2000 K.
$
$ ------------------------------------------------------------------------------
 TEMP-LIM 298.15 6000.00 !
$
$ELEMENT NAME  REF. STATE               ATOMIC MASS H298-H0    S298    !
$
 ELEMENT VA   VACUUM                      0.0          0.0      0.0    ! 
 ELEMENT FE   BCC_A2                     55.847     4489.0     27.2797 ! 
 ELEMENT OS   HCP_A3                    190.20         0.      32.6352 ! 
$ ------------------------------------------------------------------------------
$ Phase definitions
$
 PHASE LIQUID:L % 1 1 !
 CONST LIQUID:L : FE OS : !
$
$ Fcc (cF4, Fm-3m) and MeX (cF8, Fm-3m)
$
 PHASE FCC_A1 %A 2 1 1 !
 CONST FCC_A1 : FE OS : VA : !
$
$ Bcc (cI2, Im-3m)
$
 PHASE BCC_A2 %B 2 1 3 !
 CONST BCC_A2 : FE% OS : VA : !
$
$ Hcp (hP2, P6_3/mmc) and Me2X (NiAs-type, hP4, P6_3/mmc, B8_1)
$
 PHASE HCP_A3 % 2 1 0.5 !
 CONST HCP_A3 : FE OS : VA : !
$ ------------------------------------------------------------------------------
$ Defaults
$
 DEFINE-SYSTEM-DEFAULT ELEMENT 2 !
 DEFAULT-COM DEFINE_SYSTEM_ELEMENT VA !
 TYPE-DEF % SEQ * !
 TYPE-DEF A GES AMEND_PHASE_DESCRIPTION @ MAGNETIC -3 0.28 !
 TYPE-DEF B GES AMEND_PHASE_DESCRIPTION @ MAGNETIC -1 0.4 !
 FUNCTION ZERO      298.15  0;                                         6000 N !
 FUNCTION UN_ASS    298.15  0;                                         6000 N !
 FUNCTION R         298.15  +8.31451;                                  6000 N !
$ ------------------------------------------------------------------------------
$ Element data
$ ------------------------------------------------------------------------------
$ Fe
$
$ ORTHORHOMBIC_A20 and TETRAGONAL_U added im unary 4.1
$
 PAR  G(BCC_A2,FE:VA),,                 +GHSERFE;,,                   N 91Din !
 PAR  TC(BCC_A2,FE:VA),,                 1043.00;,,                   N 91Din !
 PAR  BMAG(BCC_A2,FE:VA),,                  2.22;,,                   N 91Din !
 PAR  G(FCC_A1,FE:VA),,                 +GFCCFE;,,                    N 91Din !
 PAR  TC(FCC_A1,FE:VA),,                 -201.00;,,                   N 91Din !
 PAR  BMAG(FCC_A1,FE:VA),,                 -2.10;,,                   N 91Din !
 PAR  G(HCP_A3,FE:VA),,                 +GHCPFE;,,                    N 91Din !
$PAR  G(CBCC_A12,FE:VA),,               +GHSERFE+4745;,,              N 91Din !
$PAR  G(CUB_A13,FE:VA),,                +GHSERFE+3745;,,              N 91Din !
$PAR  G(ORTHORHOMBIC_A20,FE),,          +GHSERFE+5000;,,              N 99SGUN !
$PAR  G(TETRAGONAL_U,FE),,              +GHSERFE+5000;,,              N 99SGUN !
 PAR  G(LIQUID,FE),,                    +GLIQFE;,,                    N 91Din !
$
 FUNCTION GHSERFE   298.15  +1225.7+124.134*T-23.5143*T*LN(T)
       -0.00439752*T**2-5.8927E-08*T**3+77359*T**(-1);
      1811.00  Y  -25383.581+299.31255*T-46*T*LN(T)+2.29603E+31*T**(-9);
      6000.00  N !
 FUNCTION GFCCFE    298.15  -1462.4+8.282*T-1.15*T*LN(T)
       +6.4E-04*T**2+GHSERFE;
      1811.00  Y  -1713.815+0.940009*T+GHSERFE+4.9251E+30*T**(-9);
      6000.00  N !
 FUNCTION GHCPFE    298.15  -3705.78+12.591*T-1.15*T*LN(T)
       +6.4E-04*T**2+GHSERFE;
      1811.00  Y  -3957.195+5.249009*T+GHSERFE+4.9251E+30*T**(-9);
      6000.00  N !
 FUNCTION GLIQFE    298.15  +12040.17-6.55843*T+GHSERFE-3.67516E-21*T**7;
      1811.00  Y  -10838.83+291.302*T-46*T*LN(T);
      6000.00  N !
$ ------------------------------------------------------------------------------
$ Os
$
$ BCC_A2 revised in unary 4.4
$
$ FCC_A1 and BCC_A2 from 83Swa not included in unary
$
 PAR  G(HCP_A3,OS:VA),,                 +GHSEROS;                5500 N 91Din !
$PAR  G(FCC_A1,OS:VA),,                 +GHSEROS+13000-2.5*T;    5500 N 91Din !
 PAR  G(FCC_A1,OS:VA),,                 +GHSEROS+552+3.347*T;    5500 N 83Swa !
$PAR  G(BCC_A2,OS:VA),,                 +GHSEROS+27500-4.4*T;    5500 N 01SGUN !
 PAR  G(BCC_A2,OS:VA),,                 +GHSEROS+4736+3.347*T;   5500 N 83Swa !
$PAR  G(BCC_A2,OS:VA),,                 +GHSEROS+43500-9*T;      5500 N 91Din !
 PAR  G(LIQUID,OS),,                    +GLIQOS;                 5500 N 91Din !
$
 FUNCTION GHSEROS   298.15  -7196.978+126.369531*T-23.5710242*T*LN(T)
       -0.00190427*T**2;
      3306.00  Y  +644910.07-1935.2137*T+224.998034*T*LN(T)
       -0.042489827*T**2+1.173861E-06*T**3-3.12569031E+08*T**(-1);
      5500.00  N !
 FUNCTION GLIQOS    298.15  +36460.17-8.473743*T+GHSEROS;
      1000.00  Y  +68715.318-198.324341*T+19.9382156*T*LN(T)
       -0.020464464*T**2+1.014279E-06*T**3-6237261*T**(-1);
      3306.00  Y  -15903.192+336.874526*T-50*T*LN(T);
      5500.00  N !
$ ------------------------------------------------------------------------------
$ Binary system
$
$ L.J. Swartzendruber, B. Sundman, Bull. Alloy Phase Diag., 4, 396-99(1983).
$
$ Checked against paper. Checked at 6000 K.
$
$ The fcc-Os and bcc-Os lattice stabilities are very different from the
$ SGTE lattice stabilities.
$
$ The phase diagram is only roughly reproduced. The L+fcc=bcc peritectic is at
$ 1853 K instead of 1825 K and the L+hcp=fcc peritectic is at 2123 K instead
$ of about 2000 K.
$
 PAR  L(LIQUID,FE,OS;0),,               -10883;,,                     N 83Swa !
$
 PAR  L(FCC_A1,FE,OS:VA;0),,            -12200;,,                     N 83Swa !
 PAR  L(BCC_A2,FE,OS:VA;0),,            -5730-4.47*T;,,               N 83Swa !
 PAR  L(HCP_A3,FE,OS:VA;0),,            -21175;,,                     N 83Swa !
$ ------------------------------------------------------------------------------
$
$
 LIST-OF-REFERENCE
 NUMBER  SOURCE
  Null   'Unknown source'
  Same   'Same or similar interaction as in the corresponding stable phase'
  REFLAV 'Laves phase convention: G(LAVES,X:X)=+3*GHSERXX+15000'
  83Swa  'L.J. Swartzendruber, B. Sundman,
          Bull. Alloy Phase Diag., 4, 396-99(1983); Os, Fe-Os'
  91Din  'A.T. Dinsdale, Calphad, 15, 317-425(1991).'
  99SGUN 'SGTE unary database V.4.1, 1999.'
  01SGUN 'SGTE unary database V.4.4, 2001.'
!
