$
$ Database for Ag-Na from D. Hao et al. 2012.
$
$ D. Hao, M. Bu, Y. Wang, Y. Tang, Q. Gao, M. Wang, B. Hu, Y. Du,
$ J. Mining Metall. B, 48, 273-82(2012).
$
$ Dataset created 2018.03.18 by Bengt Hallstedt.
$ 2020.12.20: Modified for use with GES6.
$
$ ------------------------------------------------------------------------------
 TEMP-LIM 298.15 6000.00 !
$
$ELEMENT NAME  REF. STATE               ATOMIC MASS H298-H0    S298    !
$
 ELEMENT VA   VACUUM                      0.0          0.0      0.0    ! 
 ELEMENT AG   FCC_A1                    107.8682    5745.      42.55   ! 
 ELEMENT NA   BCC_A2                     22.98977   6460.      51.3000 ! 
$ ------------------------------------------------------------------------------
$ Phase definitions
$
 PHASE LIQUID:L % 1 1 !
 CONST LIQUID:L : AG NA : !
$
$ Fcc (cF4, Fm-3m) and MeX (cF8, Fm-3m)
$
 PHASE FCC_A1 %A 2 1 1 !
 CONST FCC_A1 : AG% NA : VA : !
$
$ Bcc (cI2, Im-3m)
$
 PHASE BCC_A2 %B 2 1 3 !
 CONST BCC_A2 : AG NA% : VA : !
$
$ Hcp (hP2, P6_3/mmc) and Me2X (NiAs-type, hP4, P6_3/mmc, B8_1)
$
 PHASE HCP_A3 %A 2 1 0.5 !
 CONST HCP_A3 : AG NA : VA : !
$
$ Prototype Cu2Mg (cF24, Fd-3m)
$
 PHASE AG2NA_C15 % 2 2 1 !
 CONST AG2NA_C15 : AG : NA : !
$ ------------------------------------------------------------------------------
$ Defaults
$
 DEFINE-SYSTEM-DEFAULT ELEMENT 2 !
 DEFAULT-COM DEFINE_SYSTEM_ELEMENT VA !
 TYPE-DEF % SEQ * !
 TYPE-DEF A GES AMEND_PHASE_DESCRIPTION @ MAGNETIC -3 0.28 !
 TYPE-DEF B GES AMEND_PHASE_DESCRIPTION @ MAGNETIC -1 0.4 !
 FUNCTION ZERO      298.15  0;                                         6000 N !
 FUNCTION UN_ASS    298.15  0;                                         6000 N !
 FUNCTION R         298.15  +8.31451;                                  6000 N !
$ ------------------------------------------------------------------------------
$ Element data
$ ------------------------------------------------------------------------------
$ Ag
$
$ CUB_A13 added in unary 3.0
$ CUB_A13 revised in unary 4.1
$ BCT_A5 added in unary 4.1
$
$ DHCP from 09Wan not included in unary
$
 PAR  G(FCC_A1,AG:VA),,                 +GHSERAG;                3000 N 91Din !
 PAR  G(HCP_A3,AG:VA),,                 +GHSERAG+300+0.3*T;      3000 N 91Din !
 PAR  G(BCC_A2,AG:VA),,                 +GHSERAG+3400-1.05*T;    3000 N 91Din !
$PAR  G(CUB_A13,AG:VA),,                +GHSERAG+3400-1.05*T;    3000 N 95Lim !
$PAR  G(CUB_A13,AG:VA),,                +GHSERAG
$            +3765.6-1.8826*T;                                   3000 N 96SGUN !
$PAR  G(BCT_A5,AG),,                    +GHSERAG+4184.1;         3000 N 96Oh !
$PAR  G(DHCP,AG),,                      +GHSERAG+1000;           3000 N 09Wan2 !
 PAR  G(LIQUID,AG),,                    +GLIQAG;                 3000 N 91Din !
$
 FUNCTION GHSERAG   298.15  -7209.512+118.202013*T-23.8463314*T*LN(T)
       -0.001790585*T**2-3.98587E-07*T**3-12011*T**(-1);
      1234.93  Y  -15095.252+190.266404*T-33.472*T*LN(T)+1.411773E+29*T**(-9);
      3000.00  N !
 FUNCTION GLIQAG    298.15  +11025.076-8.89102*T+GHSERAG-1.033905E-20*T**7;
      1234.93  Y  -3587.111+180.964656*T-33.472*T*LN(T);
      3000.00  N !
 FUNCTION GBCCAG    298.15  +GHSERAG+3400-1.05*T;                      6000 N !
$ ------------------------------------------------------------------------------
$ Na
$
 PAR  G(BCC_A2,NA:VA)           200.00  +GHSERNA;                2300 N 91Din !
 PAR  G(HCP_A3,NA:VA)           200.00  +GHSERNA-104+2*T;        2300 N 91Din !
 PAR  G(FCC_A1,NA:VA)           200.00  +GHSERNA-50+1.3*T;       2300 N 91Din !
 PAR  G(LIQUID,NA)              200.00  +GLIQNA;                 2300 N 91Din !
$
 FUNCTION GHSERNA   200.00  -11989.434+260.548732*T-51.0393608*T*LN(T)
       +0.072306633*T**2-4.3638283E-05*T**3+132154*T**(-1);
       370.87  Y  -11009.884+199.619999*T-38.1198801*T*LN(T)
       +0.009745854*T**2-1.70664E-06*T**3+34342*T**(-1)+1.65071E+23*T**(-9);
      2300.00  N !
 FUNCTION GLIQNA    200.00  +2581.02-6.95218*T+GHSERNA-2.76132E-18*T**7;
       370.87  Y  +2609.444-7.032656*T+GHSERNA-1.65071E+23*T**(-9);
      2300.00  N !
$ ------------------------------------------------------------------------------
$ Binary system
$
$ D. Hao, M. Bu, Y. Wang, Y. Tang, Q. Gao, M. Wang, B. Hu, Y. Du,
$ J. Mining Metall. B, 48, 273-82(2012).
$
$ Checked against paper. Checked at 6000 K.
$
 PAR  L(LIQUID,AG,NA;0),,               +20096-3.448*T;,,             N 12Hao !
 PAR  L(LIQUID,AG,NA;1),,               -1615;,,                      N 12Hao !
$
 PAR  L(FCC_A1,AG,NA:VA;0),,            +27340;,,                     N 12Hao !
 PAR  L(BCC_A2,AG,NA:VA;0),,            +18287;,,                     N 12Hao !
$
 PAR  G(AG2NA_C15,AG:NA),,              +2*GHSERAG+GHSERNA
             -29821.8+47.364*T;,,                                     N 12Hao !
$
$ Metastable
$
 PAR  L(HCP_A3,AG,NA:VA;0),,            +27340;,,                     N Same !
$ ------------------------------------------------------------------------------
$
$
 LIST-OF-REFERENCE
 NUMBER  SOURCE
  Null   'Unknown source'
  Same   'Same or similar interaction as in the corresponding stable phase'
  COST   'COST 507 database'
  91Din  'A.T. Dinsdale, Calphad, 15, 317-425(1991).'
  95Lim  'S.S. Lim, P.L. Rossiter, J.W. Tibballs, Calphad, 19, 131-41(1995),
          SGTE unary database V.4.1, 1999; Ag'
  96Oh   'C.-S. Oh, J.-H. Shim, B.-J. Lee, D.N. Lee,
          J. Alloys Compounds, 238, 155-66(1996),
          SGTE unary database V.4.1, 1999; Ag'
  96SGUN 'SGTE unary database V.3.0, 1996.'
  09Wan2 'S.L. Wang, C.P. Wang, X.J. Liu, K. Ishida,
          J. Alloys Compd., 476, 245-52(2009); Ag'
  12Hao  'D. Hao, M. Bu, Y. Wang, Y. Tang, Q. Gao, M. Wang, B. Hu, Y. Du,
          J. Mining Metall. B, 48, 273-82(2012); Ag-Na'
!
