$
$ Database for W-B from H. Duschanek and P. Rogl 1995 (included in LB Vol. 2)
$
$ H. Duschanek, P. Rogl, J. Phase Equilib., 16, 150-61(1995).
$
$ Dataset created 2015.03.08 by Bengt Hallstedt.
$ 2021.02.05: Modified for use with GES6.
$
$ This tdb reproduces the results from LBall-v7+fun.tdb. There are differences
$ up to 55 K compared to the printed LB. The diagrams in LB were not calculated
$ with the LB database. There are similar differences between this tdb and the
$ phase diagram in the paper. The parameters here are the same as those printed
$ in the paper.
$
$ ------------------------------------------------------------------------------
 TEMP-LIM 298.15 6000.00 !
$
$ELEMENT NAME  REF. STATE               ATOMIC MASS H298-H0    S298    !
$
 ELEMENT VA   VACUUM                      0.0          0.0      0.0    ! 
 ELEMENT B    BETA_RHOMBO_B              10.81      1222.0      5.9    ! 
 ELEMENT W    BCC_A2                    183.85      4970.0     32.6176 ! 
$ ------------------------------------------------------------------------------
$ Phase definitions
$
 PHASE LIQUID:L % 1 1 !
 CONST LIQUID:L : B W : !
$
$ Fcc (cF4, Fm-3m) and MeX (cF8, Fm-3m)
$
 PHASE FCC_A1 %A 2 1 1 !
 CONST FCC_A1 : W : B VA% : !
$
$ Bcc (cI2, Im-3m)
$
 PHASE BCC_A2 %B 2 1 3 !
 CONST BCC_A2 : W : B VA% : !
$
$ Hcp (hP2, P6_3/mmc) and Me2X (NiAs-type, hP4, P6_3/mmc, B8_1)
$
 PHASE HCP_A3 %A 2 1 0.5 !
 CONST HCP_A3 : W : B VA% : !
$
$ Prototype beta-B (hR105, R-3m)
$
 PHASE BETA_RHOMBO_B % 1 1 !
 CONST BETA_RHOMBO_B : B : !
$
$ Prototype Al2Cu (tI12, I4/mcm)
$
 PHASE M2B_C16 % 2 2 1 !
 CONST M2B_C16 : W : B : !
$
$ Prototype alpha-MoB (tI16, I4_1/amd), alpha-WB
$
 PHASE WB_BG % 2 1 1 !
 CONST WB_BG : W : B VA : !
$
$ Prototype CrB (oC8, Cmcm), beta-WB
$
 PHASE WB_B33 % 2 1 1 !
 CONST WB_B33 : W : B VA : !
$
$ Prototype Mo2B5 (hR7, R-3m)
$
 PHASE W2B5_D8I % 2 2 5 !
 CONST W2B5_D8I : W : B VA : !
$
$ Prototype W2B9 (hP22, P-3)
$
 PHASE W2B9 % 2 2 9 !
 CONST W2B9 : W : B : !
$ ------------------------------------------------------------------------------
$ Defaults
$
 DEFINE-SYSTEM-DEFAULT ELEMENT 2 !
 DEFAULT-COM DEFINE_SYSTEM_ELEMENT VA !
 TYPE-DEF % SEQ * !
 TYPE-DEF A GES AMEND_PHASE_DESCRIPTION @ MAGNETIC -3 0.28 !
 TYPE-DEF B GES AMEND_PHASE_DESCRIPTION @ MAGNETIC -1 0.4 !
 FUNCTION ZERO      298.15  0;                                         6000 N !
 FUNCTION UN_ASS    298.15  0;                                         6000 N !
 FUNCTION R         298.15  +8.31451;                                  6000 N !
$ ------------------------------------------------------------------------------
$ Element data
$ ------------------------------------------------------------------------------
$ B
$
$ FCC_A1, HCP_A3, DIAMOND_A4 and GRAPHITE added in unary 3.0
$ BCC_A2 added in unary 4.1
$ GRAPHITE revised in unary 4.4 (using the value from COST 507)
$ FCC_A1, BCC_A2 and HCP_A3 removed in unary 5.0
$ ALPHA_RHOMBO_B added in unary 5.0
$
$ FCC_A1, BCC_A2 and HCP_A3 still in SGSOL 5.0
$ The value for FCC_A1 in COST (and SGTE) is possibly incorrect.
$
 PAR  G(BETA_RHOMBO_B,B),,              +GHSERBB;,,                   N 91Din !
$PAR  G(ALPHA_RHOMBO_B,B),,             +GALPBB;,,                    N 09SGUN !
$PAR  G(FCC_A1,B:VA),,                  +GHSERBB+43514-12.217*T;,,    N SGCOST !
$PAR  G(FCC_A1,B:VA),,                  +GHSERBB+50208-13.472*T;,,    N 94Hal !
$PAR  G(BCC_A2,B:VA),,                  +GHSERBB+43514-12.217*T;,,    N 94Hal !
$PAR  G(HCP_A3,B:VA),,                  +GHSERBB+50208-9.706*T;,,     N SGCOST !
$PAR  G(GRAPHITE,B),,                   +GHSERBB+10000-2*T;,,         N SGCOST !
$PAR  G(GRAPHITE,B),,                   +GHSERBB+5000;,,              N 96SGUN !
$PAR  G(DIAMOND_A4,B),,                 +GHSERBB+10;,,                N 99SGUN !
$PAR  G(DIAMOND_A4,B),,                 +GHSERBB+20;,,                N COST !
$PAR  G(DIAMOND_A4,B),,                 +GHSERBB;,,                   N 96SGUN !
 PAR  G(LIQUID,B),,                     +GLIQBB;,,                    N 91Din !
$
 FUNCTION GHSERBB   298.15  -7735.284+107.111864*T-15.6641*T*LN(T)
       -0.006864515*T**2+6.18878E-07*T**3+370843*T**(-1);
      1100.00  Y  -16649.474+184.801744*T-26.6047*T*LN(T)
       -7.9809E-04*T**2-2.556E-08*T**3+1748270*T**(-1);
      2348.00  Y  -36667.582+231.336244*T-31.5957527*T*LN(T)
       -0.00159488*T**2+1.34719E-07*T**3+11205883*T**(-1);
      3000.00  Y  -21530.653+222.396264*T-31.4*T*LN(T);
      6000.00  N !
 FUNCTION GALPBB    298.15  -6076.24+86.648762*T-12.942464*T*LN(T)
       -7.089468E-3*T**2+0.659896E-6*T**3-45*T**(-1);
      1400.00  Y  +28477.506-106.789208*T+12.1072478*T*LN(T)
       -13.316875E-3*T**2+0.706895E-6*T**3-8002403*T**(-1);
      3000.00  Y  -25699.64+225.127135*T-31.4*T*LN(T);
      6000.00  N !
 FUNCTION GLIQBB    298.15  +48458.559-20.268025*T+GHSERBB;
       500.00  Y  +41119.703+82.101722*T-14.9827763*T*LN(T)
       -0.007095669*T**2+5.07347E-07*T**3+335484*T**(-1);
      2348.00  Y  +28842.012+200.94731*T-31.4*T*LN(T);
      3000.00  Y  +50372.665-21.448954*T+GHSERBB;
      6000.00  N !
 FUNCTION GFCCBB    298.15  +GHSERBB+43514-12.217*T;                   6000 N !
 FUNCTION GBCCBB    298.15  +GHSERBB+43514-12.217*T;                   6000 N !
$ ------------------------------------------------------------------------------
$ W
$
 PAR  G(BCC_A2,W:VA),,                  +GHSERWW;,,                   N 91Din !
 PAR  G(FCC_A1,W:VA),,                  +GHSERWW+19300+0.63*T;,,      N 91Din !
 PAR  G(HCP_A3,W:VA),,                  +GHSERWW+14750;,,             N 91Din !
 PAR  G(LIQUID,W),,                     +GLIQWW;,,                    N 91Din !
$
$ WB_BG and WB_B33 are exchanged in LBall-v7+fun.tdb. This has very little
$ influence on calculated results.
$
 PAR  G(WB_BG,W:VA),,                   +GHSERWW+49700;,,             N 95Dus !
 PAR  G(WB_B33,W:VA),,                  +GHSERWW+59700+2*T;,,         N 95Dus !
 PAR  G(W2B5_D8I,W:VA),,                +2*GHSERWW+54750;,,           N 95Dus !
$
 FUNCTION GHSERWW   298.15  -7646.311+130.4*T-24.1*T*LN(T)
       -0.001936*T**2+2.07E-07*T**3+44500*T**(-1)-5.33E-11*T**4;
      3695.00  Y  -82868.801+389.362335*T-54*T*LN(T)+1.528621E+33*T**(-9);
      6000.00  N !
 FUNCTION GLIQWW    298.15  +52160.584-14.10999*T+GHSERWW-2.713468E-24*T**7;
      3695.00  Y  -30436.051+375.175*T-54*T*LN(T);
      6000.00  N !
 FUNCTION GFCCWW    298.15  +GHSERWW+19300+0.63*T;                     6000 N !
$ ------------------------------------------------------------------------------
$ Binary system
$
$ From H. Duschanek and P. Rogl 1995 (included in LB Vol. 2)
$
$ H. Duschanek, P. Rogl, J. Phase Equilib., 16, 150-61(1995).
$
$ Checked against LB and paper. Checked at 6000 K.
$
$ This tdb reproduces the results from LBall-v7+fun.tdb. There are differences
$ up to 55 K compared to the printed LB. The diagrams in LB were not calculated
$ with the LB database. There are similar differences between this tdb and the
$ phase diagram in the paper. The parameters here are the same as those printed
$ in the paper.
$
$ The T**(-3) term for WB and M2B is not included in LB.
$
$ The lattice stability of bcc-B has changed since 95Dus. G(BCC_A2,W:B) was
$ recalculated relative to GHSERBB here.
$
 PAR  L(LIQUID,B,W;0),,                 -148540-5.24*T;,,             N 95Dus !
 PAR  L(LIQUID,B,W;1),,                 +11400-25.407*T;,,            N 95Dus !
$
$PAR  G(BCC_A2,W:B),,                   +GHSERWW+3*GBCCBB
$            +61450+20*T;,,                                           N 95Dus !
 PAR  G(BCC_A2,W:B),,                   +GHSERWW+3*GHSERBB
             +212074-20.419*T;,,                                      N 95Dus !
$
 PAR  G(M2B_C16,W:B),,                  -99580+487.255*T-84.432*T*LN(T)
             -4.77E-06*T**2+1590999*T**(-1)-1.03E10*T**(-3);,,         N 95Dus !
$
 PAR  G(WB_BG,W:B),,                    -84690+307.902*T-52.75*T*LN(T)
             -8.939E-04*T**2+787230*T**(-1)-5.38E08*T**(-3);,,        N 95Dus !
 PAR  L(WB_BG,W:B,VA;0),,               -55520+16.89*T;,,             N 95Dus !
$
 PAR  G(WB_B33,W:B),,                   -75528+304.168*T-52.75*T*LN(T)
             -8.939E-04*T**2+787230*T**(-1)-5.38E08*T**(-3);,,        N 95Dus !
 PAR  L(WB_B33,W:B,VA;0),,              -74710+15.836*T;,,            N 95Dus !
$
 PAR  G(W2B5_D8I,W:B),,                 +2*GHSERWW+5*GHSERBB
             -195780-112.6*T+9.427*T*LN(T)-0.00704*T**2;,,            N 95Dus !
 PAR  L(W2B5_D8I,W:B,VA;0),,            -175640+73.61*T;,,            N 95Dus !
$ Parameter from sgsol v5.2 below. Haven't checked its influence yet.
$PAR  L(W2B5_D8I,W:B,VA;0),,            -185640+73.61*T;,,            N 95Dus !
$
 PAR  G(W2B9,W:B),,                     +2*GHSERWW+9*GHSERBB
             -247380-51.84*T;,,                                       N 95Dus !
$
$ Metastable
$
 PAR  G(FCC_A1,W:B),,                   +UN_ASS;,,                    N !
 PAR  G(HCP_A3,W:B),,                   +UN_ASS;,,                    N !
$ ------------------------------------------------------------------------------
$
 ASSESSED_SYSTEM
  B-W(TDB -* +LIQ +WB_BG +WB_B33 +M2B_C16 +W2B5_D8I +W2B9 +BCC_A2
  +BETA_RHO ;P3 TMM:300/4000 *) !
$
$
 LIST-OF-REFERENCE
 NUMBER  SOURCE
  Null   'Unknown source'
  REFLAV 'Laves phase convention: G(LAVES,X:X)=+3*GHSERXX+15000'
  COST   'COST 507 database'
  SGCOST 'COST 507 database, SGTE unary database V.3.0, 1996; Al, B, Nd, Ti, Zn'
  91Din  'A.T. Dinsdale, Calphad, 15, 317-425(1991).'
  94Hal  'B. Hallemans, P. Wollants, J.R. Roos,
          Z. Metallkd., 85, 676-82(1994), SGTE unary database V.4.1, 1999; B'
  95Dus  'H. Duschanek, P. Rogl, J. Phase Equilib., 16, 150-61(1995); W-B'
  96SGUN 'SGTE unary database V.3.0, 1996.'
  99SGUN 'SGTE unary database V.4.1, 1999.'
  09SGUN 'SGTE unary database V.5.0, 2009.'
!
