$
$ Database for Sb-Si from R.W. Olesinski and G.J. Abbaschian 1985
$ (included in LB Vol. 4)
$
$ R.W. Olesinski, G.J. Abbaschian, Bull. Alloy Phase Diag., 6, 445-48(1985).
$
$ Dataset created 2016.03.24 by Bengt Hallstedt.
$ 2019.10.05: Modified for use with GES6.
$
$ ------------------------------------------------------------------------------
 TEMP-LIM 298.15 6000.00 !
$
$ELEMENT NAME  REF. STATE               ATOMIC MASS H298-H0    S298    !
$
 ELEMENT VA   VACUUM                      0.0          0.0      0.0    ! 
 ELEMENT SB   RHOMBOHEDRAL_A7           121.75      5870.152   45.5219 ! 
 ELEMENT SI   DIAMOND_A4                 28.0855    3217.      18.81   ! 
$ ------------------------------------------------------------------------------
$ Phase definitions
$
 PHASE LIQUID:L % 1 1 !
 CONST LIQUID:L : SB SI : !
$
$ Prototype C (cF8, Fd-3m)
$
 PHASE DIAMOND_A4 % 1 1 !
 CONST DIAMOND_A4 : SB SI% : !
$
$ Prototype alpha-As (hR2, R-3m)
$
 PHASE RHOMBOHEDRAL_A7 % 1 1 !
 CONST RHOMBOHEDRAL_A7 : SB : !
$ ------------------------------------------------------------------------------
$ Defaults
$
 DEFINE-SYSTEM-DEFAULT ELEMENT 2 !
 DEFAULT-COM DEFINE_SYSTEM_ELEMENT VA !
 TYPE-DEF % SEQ * !
 TYPE-DEF A GES AMEND_PHASE_DESCRIPTION @ MAGNETIC -3 0.28 !
 TYPE-DEF B GES AMEND_PHASE_DESCRIPTION @ MAGNETIC -1 0.4 !
 FUNCTION ZERO      298.15  0;                                         6000 N !
 FUNCTION UN_ASS    298.15  0;                                         6000 N !
 FUNCTION R         298.15  +8.31451;                                  6000 N !
$ ------------------------------------------------------------------------------
$ Element data
$ ------------------------------------------------------------------------------
$ Sb
$
$ BCT_A5 revised in unary 3.0
$
$ BCT_A5 the value from 91Din is used in LBall-v7+fun.tdb.
$ BCT_A5 the value from 96SGUN is used in SGSOL 5.0.
$ It is only needed in Sb-Sn.
$
$ DIAMOND_A4 from 89Che2 not included in unary
$
 PAR  G(RHOMBOHEDRAL_A7,SB),,           +GHSERSB;                2000 N 91Din !
$PAR  G(FCC_A1,SB:VA),,                 +GHSERSB+19874-13.7*T;   2000 N 91Din !
$PAR  G(BCC_A2,SB:VA),,                 +GHSERSB+19874-15.1*T;   2000 N 91Din !
$PAR  G(HCP_A3,SB:VA),,                 +GHSERSB+19874-13*T;     2000 N 91Din !
 PAR  G(DIAMOND_A4,SB),,                +GHSERSB+4184;           2000 N 89Che2 !
$PAR  G(BCT_A5,SB),,                    +GHSERSB+13000-8*T;      2000 N 96SGUN !
$PAR  G(BCT_A5,SB),,                    +GHSERSB+1000;           2000 N 91Din !
 PAR  G(LIQUID,SB),,                    +GLIQSB;                 2000 N 91Din !
$
 FUNCTION GHSERSB   298.15  -9242.858+156.154689*T-30.5130752*T*LN(T)
       +0.007748768*T**2-3.003415E-06*T**3+100625*T**(-1);
       903.78  Y  -11738.83+169.485872*T-31.38*T*LN(T)+1.616849E+27*T**(-9);
      2000.00  N !
 FUNCTION GLIQSB    298.15  +19822.328-21.923164*T+GHSERSB-1.74847E-20*T**7;
       903.78  Y  +8175.359+147.455986*T-31.38*T*LN(T);
      2000.00  N !
$ ------------------------------------------------------------------------------
$ Si
$
 PAR  G(DIAMOND_A4,SI),,                +GHSERSI;                3600 N 91Din !
$PAR  G(FCC_A1,SI:VA),,                 +GHSERSI+51000-21.8*T;   3600 N 91Din !
$PAR  G(BCC_A2,SI:VA),,                 +GHSERSI+47000-22.5*T;   3600 N 91Din !
$PAR  G(HCP_A3,SI:VA),,                 +GHSERSI+49200-20.8*T;   3600 N 91Din !
$PAR  G(CBCC_A12,SI:VA),,               +GHSERSI+50208-20.377*T; 3600 N 91Din !
$PAR  G(CUB_A13,SI:VA),,                +GHSERSI+47279-20.377*T; 3600 N 91Din !
 PAR  G(LIQUID,SI),,                    +GLIQSI;                 3600 N 91Din !
$
 FUNCTION GHSERSI   298.15  -8162.609+137.236859*T-22.8317533*T*LN(T)
       -0.001912904*T**2-3.552E-09*T**3+176667*T**(-1);
      1687.00  Y  -9457.642+167.281367*T-27.196*T*LN(T)-4.20369E+30*T**(-9);
      3600.00  N !
 FUNCTION GLIQSI    298.15  +50696.36-30.099439*T+GHSERSI+2.09307E-21*T**7;
      1687.00  Y  +40370.523+137.722298*T-27.196*T*LN(T);
      3600.00  N !
 FUNCTION GBCCSI    298.15  +GHSERSI+47000-22.5*T;               3600 N 91Din !
$ ------------------------------------------------------------------------------
$ Binary system
$
$ From R.W. Olesinski and G.J. Abbaschian 1985 (included in LB Vol. 4)
$
$ R.W. Olesinski, G.J. Abbaschian, Bull. Alloy Phase Diag., 6, 445-48(1985).
$
$ Checked against LB and paper. Checked at 6000 K.
$
$ The DIAMOND_A4 interaction approximately reproduces the maximum Sb solubility
$ shown by 85Ole.
$
 PAR  L(LIQUID,SB,SI;0),,               +16297+3.91*T;,,              N 85Ole !
$
 PAR  L(DIAMOND_A4,SB,SI;0),,           +68000;,,                     N 16Hal !
$ ------------------------------------------------------------------------------
$
 ASSESSED_SYSTEM
  SB-SI(TDB -* +LIQUID +DIAMOND +RHOMBO_A7 ;P3 TMM:300/2000 *) !
$
$
 LIST-OF-REFERENCE
 NUMBER  SOURCE
  Null   'Unknown source'
  COST   'COST 507 database'
  85Ole  'R.W. Olesinski, G.J. Abbaschian,
          Bull. Alloy Phase Diag., 6, 445-48(1985); Sb-Si'
  89Che2 'P.-Y. Chevalier, Thermochim. Acta, 155, 227-40(1989); In, Pb, Sb, Tl'
  91Din  'A.T. Dinsdale, Calphad, 15, 317-425(1991).'
  96SGUN 'SGTE unary database V.3.0, 1996.'
  16Hal  'B. Hallstedt, added parameter in DIAMOND_A4 (2016); Sb-Si'
!
