$
$ Database for Er-Mn from H. Ye et al. 2024.
$
$ H. Ye, J. Wang, Q. Chen, G. Rao, H. Zhou,
$ Mater. Genome Eng. Adv., 2, 39(2024).
$
$ Dataset created 2024.07.24 by Bengt Hallstedt.
$
$ ------------------------------------------------------------------------------
 TEMP-LIM 298.15 6000.00 !
$
$ELEMENT NAME  REF. STATE               ATOMIC MASS H298-H0    S298    !
$
 ELEMENT VA   VACUUM                      0.0          0.0      0.0    ! 
 ELEMENT ER   HCP_A3                    167.26      7392.2912  73.17816! 
 ELEMENT MN   CBCC_A12                   54.9380    4995.696   32.2206 ! 
$ ------------------------------------------------------------------------------
$ Phase definitions
$
 PHASE LIQUID:L % 1 1 !
 CONST LIQUID:L : ER MN : !
$
$ Fcc (cF4, Fm-3m) and MeX (cF8, Fm-3m)
$
 PHASE FCC_A1 %A 2 1 1 !
 CONST FCC_A1 : MN : VA : !
$
$ Bcc (cI2, Im-3m)
$
 PHASE BCC_A2 %B 2 1 3 !
 CONST BCC_A2 : ER MN% : VA : !
$
$ Hcp (hP2, P6_3/mmc) and Me2X (NiAs-type, hP4, P6_3/mmc, B8_1)
$
 PHASE HCP_A3 %A 2 1 0.5 !
 CONST HCP_A3 : ER% MN : VA : !
$
$ Prototype alpha-Mn (cI58, I-43m)
$
 PHASE CBCC_A12 %A 2 1 1 !
 CONST CBCC_A12 : MN : VA : !
$
$ Prototype beta-Mn (cP20, P4_132)
$
 PHASE CUB_A13 % 2 1 1 !
 CONST CUB_A13 : MN : VA : !
$
$ Prototype MgZn2 (hP12, P6_3/mmc)
$
 PHASE ERMN2_C14 % 2 1 2 !
 CONST ERMN2_C14 : ER : MN : !
$
$ Prototype Mn23Th6 (cF116, Fm-3m)
$
 PHASE ER6MN23_D8A %A 2 6 23 !
 CONST ER6MN23_D8A : ER : MN : !
$
$ Prototype Mn12Th (tI26, I4/mmm)
$
 PHASE ERMN12_D2B % 2 1 12 !
 CONST ERMN12_D2B : ER : MN : !
$ ------------------------------------------------------------------------------
$ Defaults
$
 DEFINE-SYSTEM-DEFAULT ELEMENT 2 !
 DEFAULT-COM DEFINE_SYSTEM_ELEMENT VA !
 TYPE-DEF % SEQ * !
 TYPE-DEF A GES AMEND_PHASE_DESCRIPTION @ MAGNETIC -3 0.28 !
 TYPE-DEF B GES AMEND_PHASE_DESCRIPTION @ MAGNETIC -1 0.4 !
 FUNCTION ZERO      298.15  0;                                         6000 N !
 FUNCTION UN_ASS    298.15  0;                                         6000 N !
$ ------------------------------------------------------------------------------
$ Element data
$ ------------------------------------------------------------------------------
$ Er
$
$ BCC_A2 added in unary 4.4
$
 PAR  G(HCP_A3,ER:VA),,                 +GHSERER;                3200 N 91Din !
 PAR  G(BCC_A2,ER:VA),,                 +GHSERER
             +4600-2.494353*T;                                   3200 N 00Nor1 !
 PAR  G(LIQUID,ER),,                    +GLIQER;                 3200 N 91Din !
$
 FUNCTION GHSERER   298.15  -8489.136+116.698964*T-28.3846744*T*LN(T)
       +9.95792E-04*T**2-9.52557E-07*T**3+9581*T**(-1);
      1802.00  Y  -445688.206+2233.10212*T-298.135131*T*LN(T)
       +0.065950553*T**2-3.041405E-06*T**3+1.23973199E+08*T**(-1);
      3200.00  N !
 FUNCTION GLIQER    298.15  +19382.102-10.241846*T+GHSERER;
       500.00  Y  +17912.678+0.355564*T-12.0761776*T*LN(T)
       -0.014414687*T**2+1.316517E-06*T**3-528122*T**(-1);
      1802.00  Y  +747.131+187.623024*T-38.702*T*LN(T);
      3200.00  N !
$ ------------------------------------------------------------------------------
$ Mn
$
 PAR  G(CBCC_A12,MN:VA),,               +GHSERMN;                2000 N 91Din !
 PAR  TC(CBCC_A12,MN:VA),,               -285.00;                2000 N 91Din !
 PAR  BMAG(CBCC_A12,MN:VA),,               -0.66;                2000 N 91Din !
 PAR  G(CUB_A13,MN:VA),,                +GCUBMN;                 2000 N 91Din !
 PAR  G(FCC_A1,MN:VA),,                 +GFCCMN;                 2000 N 91Din !
 PAR  TC(FCC_A1,MN:VA),,                -1620.00;                2000 N 91Din !
 PAR  BMAG(FCC_A1,MN:VA),,                 -1.86;                2000 N 91Din !
 PAR  G(BCC_A2,MN:VA),,                 +GBCCMN;                 2000 N 91Din !
 PAR  TC(BCC_A2,MN:VA),,                 -580.00;                2000 N 91Din !
 PAR  BMAG(BCC_A2,MN:VA),,                 -0.27;                2000 N 91Din !
 PAR  G(HCP_A3,MN:VA),,                 +GHCPMN;                 2000 N 91Din !
 PAR  TC(HCP_A3,MN:VA),,                -1620.00;                2000 N 91Din !
 PAR  BMAG(HCP_A3,MN:VA),,                 -1.86;                2000 N 91Din !
 PAR  G(LIQUID,MN),,                    +GLIQMN;                 2000 N 91Din !
$
 FUNCTION GHSERMN   298.15  -8115.28+130.059*T-23.4582*T*LN(T)
       -0.00734768*T**2+69827*T**(-1);
      1519.00  Y  -28733.41+312.2648*T-48*T*LN(T)+1.656847E+30*T**(-9);
      2000.00  N !
 FUNCTION GCUBMN    298.15  -5800.4+135.995*T-24.8785*T*LN(T)
       -0.00583359*T**2+70269*T**(-1);
      1519.00  Y  +442.65-0.9715*T+GHSERMN+2.310723E+30*T**(-9);
      2000.00  N !
 FUNCTION GFCCMN    298.15  -3439.3+131.884*T-24.5177*T*LN(T)
       -0.006*T**2+69600*T**(-1);
      1519.00  Y  +2663.31-2.5984*T+GHSERMN+2.205113E+30*T**(-9);
      2000.00  N !
 FUNCTION GBCCMN    298.15  -3235.3+127.85*T-23.7*T*LN(T)
       -0.00744271*T**2+60000*T**(-1);
      1519.00  Y  +5544.58-4.5605*T+GHSERMN-3.91695E+29*T**(-9);
      2000.00  N !
 FUNCTION GHCPMN    298.15  -4439.3+133.007*T-24.5177*T*LN(T)
       -0.006*T**2+69600*T**(-1);
      1519.00  Y  +1663.31-1.4754*T+GHSERMN+2.205113E+30*T**(-9);
      2000.00  N !
 FUNCTION GLIQMN    298.15  +17859.91-12.6208*T+GHSERMN-4.41929E-21*T**7;
      1519.00  Y  -9993.9+299.036*T-48*T*LN(T);
      2000.00  N !
$ ------------------------------------------------------------------------------
$ Binary system
$
$ H. Ye, J. Wang, Q. Chen, G. Rao, H. Zhou,
$ Mater. Genome Eng. Adv., 2, 39(2024).
$
$ Checked against paper. Checked at 6000 K.
$
 PAR  L(LIQUID,ER,MN;0),,               -17818.9992+3*T;,,            N 24Ye !
 PAR  L(LIQUID,ER,MN;1),,               +9990.85675-6*T;,,            N 24Ye !
 PAR  L(LIQUID,ER,MN;2),,               -2000;,,                      N 24Ye !
$
 PAR  L(BCC_A2,ER,MN:VA;0),,            +80000;,,                     N Same !
 PAR  L(HCP_A3,ER,MN:VA;0),,            +80000;,,                     N 24Ye !
$
 PAR  G(ERMN2_C14,ER:MN),,              +GHSERER+2*GHSERMN
             -8800-13.5*T;,,                                          N 24Ye !
$
 PAR  G(ER6MN23_D8A,ER:MN),,            +6*GHSERER+23*GHSERMN
             -82000-95*T;,,                                           N 24Ye !
 PAR  TC(ER6MN23_D8A,ER:MN),,             415.00;,,                   N 24Ye !
$ 1 mole of atoms below
$PAR  BMAG(ER6MN23_D8A,ER:MN),,             0.135;,,                  N 24Ye !
 PAR  BMAG(ER6MN23_D8A,ER:MN),,            38.344;,,                  N 24Ye !
$
 PAR  G(ERMN12_D2B,ER:MN),,             +GHSERER+12*GHSERMN
             -17000-18*T;,,                                           N 24Ye !
$ ------------------------------------------------------------------------------
$
$
 LIST-OF-REFERENCE
 NUMBER  SOURCE
  Null   'Unknown source'
  Same   'Same or similar interaction as in the corresponding stable phase'
  REFLAV 'Laves phase convention: G(LAVES,X:X)=+3*GHSERXX+15000'
  91Din  'A.T. Dinsdale, Calphad, 15, 317-425(1991).'
  00Nor1 'S. Norgren, J. Phase Equilib., 21, 148-56(2000),
          SGTE unary database V.4.4, 2001; Er, Ho'
  24Ye   'H. Ye, J. Wang, Q. Chen, G. Rao, H. Zhou,
          Mater. Genome Eng. Adv., 2, 39(2024); Er-Mn'
!
