$
$ Database for Mo-B from V.T. Witusiewicz et al. 2016.
$
$ V.T. Witusiewicz, A.A. Bondar, U. Hecht, O.A. Potazhevska, T.Ya. Velikanova,
$ J. Alloys Compds., 655, 336-52(2016).
$
$ Dataset created 2023.05.13 by Bengt Hallstedt.
$
$ ------------------------------------------------------------------------------
 TEMP-LIM 298.15 6000.00 !
$
$ELEMENT NAME  REF. STATE               ATOMIC MASS H298-H0    S298    !
$
 ELEMENT VA   VACUUM                      0.0          0.0      0.0    ! 
 ELEMENT B    BETA_RHOMBO_B              10.81      1222.0      5.9    ! 
 ELEMENT MO   BCC_A2                     95.94      4589.0     28.56   ! 
$ ------------------------------------------------------------------------------
$ Phase definitions
$
 PHASE LIQUID:L % 1 1 !
 CONST LIQUID:L : B MO : !
$
$ Fcc (cF4, Fm-3m) and MeX (cF8, Fm-3m)
$
 PHASE FCC_A1 %A 2 1 1 !
 CONST FCC_A1 : MO : VA : !
$
$ Bcc (cI2, Im-3m)
$
 PHASE BCC_A2 %B 2 1 3 !
 CONST BCC_A2 : MO : B VA% : !
$
$ Hcp (hP2, P6_3/mmc) and Me2X (NiAs-type, hP4, P6_3/mmc, B8_1)
$
 PHASE HCP_A3 %A 2 1 0.5 !
 CONST HCP_A3 : MO : B VA% : !
$
$ Prototype beta-B (hR105, R-3m)
$
 PHASE BETA_RHOMBO_B % 1 1 !
 CONST BETA_RHOMBO_B : B% MO : !
$
$ Prototype Al2Cu (tI12, I4/mcm)
$
 PHASE MO2B_C16 % 2 2 1 !
 CONST MO2B_C16 : MO% VA : B% VA : !
$
$ Prototype MoB (tI16, I4_1/amd), this is alpha-MoB
$
 PHASE MOB_BG % 2 1 1 !
 CONST MOB_BG : MO% VA : B% VA : !
$
$ Prototype CrB (oC8, Cmcm), this is beta-MoB
$
 PHASE MOB_B33 % 2 1 1 !
 CONST MOB_B33 : MO% VA : B% VA : !
$
$ Prototype AlB2 (hP3, P6/mmm)
$
 PHASE MOB2_C32 % 2 1 2 !
 CONST MOB2_C32 : MO% B : MO B% : !
$
$ Prototype Mo2B5 (hR6, R-3m)
$
 PHASE MO2B5_D8I % 2 0.32 0.68 !
 CONST MO2B5_D8I : MO% VA : B% VA : !
$
$ Prototype MoB4 (hP16, P6_3/mmc)
$
 PHASE MOB4 % 2 1 4 !
 CONST MOB4 : MO% VA : B% VA : !
$ ------------------------------------------------------------------------------
$ Defaults
$
 DEFINE-SYSTEM-DEFAULT ELEMENT 2 !
 DEFAULT-COM DEFINE_SYSTEM_ELEMENT VA !
 TYPE-DEF % SEQ * !
 TYPE-DEF A GES AMEND_PHASE_DESCRIPTION @ MAGNETIC -3 0.28 !
 TYPE-DEF B GES AMEND_PHASE_DESCRIPTION @ MAGNETIC -1 0.4 !
 FUNCTION ZERO      298.15  0;                                         6000 N !
 FUNCTION UN_ASS    298.15  0;                                         6000 N !
 FUNCTION R         298.15  +8.31451;                                  6000 N !
$ ------------------------------------------------------------------------------
$ Element data
$ ------------------------------------------------------------------------------
$ B
$
$ FCC_A1, HCP_A3, DIAMOND_A4 and GRAPHITE added in unary 3.0
$ BCC_A2 added in unary 4.1
$ GRAPHITE revised in unary 4.4 (using the value from COST 507)
$ FCC_A1, BCC_A2 and HCP_A3 removed in unary 5.0
$ ALPHA_RHOMBO_B added in unary 5.0
$
$ FCC_A1, BCC_A2 and HCP_A3 still in SGSOL 5.0
$ The value for FCC_A1 in COST (and SGTE) is possibly incorrect.
$
 PAR  G(BETA_RHOMBO_B,B),,              +GHSERBB;,,                   N 91Din !
$PAR  G(ALPHA_RHOMBO_B,B),,             +GALPBB;,,                    N 09SGUN !
$PAR  G(FCC_A1,B:VA),,                  +GHSERBB+43514-12.217*T;,,    N SGCOST !
$PAR  G(FCC_A1,B:VA),,                  +GHSERBB+50208-13.472*T;,,    N 94Hal !
$PAR  G(BCC_A2,B:VA),,                  +GHSERBB+43514-12.217*T;,,    N 94Hal !
$PAR  G(HCP_A3,B:VA),,                  +GHSERBB+50208-9.706*T;,,     N SGCOST !
$PAR  G(GRAPHITE,B),,                   +GHSERBB+10000-2*T;,,         N SGCOST !
$PAR  G(GRAPHITE,B),,                   +GHSERBB+5000;,,              N 96SGUN !
$PAR  G(DIAMOND_A4,B),,                 +GHSERBB+10;,,                N 99SGUN !
$PAR  G(DIAMOND_A4,B),,                 +GHSERBB+20;,,                N COST !
$PAR  G(DIAMOND_A4,B),,                 +GHSERBB;,,                   N 96SGUN !
 PAR  G(LIQUID,B),,                     +GLIQBB;,,                    N 91Din !
$
 PAR  G(MOB_BG,VA:B),,                  +GHSERBB+57158;,,             N 16Wit !
 PAR  G(MOB_B33,VA:B),,                 +GHSERBB+42000;,,             N 16Wit !
 PAR  G(MO2B_C16,VA:B),,                +GHSERBB+36438;,,             N 16Wit !
 PAR  G(MOB2_C32,B:B),,                 +3*GHSERBB+89628;,,           N 16Wit !
 PAR  G(MO2B5_D8I,VA:B),,               +0.68*GHSERBB+8946+2.486*T;,, N 16Wit !
 PAR  G(MOB4,VA:B),,                    +4*GHSERBB+2575+20.68*T;,,    N 16Wit !
$
 FUNCTION GHSERBB   298.15  -7735.284+107.111864*T-15.6641*T*LN(T)
       -0.006864515*T**2+6.18878E-07*T**3+370843*T**(-1);
      1100.00  Y  -16649.474+184.801744*T-26.6047*T*LN(T)
       -7.9809E-04*T**2-2.556E-08*T**3+1748270*T**(-1);
      2348.00  Y  -36667.582+231.336244*T-31.5957527*T*LN(T)
       -0.00159488*T**2+1.34719E-07*T**3+11205883*T**(-1);
      3000.00  Y  -21530.653+222.396264*T-31.4*T*LN(T);
      6000.00  N !
 FUNCTION GALPBB    298.15  -6076.24+86.648762*T-12.942464*T*LN(T)
       -7.089468E-3*T**2+0.659896E-6*T**3-45*T**(-1);
      1400.00  Y  +28477.506-106.789208*T+12.1072478*T*LN(T)
       -13.316875E-3*T**2+0.706895E-6*T**3-8002403*T**(-1);
      3000.00  Y  -25699.64+225.127135*T-31.4*T*LN(T);
      6000.00  N !
 FUNCTION GLIQBB    298.15  +48458.559-20.268025*T+GHSERBB;
       500.00  Y  +41119.703+82.101722*T-14.9827763*T*LN(T)
       -0.007095669*T**2+5.07347E-07*T**3+335484*T**(-1);
      2348.00  Y  +28842.012+200.94731*T-31.4*T*LN(T);
      3000.00  Y  +50372.665-21.448954*T+GHSERBB;
      6000.00  N !
 FUNCTION GFCCBB    298.15  +GHSERBB+43514-12.217*T;                   6000 N !
 FUNCTION GBCCBB    298.15  +GHSERBB+43514-12.217*T;                   6000 N !
$ ------------------------------------------------------------------------------
$ Mo
$
$ BETA_RHOMBO_B from 16Wit not included in unary
$
 PAR  G(BCC_A2,MO:VA),,                 +GHSERMO;                5000 N 91Din !
 PAR  G(FCC_A1,MO:VA),,                 +GHSERMO+15200+0.63*T;   5000 N 91Din !
 PAR  G(HCP_A3,MO:VA),,                 +GHSERMO+11550;          5000 N 91Din !
 PAR  G(BETA_RHOMBO_B,MO),,             +GHSERMO+5000;           5000 N 16Wit !
 PAR  G(LIQUID,MO),,                    +GLIQMO;                 5000 N 91Din !
$
 PAR  G(MOB_BG,MO:VA),,                 +GHSERMO+177610;,,            N 16Wit !
 PAR  G(MOB_B33,MO:VA),,                +GHSERMO+48000;,,             N 16Wit !
 PAR  G(MO2B_C16,MO:VA),,               +2*GHSERMO+11793+16.374*T;,,  N 16Wit !
 PAR  G(MOB2_C32,MO:MO),,               +3*GHSERMO+165000;,,          N 16Wit !
 PAR  G(MO2B5_D8I,MO:VA),,              +0.32*GHSERMO+9133;,,         N 16Wit !
 PAR  G(MOB4,MO:VA),,                   +GHSERMO+481565;,,            N 16Wit !
$
 FUNCTION GHSERMO   298.15  -7746.302+131.9197*T-23.56414*T*LN(T)
       -0.003443396*T**2+5.66283E-07*T**3+65812*T**(-1)-1.30927E-10*T**4;
      2896.00  Y  -30556.41+283.559746*T-42.63829*T*LN(T)-4.849315E+33*T**(-9);
      5000.00  N !
 FUNCTION GLIQMO    298.15  +41831.347-14.694912*T+GHSERMO+4.24519E-22*T**7;
      2896.00  Y  +3538.963+271.6697*T-42.63829*T*LN(T);
      5000.00  N !
 FUNCTION GFCCMO    298.15  +GHSERMO+15200+0.63*T;                     6000 N !
$ ------------------------------------------------------------------------------
$ Va
$
 PAR  G(MO2B_C16,VA:VA),,               +12.375*T;,,                  N 16Wit !
 PAR  G(MOB_BG,VA:VA),,                 +6216.8*T;,,                  N 16Wit !
 PAR  G(MOB_B33,VA:VA),,                +30*T;,,                      N 16Wit !
 PAR  G(MO2B5_D8I,VA:VA),,              +19.827*T;,,                  N 16Wit !
 PAR  G(MOB4,VA:VA),,                   +168.525*T;,,                 N 16Wit !
$ ------------------------------------------------------------------------------
$ Binary system
$
$ V.T. Witusiewicz, A.A. Bondar, U. Hecht, O.A. Potazhevska, T.Ya. Velikanova,
$ J. Alloys Compds., 655, 336-52(2016).
$
$ Checked against paper and author's tdb. Checked at 6000 K.
$
 PAR  L(LIQUID,B,MO;0),,                -181658+24.187*T;,,           N 16Wit !
 PAR  L(LIQUID,B,MO;1),,                +22000-16.103*T;,,            N 16Wit !
 PAR  L(LIQUID,B,MO;2),,                +29223;,,                     N 16Wit !
$
 PAR  G(BCC_A2,MO:B),,                  +GHSERMO+3*GBCCBB
             -240000+100*T;,,                                         N 16Wit !
 PAR  L(BCC_A2,MO:B,VA;0),,             -150000+75*T;,,               N 16Wit !
$
 PAR  L(BETA_RHOMBO_B,B,MO;0),,         -27457;,,                     N 16Wit !
$
 PAR  G(MO2B_C16,MO:B),,                +2*GHSERMO+GHSERBB
             -130149+26.286*T-3.6*T*LN(T)+0.0045*T**2;,,              N 16Wit !
 PAR  L(MO2B_C16,MO:B,VA;0),,           +11646;,,                     N 16Wit !
$
 PAR  G(MOB_BG,MO:B),,                  +GHSERMO+GHSERBB
             -109980-0.196*T+0.6*T*LN(T);,,                           N 16Wit !
 PAR  L(MOB_BG,MO:B,VA;0),,             -150000;,,                    N 16Wit !
$
 PAR  G(MOB_B33,MO:B),,                 +GHSERMO+GHSERBB
             -104634+1.894*T;,,                                       N 16Wit !
 PAR  L(MOB_B33,MO:B,VA;0),,            +6000;,,                      N 16Wit !
$
 PAR  G(MOB2_C32,MO:B),,                +GHSERMO+2*GHSERBB
             -110325-7.281*T;,,                                       N 16Wit !
 PAR  G(MOB2_C32,B:MO),,                +GHSERBB+2*GHSERMO-29580;,,   N 16Wit !
 PAR  L(MOB2_C32,B,MO:B;0),,            +1848975;,,                   N 16Wit !
 PAR  L(MOB2_C32,MO:B,MO;0),,           -588240+118.881*T;,,          N 16Wit !
$
 PAR  G(MO2B5_D8I,MO:B),,               +0.32*GHSERMO+0.68*GHSERBB
             -43973-1.328*T+0.35*T*LN(T);,,                           N 16Wit !
$
 PAR  G(MOB4,MO:B),,                    +GHSERMO+4*GHSERBB
             -149000+9.38*T;,,                                        N 16Wit !
$
$ Metastable
$
 PAR  G(HCP_A3,MO:B),,                  +GHSERMO+0.5*GHSERBB;,,       N 16Wit !
$ ------------------------------------------------------------------------------
$
$
 LIST-OF-REFERENCE
 NUMBER  SOURCE
  Null   'Unknown source'
  REFLAV 'Laves phase convention: G(LAVES,X:X)=+3*GHSERXX+15000'
  COST   'COST 507 database'
  SGCOST 'COST 507 database, SGTE unary database V.3.0, 1996; Al, B, Nd, Ti, Zn'
  91Din  'A.T. Dinsdale, Calphad, 15, 317-425(1991).'
  94Hal  'B. Hallemans, P. Wollants, J.R. Roos,
          Z. Metallkd., 85, 676-82(1994), SGTE unary database V.4.1, 1999; B'
  96SGUN 'SGTE unary database V.3.0, 1996.'
  99SGUN 'SGTE unary database V.4.1, 1999.'
  09SGUN 'SGTE unary database V.5.0, 2009.'
  16Wit  'V.T. Witusiewicz, A.A. Bondar, U. Hecht, O.A. Potazhevska,
          T.Ya. Velikanova, J. Alloys Compds., 655, 336-52(2016); Mo, Mo-B'
!
