$
$ Database for Yb-Te from H. Ghamri et al. 2015.
$
$ H. Ghamri, Y. Djaballah, A. Belgacem-Bouzida, 
$ J. Alloys Compd., 643, 121-28(2015).
$
$ Dataset created 2018.05.01 by Bengt Hallstedt.
$ 2021.02.05: Modified for use with GES6.
$
$ ------------------------------------------------------------------------------
 TEMP-LIM 298.15 6000.00 !
$
$ELEMENT NAME  REF. STATE               ATOMIC MASS H298-H0    S298    !
$
 ELEMENT VA   VACUUM                      0.0          0.0      0.0    ! 
 ELEMENT TE   HEXAGONAL_A8              127.60      6080.      49.221  ! 
 ELEMENT YB   FCC_A1                    173.04      6711.136   59.8312 ! 
$ ------------------------------------------------------------------------------
$ Phase definitions
$
 PHASE LIQUID:L % 1 1 !
 CONST LIQUID:L : TE YB : !
$
$ Fcc (cF4, Fm-3m) and MeX (cF8, Fm-3m)
$
 PHASE FCC_A1 %A 2 1 1 !
 CONST FCC_A1 : YB : VA : !
$
$ Bcc (cI2, Im-3m)
$
 PHASE BCC_A2 %B 2 1 3 !
 CONST BCC_A2 : YB : VA : !
$
$ Hcp (hP2, P6_3/mmc) and Me2X (NiAs-type, hP4, P6_3/mmc, B8_1)
$
 PHASE HCP_A3 %A 2 1 0.5 !
 CONST HCP_A3 : YB : VA: !
$
$ Prototype gamma-Se (hP3, P3_121)
$ The phase is named HEXAGONAL_A8 in the SGTE unary database and
$ TRIGONAL_A8 in LB.
$
 PHASE HEXAGONAL_A8 % 1 1 !
 CONST HEXAGONAL_A8 : TE : !
$
$ Prototype NaCl (cF8, Fm-3m)
$
 PHASE YBTE_B1 % 2 1 1 !
 CONST YBTE_B1 : YB : TE : !
$ ------------------------------------------------------------------------------
$ Defaults
$
 DEFINE-SYSTEM-DEFAULT ELEMENT 2 !
 DEFAULT-COM DEFINE_SYSTEM_ELEMENT VA !
 TYPE-DEF % SEQ * !
 TYPE-DEF A GES AMEND_PHASE_DESCRIPTION @ MAGNETIC -3 0.28 !
 TYPE-DEF B GES AMEND_PHASE_DESCRIPTION @ MAGNETIC -1 0.4 !
 FUNCTION ZERO      298.15  0;                                         6000 N !
 FUNCTION UN_ASS    298.15  0;                                         6000 N !
 FUNCTION R         298.15  +8.31451;                                  6000 N !
$ ------------------------------------------------------------------------------
$ Element data
$ ------------------------------------------------------------------------------
$ Te
$
$ HEXAGONAL_A8 and LIQUID revised in unary 3.0
$
 PAR  G(HEXAGONAL_A8,TE),,              +GHSERTE;                2000 N 95Dav !
 PAR  G(LIQUID,TE),,                    +GLIQTE;                 2000 N 95Dav !
$
 FUNCTION GHSERTE   298.15  -10544.679+183.372894*T-35.6687*T*LN(T)
       +0.01583435*T**2-5.240417E-06*T**3+155015*T**(-1);
       722.66  Y  +9160.595-129.265373*T+13.004*T*LN(T)
       -0.0362361*T**2+5.006367E-06*T**3-1286810*T**(-1);
      1150.00  Y  -12781.349+174.901226*T-32.5596*T*LN(T);
      1600.00  N !
 FUNCTION GLIQTE    298.15  -17554.731+685.877639*T-126.318*T*LN(T)
       +0.2219435*T**2-9.42075E-05*T**3+827930*T**(-1);
       626.49  Y  -3165763.48+46756.357*T-7196.41*T*LN(T)
       +7.09775*T**2-0.00130692833*T**3+2.58051E+08*T**(-1);
       722.66  Y  +180326.959-1500.57909*T+202.743*T*LN(T)
       -0.142016*T**2+1.6129733E-05*T**3-24238450*T**(-1);
      1150.00  Y  +19110.036-26.1929273*T+GHSERTE;
      1600.00  N !
$ ------------------------------------------------------------------------------
$ Yb
$
$ HCP_A3 added in unary 5.0
$
 PAR  G(FCC_A1,YB:VA),,                 +GHSERYB;                2000 N 91Din !
 PAR  G(BCC_A2,YB:VA),,                 +GBCCYB;                 2000 N 91Din !
 PAR  G(HCP_A3,YB:VA),,                 +GHSERYB+5000;           2000 N 06Guo !
 PAR  G(LIQUID,YB),,                    +GLIQYB;                 2000 N 91Din !
$
 FUNCTION GHSERYB   298.15  -9370.941+189.327664*T-40.0791*T*LN(T)
       +0.04227115*T**2-2.2242E-05*T**3;
       553.00  Y  -8192.154+121.065655*T-26.7591*T*LN(T)-0.00256065*T**2;
      1033.00  Y  +16034.89-89.478241*T+2.7623966*T*LN(T)
       -0.017961331*T**2+1.421719E-06*T**3-3631462*T**(-1);
      2000.00  N !
 FUNCTION GBCCYB    298.15  -965.99-21.293677*T-3.8534432*T*LN(T)
       -0.030009694*T**2+4.743871E-06*T**3-334650*T**(-1);
      1033.00  Y  -13368.113+188.313864*T-36.1079*T*LN(T);
      1097.00  Y  -3911.847+113.174165*T-25.7402233*T*LN(T)
       -0.004743348*T**2+3.63044E-07*T**3-1553668*T**(-1);
      2000.00  N !
 FUNCTION GLIQYB    298.15  +7030.788-40.615571*T-1.8061816*T*LN(T)
       -0.03250938*T**2+5.136665E-06*T**3-370554*T**(-1);
      1033.00  Y  -6445.835+186.690398*T-36.7774*T*LN(T);
      2000.00  N !
 FUNCTION GHCPYB    298.15  +GHSERYB+5000;                             2000 N !
$ ------------------------------------------------------------------------------
$ Binary system
$
$ H. Ghamri, Y. Djaballah, A. Belgacem-Bouzida, 
$ J. Alloys Compd., 643, 121-28(2015).
$
$ Checked against paper and author's tdb. Checked at 6000 K.
$
 PAR  L(LIQUID,TE,YB;0),,               -163435-81.639*T;,,           N 15Gha !
 PAR  L(LIQUID,TE,YB;1),,               -1930-37.514*T;,,             N 15Gha !
$
 PAR  G(YBTE_B1,YB:TE),,                +GHSERYB+GHSERTE
             -309918+40.42*T;,,                                       N 15Gha !
$ ------------------------------------------------------------------------------
$
$
 LIST-OF-REFERENCE
 NUMBER  SOURCE
  Null   'Unknown source'
  Same   'Same or similar interaction as in the corresponding stable phase'
  COST   'COST 507 database'
  91Din  'A.T. Dinsdale, Calphad, 15, 317-425(1991).'
  95Dav  'A.V. Davydov, M.H. Rand, B.B. Argent, Calphad, 19, 375-87(1995),
          SGTE unary database V.3.0, 1996; Te'
  06Guo  'C. Guo, Z. Du, J. Alloys Compd., 422, 102-8(2006),
          SGTE unary database V.5.0, 2009; Yb'
  15Gha  'H. Ghamri, Y. Djaballah, A. Belgacem-Bouzida, 
          J. Alloys Compd., 643, 121-28(2015); Yb-Te'
!
