$
$ Database for Cr-Sn from P. Lafaye et al. 2019.
$
$ P. Lafaye, C. Toffolon-Masclet, J.-C. Crivello, J.-M. Joubert,
$ Calphad, 64, 43-54(2019).
$
$ Dataset created 2020.08.29 by Bengt Hallstedt.
$
$ The temperature dependence of the interactions has been much reduced
$ from 17Laf.
$
$ The Sn solubility in bcc-Cr is now negligible, which may be in conflict
$ with experimental data.
$
$ ------------------------------------------------------------------------------
 TEMP-LIM 298.15 6000.00 !
$
$ELEMENT NAME  REF. STATE               ATOMIC MASS H298-H0    S298    !
$
 ELEMENT VA   VACUUM                      0.0          0.0      0.0    ! 
 ELEMENT CR   BCC_A2                     51.996     4050.0     23.5429 ! 
 ELEMENT SN   BCT_A5                    118.69      6323.      51.18   ! 
$ ------------------------------------------------------------------------------
$ Phase definitions
$
 PHASE LIQUID:L % 1 1 !
 CONST LIQUID:L : CR SN : !
$
$ Fcc (cF4, Fm-3m) and MeX (cF8, Fm-3m)
$
 PHASE FCC_A1 %A 2 1 1 !
 CONST FCC_A1 : CR SN : VA : !
$
$ Bcc (cI2, Im-3m)
$
 PHASE BCC_A2 %B 2 1 3 !
 CONST BCC_A2 : CR% SN : VA : !
$
$ Hcp (hP2, P6_3/mmc) and Me2X (NiAs-type, hP4, P6_3/mmc, B8_1)
$
 PHASE HCP_A3 %A 2 1 0.5 !
 CONST HCP_A3 : CR SN : VA : !
$
$ Prototype C (cF8, Fd-3m)
$
 PHASE DIAMOND_A4 % 1 1 !
 CONST DIAMOND_A4 : SN : !
$
$ Prototype beta-Sn (tI4, I4_1/amd)
$
 PHASE BCT_A5 % 1 1 !
 CONST BCT_A5 : SN : !
$ ------------------------------------------------------------------------------
$ Defaults
$
 DEFINE-SYSTEM-DEFAULT ELEMENT 2 !
 DEFAULT-COM DEFINE_SYSTEM_ELEMENT VA !
 TYPE-DEF % SEQ * !
 TYPE-DEF A GES AMEND_PHASE_DESCRIPTION @ MAGNETIC -3 0.28 !
 TYPE-DEF B GES AMEND_PHASE_DESCRIPTION @ MAGNETIC -1 0.4 !
 FUNCTION ZERO      298.15  0;                                         6000 N !
 FUNCTION UN_ASS    298.15  0;                                         6000 N !
 FUNCTION R         298.15  +8.31451;                                  6000 N !
$ ------------------------------------------------------------------------------
$ Element data
$ ------------------------------------------------------------------------------
$ Cr
$
 PAR  G(BCC_A2,CR:VA),,                 +GHSERCR;,,                   N 91Din !
 PAR  TC(BCC_A2,CR:VA),,                 -311.50;,,                   N 91Din !
 PAR  BM(BCC_A2,CR:VA),,                   -0.008;,,                  N 91Din !
 PAR  G(FCC_A1,CR:VA),,                 +GHSERCR+7284+0.163*T;,,      N 91Din !
 PAR  TC(FCC_A1,CR:VA),,                -1109.00;,,                   N 91Din !
 PAR  BM(FCC_A1,CR:VA),,                   -2.46;,,                   N 91Din !
 PAR  G(HCP_A3,CR:VA),,                 +GHSERCR+4438;,,              N 91Din !
 PAR  TC(HCP_A3,CR:VA),,                -1109.00;,,                   N 91Din !
 PAR  BM(HCP_A3,CR:VA),,                   -2.46;,,                   N 91Din !
$PAR  G(CUB_A13,CR:VA),,                +GHSERCR+15899+0.6276*T;,,    N 91Din !
$PAR  G(CBCC_A12,CR:VA),,               +GHSERCR+11087+2.7196*T;,,    N 91Din !
 PAR  G(LIQUID,CR),,                    +GLIQCR;,,                    N 91Din !
$
 FUNCTION GHSERCR   298.15  -8856.94+157.48*T-26.908*T*LN(T)
       +0.00189435*T**2-1.47721E-06*T**3+139250*T**(-1);
      2180.00  Y  -34869.344+344.18*T-50*T*LN(T)-2.88526E+32*T**(-9);
      6000.00  N !
 FUNCTION GLIQCR    298.15  +24339.955-11.420225*T+GHSERCR+2.37615E-21*T**7;
      2180.00  Y  -16459.984+335.616316*T-50*T*LN(T);
      6000.00  N !
 FUNCTION GFCCCR    298.15  +GHSERCR+7284+0.163*T;                     6000 N !
$ ------------------------------------------------------------------------------
$ Sn
$
$ FCC_A1 revised in unary 3.0
$ HCP_A3 revised in unary 4.1
$ TETRAGONAL_A6 added in unary 4.1
$ CBCC_A12 and CUB_A13 added in unary 4.4
$ FCC_A1 modified in unary 5.0
$ DHCP and TET_ALPHA1_A6 added in unary 5.0
$
$ The DHCP phase is labelled D0_24 in 03Liu and alpha-prime in 92Ans. The
$ phase is present between the fcc and hcp phases in the Au-Sn and Au-In
$ systems.
$
 PAR  G(BCT_A5,SN)              100.00  +GHSERSN;                3000 N 91Din !
 PAR  G(DIAMOND_A4,SN)          100.00  +GDIASN;                 3000 N 91Din !
 PAR  G(FCC_A1,SN:VA)           100.00  +GHSERSN+5510-8.46*T;    3000 N 89Fec !
$PAR  G(FCC_A1,SN:VA)           100.00  +GHSERSN+4150-5.2*T;     3000 N 91Din !
 PAR  G(BCC_A2,SN:VA)           100.00  +GHSERSN+4400-6*T;       3000 N 91Din !
 PAR  G(HCP_A3,SN:VA)           100.00  +GHSERSN+3900-7.646*T;   3000 N Ansar !
$PAR  G(HCP_A3,SN:VA)           100.00  +GHSERSN+3900-4.4*T;     3000 N 91Din !
$PAR  G(DHCP,SN)                100.00  +GHSERSN+3803.52-3.46*T; 3000 N 03Liu !
$PAR  G(RHOMBOHEDRAL_A7,SN)     100.00  +GHSERSN+2035;           3000 N 91Din !
$PAR  G(TETRAGONAL_A6,SN)       100.00  +GHSERSN+5387-8.26212*T; 3000 N 99Ans !
$PAR  G(CBCC_A12,SN:VA)         100.00  +GHSERSN+2000;           3000 N 01Mie !
$PAR  G(CUB_A13,SN:VA)          100.00  +GHSERSN+2000;           3000 N 01Mie !
$PAR  G(TET_ALPHA1_A6,SN)       100.00  +GHSERSN+5510-8.46*T;    3000 N 99Ans !
 PAR  G(LIQUID,SN)              100.00  +GLIQSN;                 3000 N 91Din !
$
 FUNCTION GHSERSN   100.00  -7958.517+122.765451*T-25.858*T*LN(T)
       +5.1185E-04*T**2-3.192767E-06*T**3+18440*T**(-1);
       250.00  Y  -5855.135+65.443315*T-15.961*T*LN(T)
       -0.0188702*T**2+3.121167E-06*T**3-61960*T**(-1);
       505.08  Y  +2524.724+4.005269*T-8.2590486*T*LN(T)
       -0.016814429*T**2+2.623131E-06*T**3-1081244*T**(-1)-1.2307E+25*T**(-9);
       800.00  Y  -8256.959+138.99688*T-28.4512*T*LN(T)-1.2307E+25*T**(-9);
      3000.00  N !
 FUNCTION GDIASN    100.00  -9579.608+114.007785*T-22.972*T*LN(T)
       -0.00813975*T**2+2.7288E-06*T**3+25615*T**(-1);
       298.15  Y  -9063.001+104.84654*T-21.5750771*T*LN(T)
       -0.008575282*T**2+1.784447E-06*T**3-2544*T**(-1);
       800.00  Y  -10909.351+147.396535*T-28.4512*T*LN(T);
      3000.00  N !
 FUNCTION GLIQSN    100.00  +7103.092-14.087767*T+GHSERSN+1.47031E-18*T**7;
       505.08  Y  +6971.586-13.814383*T+GHSERSN+1.2307E+25*T**(-9);
       800.00  Y  -1285.372+125.182498*T-28.4512*T*LN(T);
      3000.00  N !
 FUNCTION GBCCSN    298.15  +GHSERSN+4400-6*T;                         3000 N !
$ ------------------------------------------------------------------------------
$ Binary system
$
$ P. Lafaye, C. Toffolon-Masclet, J.-C. Crivello, J.-M. Joubert,
$ Calphad, 64, 43-54(2019).
$
$ Checked against paper and author's tdb. Checked at 6000 K.
$
$ The temperature dependence of the interactions has been much reduced
$ from 17Laf.
$
$ The Sn solubility in bcc-Cr is now negligible, which may be in conflict
$ with experimental data.
$
 PAR  L(LIQUID,CR,SN;0),,               +102321.4-57.46*T;,,          N 19Laf !
 PAR  L(LIQUID,CR,SN;1),,               +11102;,,                     N 19Laf !
 PAR  L(LIQUID,CR,SN;2),,               -20421.1;,,                   N 19Laf !
 PAR  L(LIQUID,CR,SN;3),,               -13611.1;,,                   N 19Laf !
$
 PAR  L(BCC_A2,CR,SN:VA;0),,            +240000;,,                    N 19Laf !
 PAR  L(BCC_A2,CR,SN:VA;1),,            +105000;,,                    N 19Laf !
$
$ Metastable
$
 PAR  L(FCC_A1,CR,SN:VA;0),,            +147582+8*T;,,                N 19Laf !
 PAR  L(FCC_A1,CR,SN:VA;1),,            +184890;,,                    N 19Laf !
$
 PAR  L(HCP_A3,CR,SN:VA;0),,            +144328;,,                    N 19Laf !
 PAR  L(HCP_A3,CR,SN:VA;1),,            +129100;,,                    N 19Laf !
$ ------------------------------------------------------------------------------
$
 ASSESSED_SYSTEM
  CR-SN(TDB -* +LIQUID +BCC_A2 +BCT_A5 ;G5 C_S:LIQ/SN MAJ:LIQ/CR
  ;P3 TMM:300/2200 STP:.5/1650) !
$
$
 LIST-OF-REFERENCE
 NUMBER  SOURCE
  Null   'Unknown source'
  Same   'Same or similar interaction as in the corresponding stable phase'
  COST   'COST 507 database'
  Ansar  'Himo Ansara, unpublished, SGTE unary database V.4.1, 1999; Sn'
  89Fec  'H.J. Fecht, M.X. Zhang, Y.A. Chang, J.H. Perepezko,
          Metall. Trans. A, 20A, 795-803(1989),
          SGTE unary database V.3.0, 1996; Sn'
  91Din  'A.T. Dinsdale, Calphad, 15, 317-425(1991).'
  99Ans  'I. Ansara, S.G. Fries, H.L. Lukas, unpublished, 1999,
          SGTE unary database V.5.0, 2009; In, Sn'
  01Mie  'J. Miettinen, Calphad, 25, 43-58(2001),
          SGTE unary database V.4.4, 2001; Sn, Zn'
  03Liu  'H.S. Liu, C.L. Liu, K. Ishida, Z.P. Jin, J. Electron. Mater.,
          32, 1290-96(2003), SGTE unary database V.5.0, 2009; Sn'
  19Laf  'P. Lafaye, C. Toffolon-Masclet, J.-C. Crivello, J.-M. Joubert,
          Calphad, 64, 43-54(2019); Cr-Sn'
!
