$
$ Database for Sc-O from M. Zinkevich 2007.
$
$ M. Zinkevich, Prog. Mater. Sci., 52, 597-647(2007).
$
$ Dataset created 2024.10.15 by Bengt Hallstedt.
$
$ This dataset contains the Sc2O3 data from 07Zin. According to Predel
$ (Massalski) there is a high O solubility in hcp and bcc Sc (similar to Y-O).
$ This is not modelled in this dataset.
$
$ Gas phase (except O2) is not included.
$
$ ------------------------------------------------------------------------------
 TEMP-LIM 298.15 6000.00 !
$
$ELEMENT NAME  REF. STATE               ATOMIC MASS H298-H0    S298    !
$
 ELEMENT /-   ELECTRON_GAS                0.0          0.0      0.0    ! 
 ELEMENT VA   VACUUM                      0.0          0.0      0.0    ! 
 ELEMENT O    1/2_MOLE_O2(G)             15.999     4341.0    102.52   ! 
 ELEMENT SC   HCP_A3                     44.9559    5217.448   34.6435 ! 
$ ------------------------------------------------------------------------------
$ Species
$
 SPECIE  O-2                                O/-2 !
 SPECIE  O2                                 O2 !
 SPECIE  SC+3                               SC/+3 !
$ ------------------------------------------------------------------------------
$ Phase definitions
$
 PHASE ION:Y % 2 1 1 !
 CONST ION:Y : SC+3 : O-2 VA : !
$
$ Fcc (cF4, Fm-3m) and MeX (cF8, Fm-3m)
$
 PHASE FCC_A1 %A 2 1 1 !
 CONST FCC_A1 : SC : VA : !
$
$ Bcc (cI2, Im-3m)
$
 PHASE BCC_A2 %B 2 1 3 !
 CONST BCC_A2 : SC : VA : !
$
$ Hcp (hP2, P6_3/mmc) and Me2X (NiAs-type, hP4, P6_3/mmc, B8_1)
$
 PHASE HCP_A3 %A 2 1 0.5 !
 CONST HCP_A3 : SC : VA : !
$
$ Prototype Mn2O3 (cI80, Ia-3)
$
 PHASE C_R2O3_D53:I % 2 2 3 !
 CONST C_R2O3_D53:I : SC+3 : O-2 : !
$
 PHASE O2GAS % 1 1 !
 CONST O2GAS : O2 : !
$ ------------------------------------------------------------------------------
$ Defaults
$
 DEFINE-SYSTEM-DEFAULT ELEMENT 2 !
 DEFAULT-COM DEFINE_SYSTEM_ELEMENT VA /- !
 TYPE-DEF % SEQ * !
 TYPE-DEF A GES AMEND_PHASE_DESCRIPTION @ MAGNETIC -3 0.28 !
 TYPE-DEF B GES AMEND_PHASE_DESCRIPTION @ MAGNETIC -1 0.4 !
 FUNCTION ZERO      298.15  0;                                         6000 N !
 FUNCTION UN_ASS    298.15  0;                                         6000 N !
 FUNCTION R         298.15  +8.31451;                                  6000 N !
 FUNCTION RTLNP     298.15  +8.31451*T*LN(1E-05*P);                    6000 N !
$ ------------------------------------------------------------------------------
$ Element data
$ ------------------------------------------------------------------------------
$ O
$
$ GHSEROO modified in unary 3.0
$
 PAR  G(O2GAS,O2),,                     +2*GHSEROO+RTLNP;,,           N 91Din !
$
$ 1/2 O2(g)
 FUNCTION GHSEROO   298.15  -3480.87-25.503038*T-11.1355*T*LN(T)
       -0.005098875*T**2+6.61845833E-07*T**3-38365*T**(-1);
      1000.00  Y  -6568.763+12.659879*T-16.8138*T*LN(T)
       -5.957975E-04*T**2+6.781E-09*T**3+262905*T**(-1);
      3300.00  Y  -13986.728+31.259624*T-18.9536*T*LN(T)
       -4.25243E-04*T**2+1.0721E-08*T**3+4383200*T**(-1);
      6000.00  N !
$ ------------------------------------------------------------------------------
$ Sc
$
$ FCC_A1 and DHCP added in unary 4.4
$
 PAR  G(HCP_A3,SC:VA),,                 +GHSERSC;                3200 N 91Din !
 PAR  G(BCC_A2,SC:VA),,                 +GBCCSC;                 3200 N 91Din !
 PAR  G(FCC_A1,SC:VA),,                 +GHSERSC+5000;           3200 N 99Cac !
$PAR  G(DHCP,SC),,                      +GHSERSC
$            +1200+0.4157255*T;                                  3200 N 00Nor2 !
$PAR  G(LIQUID,SC),,                    +GLIQSC;                 3200 N 91Din !
$
 PAR  G(ION,SC+3:VA),,                  +GLIQSC;                 3200 N 91Din !
$
 FUNCTION GHSERSC   298.15  -8689.547+153.48097*T-28.1882*T*LN(T)
       +0.00321892*T**2-1.64531E-06*T**3+72177*T**(-1);
       800.00  Y  -7511.295+132.759582*T-24.9132*T*LN(T)
       -5.73295E-04*T**2-8.59345E-07*T**3;
      1608.00  Y  +261143.04-1817.92245*T+241.441051*T*LN(T)
       -0.117529396*T**2+8.7398E-06*T**3-50607159*T**(-1);
      2000.00  Y  -30515.246+286.474338*T-44.2249*T*LN(T);
      3200.00  N !
 FUNCTION GBCCSC    298.15  +1979.728-1.024135*T+GHSERSC;
      1000.00  Y  +230161.408-2004.05469*T+276.76664*T*LN(T)
       -0.167120107*T**2+1.5637371E-05*T**3-33783257*T**(-1);
      1608.00  Y  -25928.011+283.642312*T-44.2249*T*LN(T);
      2000.00  Y  +4587.235-2.832026*T+GHSERSC;
      3200.00  N !
 FUNCTION GLIQSC    298.15  +6478.66+45.427539*T-10.7967803*T*LN(T)
       -0.020636524*T**2+2.13106E-06*T**3-158106*T**(-1);
      1608.00  Y  -11832.111+275.871695*T-44.2249*T*LN(T);
      3200.00  N !
$ ------------------------------------------------------------------------------
$ Binary system
$
$ M. Zinkevich, Prog. Mater. Sci., 52, 597-647(2007).
$
$ Checked against paper. Checked at 6000 K.
$
$ This dataset contains the Sc2O3 data from 07Zin. According to Predel
$ (Massalski) there is a high O solubility in hcp and bcc Sc (similar to Y-O).
$ This is not modelled in this dataset.
$
$ Gas phase (except O2) is not included.
$
 PAR  G(ION,SC+3:O-2),,                 +GSC2O3L;,,                   N 07Zin !
 PAR  L(ION,SC+3:O-2,VA;0),,            +UN_ASS;,,                    N !
$
 PAR  G(C_R2O3_D53,SC+3:O-2),,          +GSC2O3C;,,                   N 07Zin !
$
 FUNCTION GSC2O3C   298.15  -1955472+751.4893*T-120.843*T*LN(T)
       -0.004227*T**2+1826000*T**(-1)-5.2E+07*T**(-2);
      6000.00  N !
 FUNCTION GSC2O3A   298.15  +GSC2O3C+50000-5.720*T;                    6000 N !
 FUNCTION GSC2O3B   298.15  +GSC2O3C+31378-3.058*T;                    6000 N !
 FUNCTION GSC2O3H   298.15  +GSC2O3C+28829-9.654*T;                    6000 N !
 FUNCTION GSC2O3X   298.15  +GSC2O3C+42868-14.223*T;                   6000 N !
 FUNCTION GSC2O3L   298.15  +GSC2O3C+100416-36.409*T;                  6000 N !
$ ------------------------------------------------------------------------------
$
$
 LIST-OF-REFERENCE
 NUMBER  SOURCE
  Null   'Unknown source'
  COST   'COST 507 database'
  91Din  'A.T. Dinsdale, Calphad, 15, 317-425(1991).'
  99Cac  'G. Cacciamani, P. Riani, G. Borzone, N. Parodi, A. Saccone, R. Ferro,
          A. Pisch, R. Schmid-Fetzer, Intermetallics, 7, 101-8(1999),
          SGTE unary database V.4.4, 2001; Sc'
  00Nor2 'S. Norgren, PhD Thesis, KTH, Stockholm, 2000,
          SGTE unary database V.4.4, 2001; Nd, Sc'
  07Zin  'M. Zinkevich, Prog. Mater. Sci., 52, 597-647(2007); Sc-O'
!
