$
$ Database for Co-H from K.-H. Kim et al. 2012.
$
$ K.-H. Kim, J.-H. Shim, B.-J. Lee, Int. J. Hydrogen Energy, 37, 7836-47(2012).
$
$ Dataset created 2018.06.09 by Bengt Hallstedt.
$ 2020.12.25: Modified for use with GES6.
$
$ Non-standard 1:6 model used for BCC_A2.
$
$ ------------------------------------------------------------------------------
 TEMP-LIM 298.15 6000.00 !
$
$ELEMENT NAME  REF. STATE               ATOMIC MASS H298-H0    S298    !
$
 ELEMENT VA   VACUUM                      0.0          0.0      0.0    ! 
 ELEMENT CO   HCP_A3                     58.9332    4765.567   30.0400 ! 
 ELEMENT H    1/2_MOLE_H2(G)              1.0079    4234.      65.285  ! 
$ ------------------------------------------------------------------------------
$ Species
$
 SPECIE  H2                                 H2 !
$ ------------------------------------------------------------------------------
$ Phase definitions
$
 PHASE LIQUID:L % 1 1 !
 CONST LIQUID:L : CO H : !
$
$ Fcc (cF4, Fm-3m) and MeX (cF8, Fm-3m)
$
 PHASE FCC_A1 %A 2 1 1 !
 CONST FCC_A1 : CO : H VA% : !
$
$ Bcc (cI2, Im-3m)
$
 PHASE BCC_A2 %B 2 1 6 !
 CONST BCC_A2 : CO : H VA% : !
$
$ Hcp (hP2, P6_3/mmc)
$
 PHASE HCP_A3 %A 2 1 0.5 !
 CONST HCP_A3 : CO : H VA% : !
$
 PHASE GAS:G % 1 1 !
 CONST GAS:G : H H2 : !
$ ------------------------------------------------------------------------------
$ Defaults
$
 DEFINE-SYSTEM-DEFAULT ELEMENT 2 !
 DEFAULT-COM DEFINE_SYSTEM_ELEMENT VA !
 TYPE-DEF % SEQ * !
 TYPE-DEF A GES AMEND_PHASE_DESCRIPTION @ MAGNETIC -3 0.28 !
 TYPE-DEF B GES AMEND_PHASE_DESCRIPTION @ MAGNETIC -1 0.4 !
 FUNCTION ZERO      298.15  0;                                         6000 N !
 FUNCTION UN_ASS    298.15  0;                                         6000 N !
 FUNCTION R         298.15  +8.31451;                                  6000 N !
 FUNCTION RTLNP     298.15  +8.31451*T*LN(1E-05*P);                    6000 N !
$ ------------------------------------------------------------------------------
$ Element data
$ ------------------------------------------------------------------------------
$ Co
$
 PAR  G(HCP_A3,CO:VA),,                 +GHSERCO;,,                   N 91Din !
 PAR  TC(HCP_A3,CO:VA),,                 1396.00;,,                   N 91Din !
 PAR  BM(HCP_A3,CO:VA),,                    1.35;,,                   N 91Din !
 PAR  G(FCC_A1,CO:VA),,                 +GHSERCO
             +427.591-0.615248*T;,,                                   N 91Din !
 PAR  TC(FCC_A1,CO:VA),,                 1396.00;,,                   N 91Din !
 PAR  BM(FCC_A1,CO:VA),,                    1.35;,,                   N 91Din !
 PAR  G(BCC_A2,CO:VA),,                 +GHSERCO+2938-0.7138*T;,,     N 91Din !
 PAR  TC(BCC_A2,CO:VA),,                 1450.00;,,                   N 91Din !
 PAR  BM(BCC_A2,CO:VA),,                    1.35;,,                   N 91Din !
$PAR  G(CBCC_A12,CO:VA),,               +GHSERCO+4155;,,              N 91Din !
$PAR  G(CUB_A13,CO:VA),,                +GHSERCO+3155;,,              N 91Din !
 PAR  G(LIQUID,CO),,                    +GLIQCO;,,                    N 91Din !
$
 FUNCTION GHSERCO   298.15  +310.241+133.36601*T-25.0861*T*LN(T)
       -0.002654739*T**2-1.7348E-07*T**3+72527*T**(-1);
      1768.00  Y  -17197.666+253.28374*T-40.5*T*LN(T)+9.3488E+30*T**(-9);
      6000.00  N !
 FUNCTION GLIQCO    298.15  +15085.037-8.931932*T+GHSERCO-2.19801E-21*T**7;
      1768.00  Y  -846.61+243.599944*T-40.5*T*LN(T);
      6000.00  N !
$ ------------------------------------------------------------------------------
$ H
$
$ H is not included in unary
$
 PAR  G(LIQUID,H),,                     +0.5*GHSERH2
             +8035+25*T+2*T*LN(T);,,                                  N 04Qiu !
$
 PAR  G(GAS,H),,                        +F10383T+RTLNP;,,             N 97SUB !
 PAR  G(GAS,H2),,                       +GHSERH2+RTLNP;,,             N 97SUB !
$
$ H(g)
 FUNCTION F10383T   298.15  +211801.621+24.4989821*T-20.78611*T*LN(T);
      6000.00  N !
$ H2(g)
 FUNCTION GHSERH2   298.15  -9522.9741+78.5273879*T-31.35707*T*LN(T)
       +0.0027589925*T**2-7.46390667E-07*T**3+56582.3*T**(-1);
      1000.00  Y  +180.108664-15.6128256*T-17.84857*T*LN(T)
       -0.00584168*T**2+3.14618667E-07*T**3-1280036*T**(-1);
      2100.00  Y  -18840.1663+92.3120255*T-32.05082*T*LN(T)
       -0.0010728235*T**2+1.14281783E-08*T**3+3561002.5*T**(-1);
      6000.00  N !
$ ------------------------------------------------------------------------------
$ Binary system
$
$ K.-H. Kim, J.-H. Shim, B.-J. Lee, Int. J. Hydrogen Energy, 37, 7836-47(2012).
$
$ Checked against paper.
$
$ Non-standard 1:6 model used for BCC_A2.
$
 PAR  L(LIQUID,CO,H;0),,                +500+16*T;,,                  N 12Kim !
$
 PAR  G(FCC_A1,CO:H),,                  +GHSERCO+0.5*GHSERH2
             +28000+70*T;,,                                           N 12Kim !
 PAR  L(FCC_A1,CO:H,VA;0),,             -25000-6.5*T;,,               N 12Kim !
$
 PAR  G(HCP_A3,CO:H),,                  +GHSERCO+0.25*GHSERH2
             +14500+30*T;,,                                           N 12Kim !
 PAR  L(HCP_A3,CO:H,VA;0),,             -20000;,,                     N 12Kim !
$
$ Metastable
$
 PAR  G(BCC_A2,CO:H),,                  +GHSERCO+3*GHSERH2
             +1245550+733.3*T;,,                                      N 12Kim !
 PAR  L(BCC_A2,CO:H,VA;0),,             -1200000;,,                   N 12Kim !
$ ------------------------------------------------------------------------------
$
$
 LIST-OF-REFERENCE
 NUMBER  SOURCE
  Null   'Unknown source'
  Same   'Same or similar interaction as in the corresponding stable phase'
  COST   'COST 507 database'
  91Din  'A.T. Dinsdale, Calphad, 15, 317-425(1991).'
  97SUB  'SGTE substance database, version 1997'
  04Qiu  'C. Qiu, G.B. Olson, S.M. Opalka, D.L. Anton,
          J. Phase Equilib. Diffus., 25, 520-27(2004); H'
  12Kim  'K.-H. Kim, J.-H. Shim, B.-J. Lee,
          Int. J. Hydrogen Energy, 37, 7836-47(2012); Co-H'
!
