$
$ Database for Fe-Nb from C. He et al. 2017.
$
$ C. He, Y. Qin, F. Stein, J. Phase Equilib. Diffus., 38, 771-87(2017).
$
$ Dataset created 2021.11.27 by Bengt Hallstedt.
$
$ Based on 12Liu and 12Khv.
$
$ ------------------------------------------------------------------------------
 TEMP-LIM 298.15 6000.00 !
$
$ELEMENT NAME  REF. STATE               ATOMIC MASS H298-H0    S298    !
$
 ELEMENT VA   VACUUM                      0.0          0.0      0.0    ! 
 ELEMENT FE   BCC_A2                     55.847     4489.0     27.2797 ! 
 ELEMENT NB   BCC_A2                     92.9064    5220.0     36.27   ! 
$ ------------------------------------------------------------------------------
$ Phase definitions
$
 PHASE LIQUID:L % 1 1 !
 CONST LIQUID:L : FE NB : !
$
$ Fcc (cF4, Fm-3m) and MeX (cF8, Fm-3m)
$
 PHASE FCC_A1 %A 2 1 1 !
 CONST FCC_A1 : FE% NB : VA : !
$
$ Bcc (cI2, Im-3m)
$
 PHASE BCC_A2 %B 2 1 3 !
 CONST BCC_A2 : FE% NB% : VA : !
$
$ Hcp (hP2, P6_3/mmc) and Me2X (NiAs-type, hP4, P6_3/mmc, B8_1)
$
 PHASE HCP_A3 %A 2 1 0.5 !
 CONST HCP_A3 : FE NB : VA : !
$
$ Prototype MgZn2 (hP12, P6_3/mmc)
$
 PHASE C14_LAVES % 2 2 1 !
 CONST C14_LAVES : FE% NB : FE NB% : !
$
$ Prototype Fe7W6 (hR13, R-3m)
$
 PHASE MU_D85 % 4 1 4 2 6 !
 CONST MU_D85 : FE : NB : FE NB% : FE% NB : !
$ ------------------------------------------------------------------------------
$ Defaults
$
 DEFINE-SYSTEM-DEFAULT ELEMENT 2 !
 DEFAULT-COM DEFINE_SYSTEM_ELEMENT VA !
 TYPE-DEF % SEQ * !
 TYPE-DEF A GES AMEND_PHASE_DESCRIPTION @ MAGNETIC -3 0.28 !
 TYPE-DEF B GES AMEND_PHASE_DESCRIPTION @ MAGNETIC -1 0.4 !
 FUNCTION ZERO      298.15  0;                                         6000 N !
 FUNCTION UN_ASS    298.15  0;                                         6000 N !
 FUNCTION R         298.15  +8.31451;                                  6000 N !
$ ------------------------------------------------------------------------------
$ Element data
$ ------------------------------------------------------------------------------
$ Fe
$
$ ORTHORHOMBIC_A20 and TETRAGONAL_U added im unary 4.1
$
 PAR  G(BCC_A2,FE:VA),,                 +GHSERFE;,,                   N 91Din !
 PAR  TC(BCC_A2,FE:VA),,                 1043.00;,,                   N 91Din !
 PAR  BM(BCC_A2,FE:VA),,                    2.22;,,                   N 91Din !
 PAR  G(FCC_A1,FE:VA),,                 +GFCCFE;,,                    N 91Din !
 PAR  TC(FCC_A1,FE:VA),,                 -201.00;,,                   N 91Din !
 PAR  BM(FCC_A1,FE:VA),,                   -2.10;,,                   N 91Din !
 PAR  G(HCP_A3,FE:VA),,                 +GHCPFE;,,                    N 91Din !
$PAR  G(CBCC_A12,FE:VA),,               +GHSERFE+4745;,,              N 91Din !
$PAR  G(CUB_A13,FE:VA),,                +GHSERFE+3745;,,              N 91Din !
$PAR  G(ORTHORHOMBIC_A20,FE),,          +GHSERFE+5000;,,              N 99SGUN !
$PAR  G(TETRAGONAL_U,FE),,              +GHSERFE+5000;,,              N 99SGUN !
 PAR  G(LIQUID,FE),,                    +GLIQFE;,,                    N 91Din !
$
 PAR  G(C14_LAVES,FE:FE),,              +3*GHSERFE+44130;,,           N 12Liu !
$
 FUNCTION GHSERFE   298.15  +1225.7+124.134*T-23.5143*T*LN(T)
       -0.00439752*T**2-5.8927E-08*T**3+77359*T**(-1);
      1811.00  Y  -25383.581+299.31255*T-46*T*LN(T)+2.29603E+31*T**(-9);
      6000.00  N !
 FUNCTION GFCCFE    298.15  -1462.4+8.282*T-1.15*T*LN(T)
       +6.4E-04*T**2+GHSERFE;
      1811.00  Y  -1713.815+0.940009*T+GHSERFE+4.9251E+30*T**(-9);
      6000.00  N !
 FUNCTION GHCPFE    298.15  -3705.78+12.591*T-1.15*T*LN(T)
       +6.4E-04*T**2+GHSERFE;
      1811.00  Y  -3957.195+5.249009*T+GHSERFE+4.9251E+30*T**(-9);
      6000.00  N !
 FUNCTION GLIQFE    298.15  +12040.17-6.55843*T+GHSERFE-3.67516E-21*T**7;
      1811.00  Y  -10838.83+291.302*T-46*T*LN(T);
      6000.00  N !
$ ------------------------------------------------------------------------------
$ Nb
$
 PAR  G(BCC_A2,NB:VA),,                 +GHSERNB;,,                   N 91Din !
 PAR  G(FCC_A1,NB:VA),,                 +GHSERNB+13500+1.7*T;,,       N 91Din !
 PAR  G(HCP_A3,NB:VA),,                 +GHSERNB+10000+2.4*T;,,       N 91Din !
$PAR  G(CBCC_A12,NB:VA;0),,             +GHSERNB+17600;,,             N 06Slu !
$PAR  G(CUB_A13,NB:VA),,                +GHSERNB+22000;,,             N 06Slu !
 PAR  G(LIQUID,NB),,                    +GLIQNB;,,                    N 91Din !
$
 PAR  G(C14_LAVES,NB:NB),,              +3*GHSERNB+46110;,,           N 15He !
$
 FUNCTION GHSERNB   298.15  -8519.353+142.045475*T-26.4711*T*LN(T)
       +2.03475E-04*T**2-3.5012E-07*T**3+93399*T**(-1);
      2750.00  Y  -37669.3+271.720843*T-41.77*T*LN(T)+1.528238E+32*T**(-9);
      6000.00  N !
 FUNCTION GLIQNB    298.15  +29781.555-10.816418*T+GHSERNB-3.06098E-23*T**7;
      2750.00  Y  -7499.398+260.756148*T-41.77*T*LN(T);
      6000.00  N !
$ ------------------------------------------------------------------------------
$ Binary system
$
$ C. He, Y. Qin, F. Stein, J. Phase Equilib. Diffus., 38, 771-87(2017).
$
$ Checked against paper. Checked at 6000 K.
$
$ Based on 12Liu and 12Khv.
$
 PAR  L(LIQUID,FE,NB;0),,               -92023+188.28*T-20*T*LN(T);,, N 17He !
 PAR  L(LIQUID,FE,NB;1),,               +17860-12.2*T;,,              N 17He !
 PAR  L(LIQUID,FE,NB;2),,               -4000;,,                      N 17He !
$
 PAR  L(FCC_A1,FE,NB:VA;0),,            +7740-11.4*T;,,               N 17He !
$
 PAR  L(BCC_A2,FE,NB:VA;0),,            -5950+9.4*T;,,                N 17He !
 PAR  L(BCC_A2,FE,NB:VA;1),,            +14000-13.96*T;,,             N 17He !
$
 PAR  G(C14_LAVES,FE:NB),,              +2*GHSERFE+GHSERNB
             -61732+12.9*T;,,                                         N 17He !
 PAR  G(C14_LAVES,NB:FE),,              +2*GHSERNB+GHSERFE+90000;,,   N 17He !
 PAR  L(C14_LAVES,FE,NB:FE;0),,         +ZERO;,,                      N 17He !
 PAR  L(C14_LAVES,FE,NB:NB;0),,         +32000;,,                     N 17He !
 PAR  L(C14_LAVES,FE:FE,NB;0),,         -59320+13*T;,,                N 17He !
 PAR  L(C14_LAVES,NB:FE,NB;0),,         +ZERO;,,                      N 17He !
$
 PAR  G(MU_D85,FE:NB:FE:FE),,           +9*GHSERFE+4*GHSERNB
             -138800;,,                                               N 17He !
 PAR  G(MU_D85,FE:NB:FE:NB),,           +3*GHSERFE+10*GHSERNB
             +850000;,,                                               N 17He !
 PAR  G(MU_D85,FE:NB:NB:FE),,           +7*GHSERFE+6*GHSERNB
             -248480+60.9*T;,,                                        N 17He !
 PAR  G(MU_D85,FE:NB:NB:NB),,           +GHSERFE+12*GHSERNB+145000;,, N 17He !
$
$ Metastable
$
 PAR  L(HCP_A3,FE,NB:VA;0),,            +7740-11.4*T;,,               N Same !
$ ------------------------------------------------------------------------------
$
 ASSESSED_SYSTEM
  FE-NB(TDB -* +LIQUID +FCC_A1 +BCC_A2 +C14_LAVES +MU_D85
  ;P3 TMM:300/3000 STP:.1/1800/-2) !
$
$
 LIST-OF-REFERENCE
 NUMBER  SOURCE
  Null   'Unknown source'
  Same   'Same or similar interaction as in the corresponding stable phase'
  REFLAV 'Laves phase convention: G(LAVES,X:X)=+3*GHSERXX+15000'
  COST   'COST 507 database'
  91Din  'A.T. Dinsdale, Calphad, 15, 317-425(1991).'
  99SGUN 'SGTE unary database V.4.1, 1999.'
  06Slu  'M.H.F. Sluiter, Calphad, 30, 357-44(2006); Nb'
  12Liu  'S.H. Liu, B. Hallstedt, D. Music, Y. Du,
          Calphad, Calphad, 38, 43-58(2012); Fe-Nb'
  15He   'C. He, F. Stein, M. Palm, J. Alloys Compd., 637, 361-75(2015); Co-Nb'
  17He   'C. He, Y. Qin, F. Stein,
          J. Phase Equilib. Diffus., 38, 771-87(2017); Fe-Nb'
!
