$
$ Database for Co-Ge from S.S. Dong et al. 2013.
$
$ S.S. Dong, S.G. Liu, X.M. Tao, F.H. Xiao, L.H. Huang, F. Yang, Y. He, Q. Chen,
$ H.S. Liu, Z.P. Jin, Thermochim. Acta, 572, 94-100(2013).
$
$ Dataset created 2020.04.19 by Bengt Hallstedt.
$
$ The model used for beta-Co5Ge3 does not correctly reflect the crystal
$ structure as remarked by H. Ipser and K.W. Richter (Thermochim. Acta,
$ 588, 57-58(2014)). The correct model would be (Co,Va)Co(Co,Ge).
$
$ Invariant temperatures differ by up to 3 K, except for the decomposition
$ temperature of Co5Ge7, which is 25 too high, due to rounding errors.
$
$ ------------------------------------------------------------------------------
 TEMP-LIM 298.15 6000.00 !
$
$ELEMENT NAME  REF. STATE               ATOMIC MASS H298-H0    S298    !
$
 ELEMENT VA   VACUUM                      0.0          0.0      0.0    ! 
 ELEMENT CO   HCP_A3                     58.9332    4765.567   30.0400 ! 
 ELEMENT GE   DIAMOND_A4                 72.59      4636.0     31.09   ! 
$ ------------------------------------------------------------------------------
$ Phase definitions
$
 PHASE LIQUID:L % 1 1 !
 CONST LIQUID:L : CO GE : !
$
$ Fcc (cF4, Fm-3m) and MeX (cF8, Fm-3m)
$
 PHASE FCC_A1 %A 2 1 1 !
 CONST FCC_A1 : CO% GE : VA : !
$
$ Bcc (cI2, Im-3m)
$
 PHASE BCC_A2 %B 2 1 3 !
 CONST BCC_A2 : CO GE : VA : !
$
$ Hcp (hP2, P6_3/mmc) and Me2X (NiAs-type, hP4, P6_3/mmc, B8_1)
$
 PHASE HCP_A3 %A 2 1 0.5 !
 CONST HCP_A3 : CO% GE : VA : !
$
$ Prototype C (cF8, Fd-3m)
$
 PHASE DIAMOND_A4 % 1 1 !
 CONST DIAMOND_A4 : GE : !
$
$ Prototype Cr3Si (cP8, Pm-3n)
$
 PHASE CO3GE % 2 3 1 !
 CONST CO3GE : CO : GE : !
$
$ Pearson hP*
$
 PHASE CO5GE2 % 2 5 2 !
 CONST CO5GE2 : CO : GE : !
$
$ Prototype Co2Si (oP12, Pnma)
$
 PHASE CO5GE3_C37 % 2 5 3 !
 CONST CO5GE3_C37 : CO : GE : !
$
$ Prototype InNi2 (hP6, P6_3/mmc) beta
$
 PHASE CO5GE3_B82 % 3 1 4 3 !
 CONST CO5GE3_B82 : CO VA : CO : CO GE% : !
$
$ Prototype CoGe (mC16, C2/m)
$
 PHASE COGE % 2 1 1 !
 CONST COGE : CO% GE : CO GE% : !
$
$ Prototype Co5Ge7 (tI24, I4mm)
$
 PHASE CO5GE7 % 2 5 7 !
 CONST CO5GE7 : CO : GE : !
$
$ Prototype CoGe2 (oC24, Cmce)
$
 PHASE COGE2 % 2 1 2 !
 CONST COGE2 : CO : GE : !
$ ------------------------------------------------------------------------------
$ Defaults
$
 DEFINE-SYSTEM-DEFAULT ELEMENT 2 !
 DEFAULT-COM DEFINE_SYSTEM_ELEMENT VA !
 TYPE-DEF % SEQ * !
 TYPE-DEF A GES AMEND_PHASE_DESCRIPTION @ MAGNETIC -3 0.28 !
 TYPE-DEF B GES AMEND_PHASE_DESCRIPTION @ MAGNETIC -1 0.4 !
 FUNCTION ZERO      298.15  0;                                         6000 N !
 FUNCTION UN_ASS    298.15  0;                                         6000 N !
 FUNCTION R         298.15  +8.31451;                                  6000 N !
$ ------------------------------------------------------------------------------
$ Element data
$ ------------------------------------------------------------------------------
$ Co
$
 PAR  G(HCP_A3,CO:VA),,                 +GHSERCO;,,                   N 91Din !
 PAR  TC(HCP_A3,CO:VA),,                 1396.00;,,                   N 91Din !
 PAR  BM(HCP_A3,CO:VA),,                    1.35;,,                   N 91Din !
 PAR  G(FCC_A1,CO:VA),,                 +GHSERCO
             +427.591-0.615248*T;,,                                   N 91Din !
 PAR  TC(FCC_A1,CO:VA),,                 1396.00;,,                   N 91Din !
 PAR  BM(FCC_A1,CO:VA),,                    1.35;,,                   N 91Din !
 PAR  G(BCC_A2,CO:VA),,                 +GHSERCO+2938-0.7138*T;,,     N 91Din !
 PAR  TC(BCC_A2,CO:VA),,                 1450.00;,,                   N 91Din !
 PAR  BM(BCC_A2,CO:VA),,                    1.35;,,                   N 91Din !
$PAR  G(CBCC_A12,CO:VA),,               +GHSERCO+4155;,,              N 91Din !
$PAR  G(CUB_A13,CO:VA),,                +GHSERCO+3155;,,              N 91Din !
 PAR  G(LIQUID,CO),,                    +GLIQCO;,,                    N 91Din !
$
 PAR  G(CO5GE3_B82,CO:CO:CO),,          +8*GHSERCO+200000;,,          N 13Don !
 PAR  G(CO5GE3_B82,VA:CO:CO),,          +7*GHSERCO;,,                 N 13Don !
 PAR  G(COGE,CO:CO),,                   +2*GHSERCO+14000;,,           N 13Don !
$
 FUNCTION GHSERCO   298.15  +310.241+133.36601*T-25.0861*T*LN(T)
       -0.002654739*T**2-1.7348E-07*T**3+72527*T**(-1);
      1768.00  Y  -17197.666+253.28374*T-40.5*T*LN(T)+9.3488E+30*T**(-9);
      6000.00  N !
 FUNCTION GLIQCO    298.15  +15085.037-8.931932*T+GHSERCO-2.19801E-21*T**7;
      1768.00  Y  -846.61+243.599944*T-40.5*T*LN(T);
      6000.00  N !
$ ------------------------------------------------------------------------------
$ Ge
$
$ BCT_A5 and RHOMBOHEDRAL_A7 added in unary 4.1
$
 PAR  G(DIAMOND_A4,GE),,                +GHSERGE;                3200 N 91Din !
 PAR  G(FCC_A1,GE:VA),,                 +GHSERGE+36000-22.3*T;   3200 N 91Din !
 PAR  G(BCC_A2,GE:VA),,                 +GHSERGE+34100-23.5*T;   3200 N 91Din !
 PAR  G(HCP_A3,GE:VA),,                 +GHSERGE+35000-21.5*T;   3200 N 91Din !
$PAR  G(BCT_A5,GE),,                    +GHSERGE+28800-16.5*T;   3600 N 99SGUN !
$PAR  G(RHOMBOHEDRAL_A7,GE),,           +GHSERGE+29800-16.5*T;   3600 N 99SGUN !
 PAR  G(LIQUID,GE),,                    +GLIQGE;                 3200 N 91Din !
$
 PAR  G(COGE,GE:GE),,                   +2*GHSERGE+10000;,,           N 13Don !
$
 FUNCTION GHSERGE   298.15  -9486.153+165.635573*T-29.5337682*T*LN(T)
       +0.005568297*T**2-1.513694E-06*T**3+163298*T**(-1);
       900.00  Y  -5689.239+102.86087*T-19.8536239*T*LN(T)-0.003672527*T**2;
      1211.40  Y  -9548.204+156.708024*T-27.6144*T*LN(T)-8.59809E+28*T**(-9);
      3200.00  N !
 FUNCTION GLIQGE    298.15  +37141.489-30.687043*T+GHSERGE+8.56632E-21*T**7;
      1211.40  Y  +27243.473+126.324186*T-27.6144*T*LN(T);
      3200.00  N !
$ ------------------------------------------------------------------------------
$ Binary system
$
$ S.S. Dong, S.G. Liu, X.M. Tao, F.H. Xiao, L.H. Huang, F. Yang, Y. He, Q. Chen,
$ H.S. Liu, Z.P. Jin, Thermochim. Acta, 572, 94-100(2013).
$
$ Checked against paper and author's tdb. Checked at 6000 K.
$
$ The model used for beta-Co5Ge3 does not correctly reflect the crystal
$ structure as remarked by H. Ipser and K.W. Richter (Thermochim. Acta,
$ 588, 57-58(2014)). The correct model would be (Co,Va)Co(Co,Ge).
$
$ Invariant temperatures differ by up to 3 K, except for the decomposition
$ temperature of Co5Ge7, which is 25 too high, due to rounding errors.
$
 PAR  L(LIQUID,CO,GE;0),,               -83153.5+7.91*T;,,            N 13Don !
 PAR  L(LIQUID,CO,GE;1),,               -34829.2+14.2*T;,,            N 13Don !
$
 PAR  L(FCC_A1,CO,GE:VA;0),,            -80022.2+29.93*T;,,           N 13Don !
 PAR  L(FCC_A1,CO,GE:VA;1),,            -66967.9+0.06*T;,,            N 13Don !
 PAR  TC(FCC_A1,CO,GE:VA;0),,           -2656.00;,,                   N 13Don !
 PAR  BM(FCC_A1,CO,GE:VA;0),,              -1.35;,,                   N 13Don !
$
 PAR  L(HCP_A3,CO,GE:VA;0),,            -88966.6+13.35*T;,,           N 13Don !
 PAR  L(HCP_A3,CO,GE:VA;1),,            -59044.2+26.86*T;,,           N 13Don !
 PAR  TC(HCP_A3,CO,GE:VA;0),,           -1323.00;,,                   N 13Don !
 PAR  BM(HCP_A3,CO,GE:VA;0),,              -2.70;,,                   N 13Don !
$
 PAR  G(CO3GE,CO:GE),,                  +3*GHSERCO+GHSERGE
             -62562.68-14.1357*T;,,                                   N 13Don !
 PAR  G(CO5GE2,CO:GE),,                 +5*GHSERCO+2*GHSERGE
             -127561-17.7563*T;,,                                     N 13Don !
 PAR  G(CO5GE3_C37,CO:GE),,             +5*GHSERCO+3*GHSERGE
             -188800+0.88*T;,,                                        N 13Don !
$
 PAR  G(CO5GE3_B82,CO:CO:GE),,          +5*GHSERCO+3*GHSERGE
             -6291.2-108.24*T;,,                                      N 13Don !
 PAR  G(CO5GE3_B82,VA:CO:GE),,          +4*GHSERCO+3*GHSERGE
             -151551.2;,,                                             N 13Don !
 PAR  L(CO5GE3_B82,CO,VA:CO:GE;0),,     -278293.6+71.44*T;,,          N 13Don !
 PAR  L(CO5GE3_B82,CO:CO:CO,GE;0),,     -260882.4+20*T;,,             N 13Don !
$
 PAR  G(COGE,CO:GE),,                   +GHSERCO+GHSERGE
             -50502.6+0.24*T;,,                                       N 13Don !
 PAR  G(COGE,GE:CO),,                   +GHSERGE+GHSERCO
             +74502.6-0.24*T;,,                                       N 13Don !
 PAR  L(COGE,CO,GE:CO;0),,              +16998.8-2.18*T;,,            N 13Don !
 PAR  L(COGE,CO,GE:GE;0),,              +16998.8-2.18*T;,,            N 13Don !
 PAR  L(COGE,CO:CO,GE;0),,              -43432.4+9.68*T;,,            N 13Don !
 PAR  L(COGE,GE:CO,GE;0),,              -43432.4+9.68*T;,,            N 13Don !
$
 PAR  G(CO5GE7,CO:GE),,                 +5*GHSERCO+7*GHSERGE
             -265242+7.2293*T;,,                                      N 13Don !
 PAR  G(COGE2,CO:GE),,                  +GHSERCO+2*GHSERGE
             -53134.5+0.51*T;,,                                       N 13Don !
$
$ Metastable
$
 PAR  L(BCC_A2,CO,GE:VA;0),,            -80022.2+29.93*T;,,           N Same !
 PAR  L(BCC_A2,CO,GE:VA;1),,            -66967.9+0.06*T;,,            N Same !
$ ------------------------------------------------------------------------------
$
 ASSESSED_SYSTEM
  CO-GE(TDB -* +LIQUID +FCC +HCP_A3 +CO3GE +CO5GE2 +CO5GE3_C37 +CO5GE3_B82
  +COGE +CO5GE7 +COGE2 +DIAMOND ;P3 *) !
$
$
 LIST-OF-REFERENCE
 NUMBER  SOURCE
  Null   'Unknown source'
  Same   'Same or similar interaction as in the corresponding stable phase'
  91Din  'A.T. Dinsdale, Calphad, 15, 317-425(1991).'
  99SGUN 'SGTE unary database V.4.1, 1999.'
  13Don  'S.S. Dong, S.G. Liu, X.M. Tao, F.H. Xiao, L.H. Huang, F. Yang, Y. He,
          Q. Chen, H.S. Liu, Z.P. Jin,
          Thermochim. Acta, 572, 94-100(2013); Co-Ge'
!
