$
$ Database for Al-O from J.R. Taylor et al. 1992
$
$ J.R. Taylor, A.T. Dinsdale, M. Hillert, M. Selleby, Calphad, 16, 173-79(1992).
$
$ Dataset created 2012.03.03 by Bengt Hallstedt.
$ 2020.12.22: Modified for use with GES6.
$
$ Note! Oxygen solubility in fcc-Al is not modelled.
$
$ ------------------------------------------------------------------------------
 TEMP-LIM 298.15 6000.00 !
$
$ELEMENT NAME  REF. STATE               ATOMIC MASS H298-H0    S298    !
$
 ELEMENT /-   ELECTRON_GAS                0.0          0.0      0.0    ! 
 ELEMENT VA   VACUUM                      0.0          0.0      0.0    ! 
 ELEMENT AL   FCC_A1                     26.98154   4540.      28.30   ! 
 ELEMENT O    1/2_MOLE_O2(G)             15.999     4341.0    102.52   ! 
$ ------------------------------------------------------------------------------
$ Species
$
 SPECIE  AL+3                               AL1/+3 !
 SPECIE  AL2                                AL2 !
 SPECIE  ALO                                AL1O1 !
 SPECIE  ALO3/2                             AL1O1.5 !
 SPECIE  ALO2                               AL1O2 !
 SPECIE  AL2O                               AL2O1 !
 SPECIE  AL2O2                              AL2O2 !
 SPECIE  AL2O3                              AL2O3 !
 SPECIE  O-2                                O/-2 !
 SPECIE  O2                                 O2 !
 SPECIE  O3                                 O3 !
$ ------------------------------------------------------------------------------
$ Phase definitions
$
 PHASE ION:Y % 2 1 1 !
 CONST ION:Y : AL+3 : O-2 VA : !
$
 PHASE LIQUID:L % 1 1 !
 CONST LIQUID:L : AL ALO3/2 : !
$
 PHASE DILUTE % 1 1 !
 CONST DILUTE : AL O : !
$
$ Fcc (cF4, Fm-3m) and MeX (cF8, Fm-3m)
$
 PHASE FCC_A1 %A 2 1 1 !
 CONST FCC_A1 : AL : VA : !
$
$ Bcc (cI2, Im-3m)
$
 PHASE BCC_A2 %B 2 1 3 !
 CONST BCC_A2 : AL : VA : !
$
$ Hcp (hP2, P6_3/mmc) and Me2X (NiAs-type, hP4, P6_3/mmc, B8_1)
$
 PHASE HCP_A3 %A 2 1 0.5 !
 CONST HCP_A3 : AL : VA : !
$
$ Prototype alpha-Al2O3 (hR10, R-3c)
$
 PHASE CORUNDUM_D51:I %A 2 2 3 !
 CONST CORUNDUM_D51:I : AL+3 : O-2 : !
$
 PHASE GAS:G % 1 1 !
 CONST GAS:G : AL% AL2 ALO ALO2 AL2O% AL2O2 AL2O3 O O2% O3 : !
$
 PHASE O2GAS % 1 1 !
 CONST O2GAS : O2 : !
$ ------------------------------------------------------------------------------
$ Defaults
$
 DEFINE-SYSTEM-DEFAULT ELEMENT 2 !
 DEFAULT-COM DEFINE_SYSTEM_ELEMENT VA /- !
 TYPE-DEF % SEQ * !
 TYPE-DEF A GES AMEND_PHASE_DESCRIPTION @ MAGNETIC -3 0.28 !
 TYPE-DEF B GES AMEND_PHASE_DESCRIPTION @ MAGNETIC -1 0.4 !
 DEFAULT-COM REJECT_PHASE BCC_A2 HCP_A3 LIQUID DILUTE O2GAS !
 FUNCTION ZERO      298.15  0;                                         6000 N !
 FUNCTION UN_ASS    298.15  0;                                         6000 N !
 FUNCTION R         298.15  +8.31451;                                  6000 N !
 FUNCTION RTLNP     298.15  +8.31451*T*LN(1E-05*P);                    6000 N !
$ ------------------------------------------------------------------------------
$ Element data
$ ------------------------------------------------------------------------------
$ Al
$
$ BCT_A5 and DIAMOND_A4 added in unary 3.0
$
 PAR  G(FCC_A1,AL:VA),,                 +GHSERAL;                2900 N 91Din !
 PAR  G(BCC_A2,AL:VA),,                 +GHSERAL+10083-4.813*T;  2900 N 91Din !
 PAR  G(HCP_A3,AL:VA),,                 +GHSERAL+5481-1.8*T;     2900 N 91Din !
$PAR  G(CBCC_A12,AL:VA),,               +GHSERAL
$            +10083.4-4.813*T;                                   2900 N 91Din !
$PAR  G(CUB_A13,AL:VA),,                +GHSERAL
$            +10920.44-4.8116*T;                                 2900 N 91Din !
$PAR  G(BCT_A5,AL),,                    +GHSERAL+10083-4.813*T;  2900 N SGCOST !
$PAR  G(DIAMOND_A4,AL),,                +GHSERAL+30*T;           2900 N SGCOST !
 PAR  G(LIQUID,AL),,                    +GLIQAL;                 2900 N 91Din !
$
 PAR  G(ION,AL+3:VA),,                  +GLIQAL;                 2900 N 91Din !
 PAR  G(DILUTE,AL),,                    +GLIQAL;                 2900 N 91Din !
 PAR  G(GAS,AL),,                       +AL1G+RTLNP;,,                N 00SUB !
 PAR  G(GAS,AL2),,                      +AL2G+RTLNP;,,                N 00SUB !
$
 FUNCTION GHSERAL   298.15  -7976.15+137.093038*T-24.3671976*T*LN(T)
       -0.001884662*T**2-8.77664E-07*T**3+74092*T**(-1);
       700.00  Y  -11276.24+223.048446*T-38.5844296*T*LN(T)
       +0.018531982*T**2 -5.764227E-06*T**3+74092*T**(-1);
       933.47  Y  -11278.361+188.684136*T-31.748192*T*LN(T)
       -1.230622E+28*T**(-9);
      2900.00  N !
 FUNCTION GLIQAL    298.15  +11005.045-11.84185*T+GHSERAL+7.9337E-20*T**7;
       933.47  Y  -795.991+177.430209*T-31.748192*T*LN(T);
      2900.00  N !
 FUNCTION GBCCAL    298.15  +GHSERAL+10083-4.813*T;                    2900 N !
 FUNCTION GHCPAL    298.15  +GHSERAL+5481-1.8*T;                       2900 N !
$ Al(g)
 FUNCTION AL1G      298.15  +323947.58-25.1480948*T-20.859*T*LN(T)
       +4.5665E-05*T**2-3.942E-09*T**3-24275.5*T**(-1);
      4000.00  Y  +342017.234-54.0526114*T-17.7891*T*LN(T)
       +6.822E-05*T**2-1.91111667E-08*T**3-14782200*T**(-1);
      8200.00  Y  +542396.07-411.214335*T+22.2419*T*LN(T)
       -0.00349619*T**2+4.0491E-08*T**3-2.0366965E+08*T**(-1);
     10000.00  N !
$ Al2(g)
 FUNCTION AL2G      298.15  +496408.232+35.479739*T-41.6397*T*LN(T)
       +0.00249636*T**2-4.9050733E-07*T**3+85390.3*T**(-1);
       900.00  Y  +497613.221+17.368131*T-38.85476*T*LN(T)
       -2.249805E-04*T**2-9.4900316E-09*T**3-5287.23*T**(-1);
      2800.00  N !
$ ------------------------------------------------------------------------------
$ O
$
$ GHSEROO modified in unary 3.0
$
 PAR  G(O2GAS,O2),,                     +2*GHSEROO+RTLNP;,,           N 91Din !
$
 PAR  G(GAS,O),,                        +O1G+RTLNP;,,                 N 00SUB !
 PAR  G(GAS,O2),,                       +2*GHSEROO+RTLNP;,,           N 91Din !
 PAR  G(GAS,O3),,                       +O3G+RTLNP;,,                 N 00SUB !
$
 PAR  G(DILUTE,O),,                     +GHSEROO-2648.9+31.44*T;,,    N 91Din !
$ Old parameter below (used in 93Hal)
$PAR  G(DILUTE,O),,                     +GHSEROO+30000;,,             N Null !
$
$ 1/2 O2(g)
 FUNCTION GHSEROO   298.15  -3480.87-25.503038*T-11.1355*T*LN(T)
       -0.005098875*T**2+6.61845833E-07*T**3-38365*T**(-1);
      1000.00  Y  -6568.763+12.659879*T-16.8138*T*LN(T)
       -5.957975E-04*T**2+6.781E-09*T**3+262905*T**(-1);
      3300.00  Y  -13986.728+31.259624*T-18.9536*T*LN(T)
       -4.25243E-04*T**2+1.0721E-08*T**3+4383200*T**(-1);
      6000.00  N !
$ O(g)
 FUNCTION O1G       298.15  +243206.494-20.8612587*T-21.01555*T*LN(T)
       +1.2687055E-04*T**2-1.23131283E-08*T**3-42897.09*T**(-1);
      2950.00  Y  +252301.423-52.0847285*T-17.21188*T*LN(T)
       -5.413565E-04*T**2+7.64520667E-09*T**3-3973170.5*T**(-1);
      6000.00  N !
$ O3(g)
 FUNCTION O3G       298.15  +130696.944-37.9096651*T-27.58118*T*LN(T)
     -0.02763076*T**2+4.60539333E-06*T**3+99530.45*T**(-1);
     700.00  Y  +114760.623+176.626736*T-60.10286*T*LN(T)
     +0.00206456*T**2-5.17486667E-07*T**3+1572175*T**(-1);
    1300.00  Y  +49468.3958+710.094819*T-134.3696*T*LN(T)
     +0.039707355*T**2-4.10457667E-06*T**3+12362250*T**(-1);
    2100.00  Y  +866367.075-3566.80563*T+421.2001*T*LN(T)
     -0.1284109*T**2+5.44768833E-06*T**3-2.1304835E+08*T**(-1);
    2800.00  Y  +409416.384-1950.70834*T+223.4437*T*LN(T)
     -0.0922361*T**2+4.306855E-06*T**3-21589870*T**(-1);
    3500.00  Y  -1866338.6+6101.13383*T-764.8435*T*LN(T)
     +0.09852775*T**2-2.59784667E-06*T**3+9.610855E+08*T**(-1);
    4900.00  Y  +97590.0432+890.79836*T-149.9608*T*LN(T)
     +0.01283575*T**2-3.555105E-07*T**3-2.1699975E+08*T**(-1);
    6000.00  N !
$ ------------------------------------------------------------------------------
$ Binary system
$
$ J.R. Taylor, A.T. Dinsdale, M. Hillert, M. Selleby, Calphad, 16, 173-79(1992).
$
$ Checked against paper.
$
$ Note! Oxygen solubility in fcc-Al is not modelled.
$
$ The interaction parameter for the associate model was fitted to give the same
$ O solubility in Al as the ionic liquid at 1000 and 2400 K.
$
 PAR  G(ION,AL+3:O-2),,                 +GAL2O3_L;,,                  N 92Tay !
 PAR  L(ION,AL+3:O-2,VA;0),,            +171042+106*T;,,              N 92Tay !
$
 PAR  G(LIQUID,ALO3/2),,                +0.5*GAL2O3_L;,,              N 92Tay !
 PAR  L(LIQUID,AL,ALO3/2;0),,           +40770+45.43*T;,,             N 07Hal !
$
$ Parameter changed to fit  G(DILUTE,O) from 91Din.
 PAR  L(DILUTE,AL,O;0),,                -470000+98.7*T;,,             N 07Hal !
$PAR  L(DILUTE,AL,O;0),,                -502700+130.3*T;,,            N 93Hal !
$
 PAR  G(CORUNDUM_D51,AL+3:O-2),,        +GCORUND;,,                   N 92Tay !
$
 PAR  G(GAS,ALO),,                      +F279T+RTLNP;,,               N 00SUB !
 PAR  G(GAS,ALO2),,                     +F301T+RTLNP;,,               N 00SUB !
 PAR  G(GAS,AL2O),,                     +F429T+RTLNP;,,               N 00SUB !
 PAR  G(GAS,AL2O2),,                    +F440T+RTLNP;,,               N 00SUB !
 PAR  G(GAS,AL2O3),,                    +F806T+RTLNP;,,               N 97SUB !
$
 FUNCTION GAL2O3_L  298.15  -1607850.8+405.559491*T-67.4804*T*LN(T)
       -0.06747*T**2+1.4205433E-05*T**3+938780*T**(-1);
       600.00  Y  -1625385.57+712.394972*T-116.258*T*LN(T)
       -0.0072257*T**2+2.78532E-07*T**3+2120700*T**(-1);
      1500.00  Y  -1672662.69+1010.9932*T-156.058*T*LN(T)
       +0.00709105*T**2-6.29402E-07*T**3+12366650*T**(-1);
      1912.00  Y  +29178041.6-168360.926*T+21987.1791*T*LN(T)
       -6.99552951*T**2+4.10226192E-04*T**3-7.98843618E+09*T**(-1);
      2327.00  Y  -1757702.05+1344.84833*T-192.464*T*LN(T);
      4000.00  N !
 FUNCTION GCORUND   298.15  -1707351.3+448.021092*T-67.4804*T*LN(T)
       -0.06747*T**2+1.4205433E-05*T**3+938780*T**(-1);
       600.00  Y  -1724886.06+754.856573*T-116.258*T*LN(T)
       -0.0072257*T**2+2.78532E-07*T**3+2120700*T**(-1);
      1500.00  Y  -1772163.19+1053.4548*T-156.058*T*LN(T)
       +0.00709105*T**2-6.29402E-07*T**3+12366650*T**(-1);
      3000.00  N !
$ AlO(g)
 FUNCTION F279T     298.15  +59464.7364-29.5986668*T-27.3771672*T*LN(T)
       -0.008706904*T**2+1.34759667E-06*T**3+42904.828*T**(-1);
       800.00  Y  +61555.2231-26.794667*T-28.5616576*T*LN(T)
       -0.0034503356*T**2-1.43288053E-07*T**3-437311.68*T**(-1);
      1600.00  Y  +59571.854-63.2915056*T-22.5467392*T*LN(T)
       -0.0092420376*T**2+5.66213747E-07*T**3+1636864.48*T**(-1);
      2800.00  Y  -26080.0648+348.701552*T-75.33292*T*LN(T)
       +0.0050118044*T**2-1.47269827E-07*T**3+27223196*T**(-1);
      6000.00  N !
$ AlO2(g)
 FUNCTION F301T     298.15  -205677.416+100.854015*T-50.3273695*T*LN(T)
       -0.0102295578*T**2+1.63700046E-06*T**3+296382.426*T**(-1);
       950.00  Y  -212721.463+187.093889*T-63.2049684*T*LN(T)
       +4.59530394E-04*T**2-4.21489396E-08*T**3+1045889.33*T**(-1);
      3550.00  Y  -183459.202+88.2814139*T-51.164839*T*LN(T)
       -0.00171668579*T**2+3.0647535E-08*T**3-12145735.7*T**(-1);
      6000.00  N !
$ Al2O(g)
 FUNCTION F429T     298.15  -147063.825+81.0483757*T-49.258232*T*LN(T)
       -0.012061426*T**2+2.1459736E-06*T**3+130925.728*T**(-1);
       800.00  Y  -153407.471+166.035824*T-62.161688*T*LN(T)
       -3.72899E-05*T**2+1.19899493E-09*T**3+738957.16*T**(-1);
      6000.00  N !
$ Al2O2(g)
 FUNCTION F440T     298.15  -421194.832+237.489779*T-76.0489279*T*LN(T)
       -0.0055979577*T**2+8.10089344E-07*T**3+523993.072*T**(-1);
      1150.00  Y  -425134.631+285.131471*T-83.1292182*T*LN(T)
       -2.37544508E-06*T**2+6.95338611E-11*T**3+945896.545*T**(-1);
      6000.00  N !
$ Al2O3(g)
 FUNCTION F806T     298.15 -575903.152+252.498611*T-82.26331*T*LN(T)
       -0.025448955*T**2+4.17391E-06*T**3+366776.4*T**(-1);
       800.00  Y  -591324.268+447.94001*T-111.611*T*LN(T)
       -1.2771895E-04*T**2+4.43587833E-09*T**3+1918382*T**(-1);
      6000.00  N !
$ ------------------------------------------------------------------------------
$
 ASSESSED_SYSTEM
   AL-O(TDB -* +GAS +ION +CORUNDUM_D51 +FCC_A1
   ;G5 C_S:IONIC_LIQ/AL+3:O-2 MAJ:IONIC_LIQ/AL+3:VA
   ;P3 TMM:300/4300 STP:.4/3000) !
$
$
 LIST-OF-REFERENCE
 NUMBER  SOURCE
  Null   'Unknown source'
  Same   'Same or similar interaction as in the corresponding stable phase'
  REFLAV 'Laves phase convention: G(LAVES,X:X)=+3*GHSERXX+15000'
  SGCOST 'COST 507 database, SGTE unary database V.3.0, 1996; Al, B, Nd, Ti, Zn'
  91Din  'A.T. Dinsdale, Calphad, 15, 317-425(1991).'
  92Tay  'J.R. Taylor, A.T. Dinsdale, M. Hillert, M. Selleby,
          Calphad, 16, 173-79(1992); Al-O'
  93Hal  'B. Hallstedt, J. Phase Equilib., 14, 662-75(1993); Al-O'
  97SUB  'SGTE substance database, version 1997'
  00SUB  'SGTE substance database, version 2000'
  07Hal  'B. Hallstedt, unpublished, 2007; Al-O'
!
