$
$ Database for Eu-Ni from S. Kardellass et al. 2016.
$
$ S. Kardellass, C. Servant, N. Selhaoui,
$ J. Thermal Anal. Calorim., 125, 255-69(2016).
$
$ Dataset created 2021.07.18 by Bengt Hallstedt.
$
$ There are misprints in the parameter table. The phase diagram is only
$ approximately reproduced.
$
$ ------------------------------------------------------------------------------
 TEMP-LIM 298.15 6000.00 !
$
$ELEMENT NAME  REF. STATE               ATOMIC MASS H298-H0    S298    !
$
 ELEMENT VA   VACUUM                      0.0          0.0      0.0    ! 
 ELEMENT EU   BCC_A2                    151.96      8004.0     80.79304! 
 ELEMENT NI   FCC_A1                     58.69      4787.0     29.7955 ! 
$ ------------------------------------------------------------------------------
$ Phase definitions
$
 PHASE LIQUID:L % 1 1 !
 CONST LIQUID:L : EU NI : !
$
$ Fcc (cF4, Fm-3m) and MeX (cF8, Fm-3m)
$
 PHASE FCC_A1 %A 2 1 1 !
 CONST FCC_A1 : NI : VA : !
$
$ Bcc (cI2, Im-3m)
$
 PHASE BCC_A2 %B 2 1 3 !
 CONST BCC_A2 : EU% NI : VA : !
$
$ Hcp (hP2, P6_3/mmc) and Me2X (NiAs-type, hP4, P6_3/mmc, B8_1)
$
 PHASE HCP_A3 %A 2 1 0.5 !
 CONST HCP_A3 : NI : VA : !
$
$ unknown structure
$
 PHASE EUNI % 2 1 1 !
 CONST EUNI : EU : NI : !
$
$ Prototype MgNi2 (hP24, P6_3/mmc)
$
 PHASE EUNI2_C36 % 2 1 2 !
 CONST EUNI2_C36 : EU : NI : !
$
$ Prototype CaCu5 (hP6, P6/mmm)
$
 PHASE EUNI5_D2D % 2 1 5 !
 CONST EUNI5_D2D : EU : NI : !
$
$ Prototype Ni17Th2 (hP38, P6_3/mmc)
$
 PHASE EU2NI17 % 2 2 17 !
 CONST EU2NI17 : EU : NI : !
$ ------------------------------------------------------------------------------
$ Defaults
$
 DEFINE-SYSTEM-DEFAULT ELEMENT 2 !
 DEFAULT-COM DEFINE_SYSTEM_ELEMENT VA !
 TYPE-DEF % SEQ * !
 TYPE-DEF A GES AMEND_PHASE_DESCRIPTION @ MAGNETIC -3 0.28 !
 TYPE-DEF B GES AMEND_PHASE_DESCRIPTION @ MAGNETIC -1 0.4 !
 FUNCTION ZERO      298.15  0;                                         6000 N !
 FUNCTION UN_ASS    298.15  0;                                         6000 N !
 FUNCTION R         298.15  +8.31451;                                  6000 N !
$ ------------------------------------------------------------------------------
$ Element data
$ ------------------------------------------------------------------------------
$ Eu
$
$ BCC_A2 modified in unary 5.0
$ (upper T interval added + trailing decimals added)
$
$ TETRAGONAL_A6 from 11Gao not included in unary
$
 PAR  G(BCC_A2,EU:VA),,                 +GHSEREU;                1900 N 91Din !
$PAR  G(TETRAGONAL_A6,EU),,             +GHSEREU+1000;           1900 N 11Gao !
 PAR  G(LIQUID,EU),,                    +GLIQEU;                 1900 N 91Din !
$
 FUNCTION GHSEREU   298.15  -9864.965+135.836737*T-32.8418896*T*LN(T)
       +0.00931735*T**2-4.006564E-06*T**3+102717*T**(-1);
      1095.00  Y  -287423.476+2174.733036*T-309.3571009*T*LN(T)
       +0.114530917*T**2-8.809866E-06*T**3+48455305*T**(-1);
      1900.00  Y  -13663.125+182.113799*T-38.11624*T*LN(T);
      1901.00  N !
 FUNCTION GLIQEU    298.15  +8382.505-7.175215*T+GHSEREU;
       400.00  Y  +10972.726-103.688201*T+4.3501554*T*LN(T)
       -0.036811218*T**2+5.452934E-06*T**3-646908*T**(-1);
      1095.00  Y  -6890.641+175.517247*T-38.11624*T*LN(T);
      1900.00  N !
$ ------------------------------------------------------------------------------
$ Ni
$
$ FCC_A1 and LIQUID modified in unary 5.0 (slight change in upper T interval)
$ BCT_A5 added in unary 5.0
$
 PAR  G(FCC_A1,NI:VA),,                 +GHSERNI;                3000 N 91Din !
 PAR  TC(FCC_A1,NI:VA),,                  633.00;                3000 N 91Din !
 PAR  BM(FCC_A1,NI:VA),,                    0.52;                3000 N 91Din !
 PAR  G(BCC_A2,NI:VA),,                 +GHSERNI
             +8715.084-3.556*T;                                  3000 N 91Din !
 PAR  TC(BCC_A2,NI:VA),,                  575.00;                3000 N 91Din !
 PAR  BM(BCC_A2,NI:VA),,                    0.85;                3000 N 91Din !
 PAR  G(HCP_A3,NI:VA),,                 +GHSERNI+1046+1.255*T;   3000 N 91Din !
 PAR  TC(HCP_A3,NI:VA),,                  633.00;                3000 N 91Din !
 PAR  BM(HCP_A3,NI:VA),,                    0.52;                3000 N 91Din !
$PAR  G(BCT_A5,NI),,                    +GHSERNI+10023-4.556*T;  3000 N 99Gho !
$PAR  G(CBCC_A12,NI:VA),,               +GHSERNI+3556;           3000 N 91Din !
$PAR  G(CUB_A13,NI:VA),,                +GHSERNI+2092;           3000 N 91Din !
 PAR  G(LIQUID,NI),,                    +GLIQNI;                 3000 N 91Din !
$
 FUNCTION GHSERNI   298.15  -5179.159+117.854*T-22.096*T*LN(T)-0.0048407*T**2;
      1728.00  Y  -27840.62+279.134977*T-43.1*T*LN(T)+1.12754E+31*T**(-9);
      3000.00  N !
 FUNCTION GLIQNI    298.15  +16414.686-9.397*T+GHSERNI-3.82318E-21*T**7;
      1728.00  Y  -9549.817+268.597977*T-43.1*T*LN(T);
      3000.00  N !
 FUNCTION GBCCNI    298.15  +GHSERNI+8715.084-3.556*T;                 6000 N !
$ ------------------------------------------------------------------------------
$ Binary system
$
$ S. Kardellass, C. Servant, N. Selhaoui,
$ J. Thermal Anal. Calorim., 125, 255-69(2016).
$
$ Checked against paper. Checked at 6000K.
$
$ There are misprints in the parameter table. The phase diagram is only
$ approximately reproduced.
$
 PAR  L(LIQUID,EU,NI;0),,               -22750-14.58*T;,,             N 16Kar !
 PAR  L(LIQUID,EU,NI;1),,               +39993+7.915*T;,,             N 16Kar !
 PAR  L(LIQUID,EU,NI;2),,               -17439+12.22*T;,,             N 16Kar !
 PAR  L(LIQUID,EU,NI;3),,               -28541+3.44*T;,,              N 16Kar !
$
 PAR  L(BCC_A2,EU,NI:VA;0),,            +50000;,,                     N 16Kar !
$
 PAR  G(EUNI,EU:NI),,                   +GHSEREU+GHSERNI
             -34278-1.665*T;,,                                        N 16Kar !
 PAR  G(EUNI2_C36,EU:NI),,              +GHSEREU+2*GHSERNI
             -52758.9-1.854*T;,,                                      N 16Kar !
 PAR  G(EUNI5_D2D,EU:NI),,              +GHSEREU+5*GHSERNI
             -96000-1.152*T;,,                                        N 16Kar !
 PAR  G(EU2NI17,EU:NI),,                +2*GHSEREU+17*GHSERNI
             -202350+4.75*T;,,                                        N 16Kar !
$ ------------------------------------------------------------------------------
$
$
 LIST-OF-REFERENCE
 NUMBER  SOURCE
  Null   'Unknown source'
  Same   'Same or similar interaction as in the corresponding stable phase'
  REFLAV 'Laves phase convention: G(LAVES,X:X)=+3*GHSERXX+15000'
  91Din  'A.T. Dinsdale, Calphad, 15, 317-425(1991).'
  99Gho  'G. Ghosh, Metall. Mater. Trans. A, 30A, 1481-94(1999),
          SGTE unary database V.5.0, 2009; Ni'
  11Gao  'F. Gao, S.L. Wang, C.P. Wang, X.J. Liu,
          Calphad, 35, 1-5(2011); Eu'
  16Kar  'S. Kardellass, C. Servant, N. Selhaoui,
          J. Thermal Anal. Calorim., 125, 255-69(2016); Eu-Ni'
!
