$
$ Database for Nb-F from E. Capelli and R.J.M. Konings 2018.
$
$ E. Capelli, R.J.M. Konings, J. Fluorine Chem., 208, 55-64(2018).
$
$ Dataset created 2023.10.25 by Bengt Hallstedt.
$
$ This is only a partial dataset including the solid fluorides and liquid NbF5.
$ The paper also includes data for several gaseous species. Those are not
$ included here as their heat capacities are expressed using non-standard
$ polynomials which cannot be easily converted to Gibbs energies. SGSUB only
$ includes NbF5 (solid, liquid and gas). The data for NbF5(g) are included
$ here. The liquid has not been modelled (due to lack of data) beside NbF5.
$
$ NbF5 is restabilized above 2031 K because of strongly increasing
$ heat capacity. In the paper the maximum temperture is given as 352 K,
$ i.e. its melting point. Here, the phase is killed at 1499 K.
$
$ Gase phase equilibria (i.e. sublimation temperatures of the fluorides) are
$ are only very approximately reproduced.
$
$ Without liquid interaction there is up to 18 at.% F solubility in liquid Nb.
$ There is no indication about this in the paper, but most probably the
$ solubility should be much smaller, which would require a positive liquid
$ interaction.
$
$ ------------------------------------------------------------------------------
 TEMP-LIM 298.15 6000.00 !
$
$ELEMENT NAME  REF. STATE               ATOMIC MASS H298-H0    S298    !
$
 ELEMENT /-   ELECTRON_GAS                0.0          0.0      0.0    ! 
 ELEMENT VA   VACUUM                      0.0          0.0      0.0    ! 
 ELEMENT NB   BCC_A2                     92.9064    5220.0     36.27   ! 
 ELEMENT F    1/2_MOLE_F2(G)             18.998     4412.5    101.34   ! 
$ ------------------------------------------------------------------------------
$ Species
$
 SPECIE  NB+5                               NB1/+5 !
 SPECIE  NBF5                               NB1F5 !
 SPECIE  F-1                                F1/-1 !
 SPECIE  F2                                 F2 !
$ ------------------------------------------------------------------------------
$ Phase definitions
$
 PHASE ION:Y % 2 1 1 !
 CONST ION:Y : NB+5 : F-1 VA : !
$
 PHASE LIQUID:L % 1 1 !
 CONST LIQUID:L : NB : !
$
$ Fcc (cF4, Fm-3m) and MeX (cF8, Fm-3m)
$
 PHASE FCC_A1 %A 2 1 1 !
 CONST FCC_A1 : NB : VA : !
$
$ Bcc (cI2, Im-3m)
$
 PHASE BCC_A2 %B 2 1 3 !
 CONST BCC_A2 : NB : VA : !
$
$ Hcp (hP2, P6_3/mmc) and Me2X (NiAs-type, hP4, P6_3/mmc, B8_1)
$
 PHASE HCP_A3 %A 2 1 0.5 !
 CONST HCP_A3 : NB : VA : !
$
$ Prototype ReO3 (cP4, Pm-3m)
$
 PHASE NBF3_D09 % 2 1 3 !
 CONST NBF3_D09 : NB : F : !
$
$ Prototype SnF4 (tI10, I4/mmm)
$
 PHASE NBF4 % 2 1 4 !
 CONST NBF4 : NB : F : !
$
$ Prototype MoF5 (mC48, C2/m)
$
 PHASE NBF5 % 2 1 5 !
 CONST NBF5 : NB : F : !
$
 PHASE GAS:G % 1 1 !
 CONST GAS:G : NB NBF5 F F2 : !
$ ------------------------------------------------------------------------------
$ Defaults
$
 DEFINE-SYSTEM-DEFAULT ELEMENT 2 !
 DEFAULT-COM DEFINE_SYSTEM_ELEMENT VA /- !
 TYPE-DEF % SEQ * !
 TYPE-DEF A GES AMEND_PHASE_DESCRIPTION @ MAGNETIC -3 0.28 !
 TYPE-DEF B GES AMEND_PHASE_DESCRIPTION @ MAGNETIC -1 0.4 !
 DEFAULT-COM REJECT_PHASE LIQUID !
 FUNCTION ZERO      298.15  0;                                         6000 N !
 FUNCTION UN_ASS    298.15  0;                                         6000 N !
 FUNCTION R         298.15  +8.31451;                                  6000 N !
 FUNCTION RTLNP     298.15  +8.31451*T*LN(1E-05*P);                    6000 N !
$ ------------------------------------------------------------------------------
$ Element data
$ ------------------------------------------------------------------------------
$ F
$
 PAR  G(GAS,F;0),,                      +F8515T+RTLNP;,,              N 97SUB !
 PAR  G(GAS,F2;0),,                     +F8895T+RTLNP;,,              N 97SUB !
$
$ F(g)
 FUNCTION F8515T    298.15  +72560.703-1.9271435*T-23.59104*T*LN(T)
       +0.0019384005*T**2-2.53047833E-07*T**3-8269.77*T**(-1);
      1200.00  Y  +74350.3316-20.9416538*T-20.82144*T*LN(T)
       +4.4288955E-06*T**2-9.51040667E-11*T**3-234363.6*T**(-1);
     10000.00  N !
$ F2(g)
 FUNCTION F8895T    298.15  -9757.53555-3.03641433*T-29.08493*T*LN(T)
       -0.007466065*T**2+1.16183617E-06*T**3+72117.3*T**(-1);
       800.00  Y  -10225.5136+17.0719037*T-32.43806*T*LN(T)
       -0.0028914815*T**2+2.13090167E-07*T**3-31206.07*T**(-1);
      2500.00  Y  -75010.7094+286.369351*T-66.19232*T*LN(T)
       +0.004699418*T**2-9.36513E-08*T**3+22790040*T**(-1);
      6800.00  Y  +79866.2358-46.2596194*T-28.00029*T*LN(T)
       +4.8653845E-04*T**2-6.238305E-09*T**3-96222900*T**(-1);
     10000.00  N !
$ ------------------------------------------------------------------------------
$ Nb
$
 PAR  G(BCC_A2,NB:VA),,                 +GHSERNB;,,                   N 91Din !
 PAR  G(FCC_A1,NB:VA),,                 +GHSERNB+13500+1.7*T;,,       N 91Din !
 PAR  G(HCP_A3,NB:VA),,                 +GHSERNB+10000+2.4*T;,,       N 91Din !
 PAR  G(LIQUID,NB),,                    +GLIQNB;,,                    N 91Din !
$
 PAR  G(ION,NB+5:VA),,                  +GLIQNB;,,                    N 91Din !
 PAR  G(GAS,NB),,                       +F13077T+RTLNP;,,             N 97SUB !
$
 FUNCTION GHSERNB   298.15  -8519.353+142.045475*T-26.4711*T*LN(T)
       +2.03475E-04*T**2-3.5012E-07*T**3+93399*T**(-1);
      2750.00  Y  -37669.3+271.720843*T-41.77*T*LN(T)+1.528238E+32*T**(-9);
      6000.00  N !
 FUNCTION GLIQNB    298.15  +29781.555-10.816418*T+GHSERNB-3.06098E-23*T**7;
      2750.00  Y  -7499.398+260.756148*T-41.77*T*LN(T);
      6000.00  N !
$ Nb(g)
 FUNCTION F13077T   298.15  +712766.598+48.6410598*T-35.6334*T*LN(T)
       +0.0078268*T**2-9.99561333E-07*T**3+58000.7*T**(-1);
      1000.00  Y  +718250.236-5.01491454*T-27.90045*T*LN(T)
       +0.0026618495*T**2-3.10671333E-07*T**3-710928.5*T**(-1);
      2800.00  Y  +747948.465-181.458415*T-4.752182*T*LN(T)
       -0.004599283*T**2+9.27975E-08*T**3-6445975*T**(-1);
      6400.00  Y  +744601.843-140.597978*T-9.951641*T*LN(T)
       -0.0035367055*T**2+6.06727333E-08*T**3-16843960*T**(-1);
     10000.00  N !
$ ------------------------------------------------------------------------------
$ Binary system
$
$ E. Capelli, R.J.M. Konings, J. Fluorine Chem., 208, 55-64(2018).
$
$ Checked against paper. Checked at 6000 K.
$
$ This is only a partial dataset including the solid fluorides and liquid NbF5.
$ The paper also includes data for several gaseous species. Those are not
$ included here as their heat capacities are expressed using non-standard
$ polynomials which cannot be easily converted to Gibbs energies. SGSUB only
$ includes NbF5 (solid, liquid and gas). The data for NbF5(g) are included
$ here. The liquid has not been modelled (due to lack of data) beside NbF5.
$
$ NbF5 is restabilized above 2031 K because of strongly increasing
$ heat capacity. In the paper the maximum temperture is given as 352 K,
$ i.e. its melting point. Here, the phase is killed at 1499 K.
$
$ Gase phase equilibria (i.e. sublimation temperatures of the fluorides) are
$ are only very approximately reproduced.
$
$ Without liquid interaction there is up to 18 at.% F solubility in liquid Nb.
$ There is no indication about this in the paper, but most probably the
$ solubility should be much smaller, which would require a positive liquid
$ interaction.
$
 PAR  G(ION,NB+5:F-1),,                 -1844401+808.02807*T
             -150.6*T*LN(T);,,                                        N 18Cap !
$
 PAR  G(NBF3_D09,NB:F),,                +GNBF3;,,                     N 18Cap !
 PAR  G(NBF4,NB:F),,                    +GNBF4;,,                     N 18Cap !
 PAR  G(NBF5,NB:F),,                    +GNBF5;                  1500 N 18Cap !
$
 PAR  G(GAS,NBF5),,                     +F9715T+RTLNP;,,              N 97SUB !
$
$ NbF3(s)
 FUNCTION GNBF3     298.15  -1196346+205.56635*T-39.579*T*LN(T)
       -0.0859*T**2;
       352.00  Y  -1206741+558.1937*T-99.801*T*LN(T)-0.00085*T**2;
      3500.00  N !
$ NbF4(s)
 FUNCTION GNBF4     298.15  -1541215+234.39534*T-45.117*T*LN(T)
       -0.11355*T**2;
       352.00  Y  -1555018+702.84861*T-125.13*T*LN(T)-0.00045*T**2;
      3500.00  N !
$ NbF5(s)
 FUNCTION GNBF5     298.15  -1842665+287.52031*T-54.527*T*LN(T)
       -0.1372*T**2+67390*T**(-1);
      1499.00  Y  +ZERO;
      1500.00  N !
$ NbF5(g)
 FUNCTION F9715T    298.15  -1757106.18+423.066355*T-110.8639*T*LN(T)
       -0.019973215*T**2+3.421555E-06*T**3+813650*T**(-1);
       800.00  Y  -1767914.76+567.660374*T-132.767*T*LN(T)
       -5.33622E-05*T**2+1.85753E-09*T**3+1826863*T**(-1);
      6000.00  N !
$ ------------------------------------------------------------------------------
$
$
 LIST-OF-REFERENCE
 NUMBER  SOURCE
  Null   'Unknown source'
  Same   'Same or similar interaction as in the corresponding stable phase'
  REFLAV 'Laves phase convention: G(LAVES,X:X)=+3*GHSERXX+15000'
  91Din  'A.T. Dinsdale, Calphad, 15, 317-425(1991).'
  97SUB  'SGTE substance database, version 1997'
  18Cap  'E. Capelli, R.J.M. Konings,
          J. Fluorine Chem., 208, 55-64(2018); Nb-F'
!
