$
$ Database for Gd-Mg from C. Guo et al. 2007
$
$ C. Guo, Z. Du, C. Li, Calphad, 31, 75-88(2007).
$
$ Dataset created 2016.05.29 by Bengt Hallstedt.
$ 2021.01.03: Modified for use with GES6.
$
$ ------------------------------------------------------------------------------
 TEMP-LIM 298.15 6000.00 !
$
$ELEMENT NAME  REF. STATE               ATOMIC MASS H298-H0    S298    !
$
 ELEMENT VA   VACUUM                      0.0          0.0      0.0    ! 
 ELEMENT GD   HCP_A3                    157.25      9087.648   68.0894 ! 
 ELEMENT MG   HCP_A3                     24.305     4998.      32.671  !
$ ------------------------------------------------------------------------------
$ Phase definitions
$
 PHASE LIQUID:L % 1 1 !
 CONST LIQUID:L : GD MG : !
$
$ Fcc (cF4, Fm-3m) and MeX (cF8, Fm-3m)
$
 PHASE FCC_A1 %A 2 1 1 !
 CONST FCC_A1 : GD MG : VA : !
$
$ Bcc (cI2, Im-3m)
$
 PHASE BCC_A2 %B 2 1 3 !
 CONST BCC_A2 : GD MG : VA : !
$
$ Disordered part of B2_BCC, identical to BCC_A2
$
 PHASE A2_BCC %B 2 1 3 !
 CONST A2_BCC : GD MG : VA : !
$
$ Prototype CsCl (cP2, Pm3m)
$
 PHASE B2_BCC %O 3 0.5 0.5 3 !
 CONST B2_BCC : GD% MG : GD MG% : VA : !
$
$ Hcp (hP2, P6_3/mmc) and Me2X (NiAs-type, hP4, P6_3/mmc, B8_1)
$
 PHASE HCP_A3 %A 2 1 0.5 !
 CONST HCP_A3 : GD MG : VA : !
$
$ Prototype Cu2Mg (cF24, Fd-3m)
$
 PHASE GDMG2_C15 % 2 1 2 !
 CONST GDMG2_C15 : GD : MG : !
$
$ Prototype BiF3 (cF16, Fm-3m)
$
 PHASE GDMG3_D03 % 2 1 3 !
 CONST GDMG3_D03 : GD : MG : !
$
$ Prototype Cd45Sm11 (cF448, F-43m)
$
 PHASE GDMG5 % 2 1 5 !
 CONST GDMG5 : GD : MG : !
$ ------------------------------------------------------------------------------
$ Defaults
$
 DEFINE-SYSTEM-DEFAULT ELEMENT 2 !
 DEFAULT-COM DEFINE_SYSTEM_ELEMENT VA !
 DEFAULT-COM REJECT_PHASE BCC_A2 !
 TYPE-DEF % SEQ * !
 TYPE-DEF A GES AMEND_PHASE_DESCRIPTION @ MAGNETIC -3 0.28 !
 TYPE-DEF B GES AMEND_PHASE_DESCRIPTION @ MAGNETIC -1 0.4 !
 TYPE-DEF O GES AMEND_PHASE_DESCRIPTION B2_BCC DIS_PART A2_BCC !
 FUNCTION ZERO      298.15  0;                                         6000 N !
 FUNCTION UN_ASS    298.15  0;                                         6000 N !
 FUNCTION R         298.15  +8.31451;                                  6000 N !
$ ------------------------------------------------------------------------------
$ Element data
$ ------------------------------------------------------------------------------
$ Gd
$
$ HCP_A3, BCC_A2 and LIQUID revised in unary 3.0
$ Small correction made to top two temperature ranges of bcc_A2 to ensure 
$ continuity in Gibbs energy, AD, Dec 2002
$ FCC_A1 added in unary 4.4
$
$ RHOMB_C19 from 10Guo not included in unary
$
 PAR  G(HCP_A3,GD:VA)           200.00  +GHSERGD;                3600 N 95She2 !
 PAR  TC(HCP_A3,GD:VA)          200.00    293.4;                 3600 N 95She2 !
 PAR  BMAGN(HCP_A3,GD:VA)       200.00      3.0;                 3600 N 95She2 !
$PAR  TC(HCP_A3,GD:VA)          200.00    291.8;                 3600 N 91Din !
$PAR  BMAGN(HCP_A3,GD:VA)       200.00      3.0;                 3600 N 91Din !
 PAR  G(FCC_A1,GD:VA)           200.00  +GHSERGD+500;            3600 N 00Zin !
 PAR  G(BCC_A2,GD:VA)           200.00  +GBCCGD;                 3600 N 95She2 !
 PAR  G(A2_BCC,GD:VA)           200.00  +GBCCGD;                 3600 N 95She2 !
$PAR  G(RHOMB_C19,GD)           200.00  +GHSERGD+5000;           3600 N 10Guo !
 PAR  G(LIQUID,GD)              200.00  +GLIQGD;                 3600 N 95She2 !
$
 FUNCTION GHSERGD   200.00  -6834.5855+97.13101*T-24.7214131*T*LN(T)
       -0.00285240521*T**2-3.14674076E-07*T**3-8665.73348*T**(-1);
      1000.00  Y  -6483.25362+95.6919924*T-24.6598297*T*LN(T)
       -0.00185225011*T**2-6.61211607E-07*T**3;
      1508.15  Y  -123124.992+699.125537*T-101.800197*T*LN(T)
       +0.0150644246*T**2-6.39165948E-07*T**3+29356890.3*T**(-1);
      3600.00  N !
 FUNCTION GBCCGD    200.00  +3233.80866-2.11184585*T+GHSERGD;
      1000.00  Y  +152792.743-1349.58873*T+180.097094*T*LN(T)
       -0.119550229*T**2+1.17915728E-05*T**3-22038836*T**(-1);
      1508.15  Y  -15783.7618+202.222183*T-38.960425*T*LN(T);
      1586.15  Y  -19850.5562+224.818035*T-41.904333*T*LN(T)
       +8.58222759E-04*T**2-3.77570269E-08*T**3+995428.573*T**(-1);
      3600.00  N !
 FUNCTION GLIQGD    200.00  +13060.0262-8.32179974*T+GHSERGD;
      1000.00  Y  +146262.037-1208.70685*T+159.352082*T*LN(T)
       -0.108247135*T**2+1.06945505E-05*T**3-19678357*T**(-1);
      1508.15  Y  -5397.314+192.336215*T-38.5075*T*LN(T);
      3600.00  N !
$ ------------------------------------------------------------------------------
$ Mg
$
 PAR  G(FCC_A1,MG:VA),,                 +GHSERMG+2600-0.9*T;     3000 N 91Din !
 PAR  G(BCC_A2,MG:VA),,                 +GHSERMG+3100-2.1*T;     3000 N 91Din !
 PAR  G(A2_BCC,MG:VA),,                 +GHSERMG+3100-2.1*T;     3000 N 91Din !
 PAR  G(HCP_A3,MG:VA),,                 +GHSERMG;                3000 N 91Din !
 PAR  G(LIQUID,MG),,                    +GLIQMG;                 3000 N 91Din !
$
 FUNCTION GHSERMG   298.15  -8367.34+143.675547*T-26.1849782*T*LN(T)
       +4.858E-04*T**2-1.393669E-06*T**3+78950*T**(-1);
       923.00  Y  -14130.185+204.716215*T-34.3088*T*LN(T)+1.038192E+28*T**(-9);
      3000.00  N !
 FUNCTION GLIQMG    298.15  +8202.243-8.83693*T+GHSERMG-8.0176E-20*T**7;
       923.00  Y  -5439.869+195.324057*T-34.3088*T*LN(T);
      3000.00  N !
$ ------------------------------------------------------------------------------
$ Binary system
$
$ C. Guo, Z. Du, C. Li, Calphad, 31, 75-88(2007).
$
$ Checked against paper. Checked at 6000 K.
$
 PAR  L(LIQUID,GD,MG;0),,               -36681.3+16.2484*T;,,         N 07Guo !
 PAR  L(LIQUID,GD,MG;1),,               +34233.8-10.7783*T;,,         N 07Guo !
 PAR  L(LIQUID,GD,MG;2),,               -7352.9;,,                    N 07Guo !
$
 PAR  L(BCC_A2,GD,MG:VA;0),,            -45347.5+25.5692*T;,,         N 07Guo !
 PAR  L(BCC_A2,GD,MG:VA;1),,            +10195+1.3355*T;,,            N 07Guo !
 PAR  L(BCC_A2,GD,MG:VA;2),,            +3267.1-3.5551*T;,,           N 07Guo !
$
 PAR  L(A2_BCC,GD,MG:VA;0),,            -45347.5+25.5692*T;,,         N 07Guo !
 PAR  L(A2_BCC,GD,MG:VA;1),,            +10195+1.3355*T;,,            N 07Guo !
 PAR  L(A2_BCC,GD,MG:VA;2),,            +3267.1-3.5551*T;,,           N 07Guo !
$
 PAR  G(B2_BCC,GD:MG:VA),,              -28695.4+6.1567*T;,,          N 07Guo !
 PAR  G(B2_BCC,MG:GD:VA),,              -28695.4+6.1567*T;,,          N 07Guo !
 PAR  L(B2_BCC,GD,MG:GD:VA;0),,         -15446.6;,,                   N 07Guo !
 PAR  L(B2_BCC,GD:GD,MG:VA;0),,         -15446.6;,,                   N 07Guo !
 PAR  L(B2_BCC,GD,MG:GD:VA;1),,         -16247.3;,,                   N 07Guo !
 PAR  L(B2_BCC,GD:GD,MG:VA;1),,         -16247.3;,,                   N 07Guo !
$
 PAR  L(HCP_A3,GD,MG:VA;0),,            -33346.6+19.3451*T;,,         N 07Guo !
 PAR  L(HCP_A3,GD,MG:VA;1),,            +13854;,,                     N 07Guo !
$
 PAR  G(GDMG2_C15,GD:MG),,              +GHSERGD+2*GHSERMG
             -50777+17.149*T;,,                                       N 07Guo !
 PAR  G(GDMG3_D03,GD:MG),,              +GHSERGD+3*GHSERMG
             -54289.8+13.0162*T;,,                                    N 07Guo !
 PAR  G(GDMG5,GD:MG),,                  +GHSERGD+5*GHSERMG
             -60521.6+11.2668*T;,,                                    N 07Guo !
$
$ Metastable
$
 PAR  L(FCC_A1,GD,MG:VA;0),,            -33346.6+19.3451*T;,,         N Same !
 PAR  L(FCC_A1,GD,MG:VA;1),,            +13854;,,                     N Same !
$ ------------------------------------------------------------------------------
$
 ASSESSED_SYSTEM
  GD-MG(TDB -* +LIQUID +HCP_A3 +A2_BCC +B2_BCC +GDMG2_C15 +GDMG5 +GDMG3 
  ;G5 C_S:BCC_B2/GD:MG:VA MAJ:BCC_B2/GD:GD:VA ;P3 STP:.2/800/1) !
$
$
 LIST-OF-REFERENCE
 NUMBER  SOURCE
  Null   'Unknown source'
  Same   'Same or similar interaction as in the corresponding stable phase'
  COST   'COST 507 database'
  REFLAV 'Laves phase convention: G(LAVES,X:X)=+3*GHSERXX+15000'
  91Din  'A.T. Dinsdale, Calphad, 15, 317-425(1991).'
  95She2 'H. Shen, W. Zhang, G. Liu, R. Wang, Z. Du, Report F-95-02,
          University of Science and Technology, Beijing, May 1995,
          SGTE unary database V.3.0, 1996; Gd'
  00Zin  'M. Zinkevich, N. Mattern, H. J Seifert,
          J. Phase Equilib., 21, 385-94(2000),
          SGTE unary database V.4.4, 2001; Gd'
  03Cac  'G. Cacciamani, S. De Negri, A. Saccone, R. Ferro,
          Intermetallics, 11, 1135-51(2003); Gd-Mg'
  07Guo  'C. Guo, Z. Du, C. Li, Calphad, 31, 75-88(2007); Gd-Mg'
  10Guo  'C. Guo, Z. Du, C. Li, Calphad, 34, 90-97(2010); Gd'
!
