$
$ Database for Ga-Te from S. Yu et al. 2022.
$
$ S. Yu, J. Wang, D. Cui, S. Chen, Q. Wu, Y. Du,
$ J. Phase Equilib. Diffus., 43, 193-213(2022).
$
$ Dataset created 2022.09.25 by Bengt Hallstedt.
$
$ ------------------------------------------------------------------------------
 TEMP-LIM 298.15 6000.00 !
$
$ELEMENT NAME  REF. STATE               ATOMIC MASS H298-H0    S298    !
$
 ELEMENT VA   VACUUM                      0.0          0.0      0.0    ! 
 ELEMENT GA   ORTHORHOMBIC_GA            69.72      5572.0     40.7271 ! 
 ELEMENT TE   HEXAGONAL_A8              127.60      6080.      49.221  ! 
$ ------------------------------------------------------------------------------
$ Species
$
 SPECIE  GA2TE3                             GA2TE3 !
$ ------------------------------------------------------------------------------
$ Phase definitions
$
 PHASE LIQUID:L % 1 1 !
 CONST LIQUID:L : GA GA2TE3 TE : !
$
$ Prototype gamma-Se (hP3, P3_121)
$ The phase is named HEXAGONAL_A8 in the SGTE unary database and
$ TRIGONAL_A8 in LB.
$
 PHASE HEXAGONAL_A8 % 1 1 !
 CONST HEXAGONAL_A8 : TE : !
$
$ alpha-Ga (oC8, Cmca)
$
 PHASE ORTHORHOMBIC_A11 % 1 1 !
 CONST ORTHORHOMBIC_A11 : GA : !
$
$ Prototype SiAs (mC24, C2/m)
$
 PHASE GATE % 2 1 1 !
 CONST GATE : GA : TE : !
$
$ hexagonal
$
 PHASE GA3TE4 % 2 3 4 !
 CONST GA3TE4 : GA : TE : !
$
$ Prototype ZnS (cF8, F-43m)
$
 PHASE GA2TE3_B3 % 2 2 3 !
 CONST GA2TE3_B3 : GA : TE : !
$
$ Prototype Ga2Te5 (tI14, I4/m)
$
 PHASE GA2TE5 % 2 2 5 !
 CONST GA2TE5 : GA : TE : !
$ ------------------------------------------------------------------------------
$ Defaults
$
 DEFINE-SYSTEM-DEFAULT ELEMENT 2 !
 DEFAULT-COM DEFINE_SYSTEM_ELEMENT VA !
 TYPE-DEF % SEQ * !
 TYPE-DEF A GES AMEND_PHASE_DESCRIPTION @ MAGNETIC -3 0.28 !
 TYPE-DEF B GES AMEND_PHASE_DESCRIPTION @ MAGNETIC -1 0.4 !
 FUNCTION ZERO      298.15  0;                                         6000 N !
 FUNCTION UN_ASS    298.15  0;                                         6000 N !
 FUNCTION R         298.15  +8.31451;                                  6000 N !
$ ------------------------------------------------------------------------------
$ Element data
$ ------------------------------------------------------------------------------
$ Ga
$
$ DIAMOND_A4 added in unary 5.0
$
$ Changed name from ORTHORHOMBIC_GA to ORTHORHOMBIC_A11
$
 PAR  G(ORTHORHOMBIC_A11,GA)    200.00  +GHSERGA;                4000 N 91Din !
$PAR  G(FCC_A1,GA:VA)           200.00  +GHSERGA+3800-10.2*T;    4000 N 91Din !
$PAR  G(BCC_A2,GA:VA)           200.00  +GHSERGA+4500-11.7*T;    4000 N 91Din !
$PAR  G(HCP_A3,GA:VA)           200.00  +GHSERGA+4500-9.5*T;     4000 N 91Din !
$PAR  G(DIAMOND_A4,GA)          200.00  +GHSERGA+20900-2*T;      4000 N 09SGUN !
$PAR  G(BCT_A5,GA)              200.00  +GHSERGA+3846-9.8*T;     4000 N 91Din !
$PAR  G(TETRAGONAL_A6,GA)       200.00  +GHSERGA+3500-10*T;      4000 N 91Din !
 PAR  G(LIQUID,GA)              200.00  +GLIQGA;                 4000 N 91Din !
$
 FUNCTION GHSERGA   200.00  -21312.331+585.263691*T-108.228783*T*LN(T)
       +0.227155636*T**2-1.18575257E-04*T**3+439954*T**(-1);
       302.91  Y  -7055.643+132.73019*T-26.0692906*T*LN(T)
       +1.506E-04*T**2-4.0173E-08*T**3-118332*T**(-1)+1.64547E+23*T**(-9);
      4000.00  N !
 FUNCTION GLIQGA    200.00  +5491.298-18.073995*T+GHSERGA-7.0171E-17*T**7;
       302.91  Y  +5666.455-18.681147*T+GHSERGA-1.64547E+23*T**(-9);
      4000.00  N !
$ ------------------------------------------------------------------------------
$ Te
$
$ HEXAGONAL_A8 and LIQUID revised in unary 3.0
$
$ RHOMBOHEDRAL_A7 from 89Gho not included in unary
$
 PAR  G(HEXAGONAL_A8,TE),,              +GHSERTE;                1600 N 95Dav !
$PAR  G(RHOMBOHEDRAL_A7,TE),,           +GHSERTE+15*T;           1600 N 89Gho !
 PAR  G(LIQUID,TE),,                    +GLIQTE;                 1600 N 95Dav !
$
 FUNCTION GHSERTE   298.15  -10544.679+183.372894*T-35.6687*T*LN(T)
       +0.01583435*T**2-5.240417E-06*T**3+155015*T**(-1);
       722.66  Y  +9160.595-129.265373*T+13.004*T*LN(T)
       -0.0362361*T**2+5.006367E-06*T**3-1286810*T**(-1);
      1150.00  Y  -12781.349+174.901226*T-32.5596*T*LN(T);
      1600.00  N !
 FUNCTION GLIQTE    298.15  -17554.731+685.877639*T-126.318*T*LN(T)
       +0.2219435*T**2-9.42075E-05*T**3+827930*T**(-1);
       626.49  Y  -3165763.48+46756.357*T-7196.41*T*LN(T)
       +7.09775*T**2-0.00130692833*T**3+2.58051E+08*T**(-1);
       722.66  Y  +180326.959-1500.57909*T+202.743*T*LN(T)
       -0.142016*T**2+1.6129733E-05*T**3-24238450*T**(-1);
      1150.00  Y  +19110.036-26.1929273*T+GHSERTE;
      1600.00  N !
$ ------------------------------------------------------------------------------
$ Binary system
$
$ S. Yu, J. Wang, D. Cui, S. Chen, Q. Wu, Y. Du,
$ J. Phase Equilib. Diffus., 43, 193-213(2022).
$
$ Checked against paper and author's tdb. Checked at 6000 K.
$
 PAR  G(LIQUID,GA2TE3),,                +2*GLIQGA+3*GLIQTE
             -242107+139*T;,,                                         N 22Yu !
 PAR  L(LIQUID,GA,GA2TE3;0),,           +68876-135.078*T;,,           N 22Yu !
 PAR  L(LIQUID,GA,GA2TE3;1),,           +47263-17.305*T;,,            N 22Yu !
 PAR  L(LIQUID,GA,GA2TE3;2),,           +19000;,,                     N 22Yu !
 PAR  L(LIQUID,GA2TE3,TE;0),,           +43333-91.919*T;,,            N 22Yu !
 PAR  L(LIQUID,GA2TE3,TE;1),,           -31800+4.764*T;,,             N 22Yu !
 PAR  L(LIQUID,GA2TE3,TE;2),,           -19262;,,                     N 22Yu !
$
 PAR  G(GATE,GA:TE),,                   +2*GGATE;,,                   N 22Yu !
 PAR  G(GA3TE4,GA:TE),,                 +3*GHSERGA+4*GHSERTE
             -283150+30.31*T;,,                                       N 22Yu !
 PAR  G(GA2TE3_B3,GA:TE),,              +5*GGA2TE3;,,                 N 22Yu !
 PAR  G(GA2TE5,GA:TE),,                 +2*GHSERGA+5*GHSERTE
             -157563-38.087*T;,,                                      N 22Yu !
$
 FUNCTION GGATE      50.00  -46459+108.071*T-21.945*T*LN(T)
       -0.006134*T**2+8.385E-07*T**3+22540*T**(-1);
      1600.00  N !
 FUNCTION GGA2TE3    50.00  -45194+100.579*T-21.044*T*LN(T)
       -0.006287*T**2+1.059E-06*T**3+17510*T**(-1);
      1600.00  N !
$ ------------------------------------------------------------------------------
$
 ASSESSED_SYSTEM
  GA-TE(TDB -* +LIQUID +ORTHO_A11 +GATE +GA2TE3_B3 +GA2TE5 +GA3TE4 +HEXAGON_A8
  ;G5 C_S:ION/GA+3:VA MAJ:ION/GA+3:TE-2
  ;P3 TMM:200/1500 STP:.2/1050/1 STP:.1/1000/1) !
$
$
 LIST-OF-REFERENCE
 NUMBER  SOURCE
  Null   'Unknown source'
  Same   'Same or similar interaction as in the corresponding stable phase'
  REFLAV 'Laves phase convention: G(LAVES,X:X)=+3*GHSERXX+15000'
  COST   'COST 507 database, 1998'
  89Gho  'G. Ghosh, H.L. Lukas, L. Delaey,
          Z. Metallkd., 80, 731-36 (1989); Sb-Te'
  91Din  'A.T. Dinsdale, Calphad, 15, 317-425(1991).'
  95Dav  'A.V. Davydov, M.H. Rand, B.B. Argent, Calphad, 19, 375-87(1995),
          SGTE unary database V.3.0, 1996; Te'
  09SGUN 'SGTE unary database V.5.0, 2009.'
  22Yu   'S. Yu, J. Wang, D. Cui, S. Chen, Q. Wu, Y. Du,
          J. Phase Equilib. Diffus., 43, 193-213(2022); Ga-Te'
!
