$
$ Database for Cu-Sr from D. Risold et al. 1996 (included in LB Vol. 3)
$
$ D. Risold, B. Hallstedt, L.J. Gauckler, H.L. Lukas, S.G. Fries,
$ Calphad, 20, 151-60(1996).
$
$ Dataset created 2009.10.26 by Bengt Hallstedt.
$ 2020.12.26: Modified for use with GES6.
$
$ LBall-v7+fun.tdb has a different fcc interaction (60*T instead of 80*T)
$ resulting in a slightly higher Cu solubility in fcc-Sr (and Sr solubility
$ in fcc-Cu) and a shift of the L + fcc-Sr + bcc-Sr equilibrium from 820 K
$ to 822 K.
$
$ There is an inverse miscibility gap with a minimum at x(Sr)=0.33 and 3254 K.
$
$ ------------------------------------------------------------------------------
 TEMP-LIM 298.15 6000.00 !
$
$ELEMENT NAME  REF. STATE               ATOMIC MASS H298-H0    S298    !
$
 ELEMENT VA   VACUUM                      0.0          0.0      0.0    ! 
 ELEMENT CU   FCC_A1                     63.546     5004.      33.15   !
 ELEMENT SR   FCC_A1                     87.62      6568.      55.694  ! 
$ ------------------------------------------------------------------------------
$ Phase definitions
$
 PHASE LIQUID:L % 1 1 !
 CONST LIQUID:L : CU SR : !
$
$ Fcc (cF4, Fm-3m) and MeX (cF8, Fm-3m)
$
 PHASE FCC_A1 %A 2 1 1 !
 CONST FCC_A1 : CU% SR% : VA : !
$
$ Bcc (cI2, Im-3m)
$
 PHASE BCC_A2 %B 2 1 3 !
 CONST BCC_A2 : CU SR% : VA : !
$
$ Hcp (hP2, P6_3/mmc) and Me2X (NiAs-type, hP4, P6_3/mmc, B8_1)
$
 PHASE HCP_A3 %A 2 1 0.5 !
 CONST HCP_A3 : CU SR : VA : !
$
$ Prototype CaCu5 (hP6, P6/mmm)
$
 PHASE CU5SR_D2D % 2 5 1 !
 CONST CU5SR_D2D : CU : SR : !
$
$ Prototype BaCu (hP8, P6_3/mmc)
$
 PHASE CUSR % 2 1 1 !
 CONST CUSR : CU : SR : !
$ ------------------------------------------------------------------------------
$ Defaults
$
 DEFINE-SYSTEM-DEFAULT ELEMENT 2 !
 DEFAULT-COM DEFINE_SYSTEM_ELEMENT VA !
 TYPE-DEF % SEQ * !
 TYPE-DEF A GES AMEND_PHASE_DESCRIPTION @ MAGNETIC -3 0.28 !
 TYPE-DEF B GES AMEND_PHASE_DESCRIPTION @ MAGNETIC -1 0.4 !
 FUNCTION ZERO      298.15  0;                                         6000 N !
 FUNCTION UN_ASS    298.15  0;                                         6000 N !
 FUNCTION R         298.15  +8.31451;                                  6000 N !
$ ------------------------------------------------------------------------------
$ Element data
$ ------------------------------------------------------------------------------
$ Cu
$
 PAR  G(FCC_A1,CU:VA),,                 +GHSERCU;                3200 N 91Din !
 PAR  G(BCC_A2,CU:VA),,                 +GHSERCU+4017-1.255*T;   3200 N 91Din !
 PAR  G(HCP_A3,CU:VA),,                 +GHSERCU+600+0.2*T;      3200 N 91Din !
 PAR  G(LIQUID,CU),,                    +GLIQCU;                 3200 N 91Din !
$
 FUNCTION GHSERCU   298.15  -7770.458+130.485235*T-24.112392*T*LN(T)
       -0.00265684*T**2+1.29223E-07*T**3+52478*T**(-1);
      1357.77  Y  -13542.026+183.803828*T-31.38*T*LN(T)+3.64167E+29*T**(-9);
      3200.00  N !
 FUNCTION GLIQCU    298.15  +12964.735-9.511904*T+GHSERCU-5.8489E-21*T**7;
      1357.77  Y  -46.545+173.881484*T-31.38*T*LN(T);
      3200.00  N !
$ ------------------------------------------------------------------------------
$ Sr
$
 PAR  G(FCC_A1,SR:VA),,                 +GHSERSR;                3000 N 91Din !
 PAR  G(BCC_A2,SR:VA),,                 +GBCCSR;                 3000 N 91Din !
 PAR  G(HCP_A3,SR:VA),,                 +GHSERSR+250+0.7*T;      3000 N 91Din !
 PAR  G(LIQUID,SR),,                    +GLIQSR;                 3000 N 91Din !
$
 FUNCTION GHSERSR   298.15  -7532.367+107.183879*T-23.905*T*LN(T)
       -0.00461225*T**2-1.67477E-07*T**3-2055*T**(-1);
       820.00  Y  -13380.102+153.196104*T-30.0905432*T*LN(T)
       -0.003251266*T**2+1.84189E-07*T**3+850134*T**(-1);
      3000.00  N !
 FUNCTION GBCCSR    298.15  -6779.234+116.583654*T-25.6708365*T*LN(T)
       -0.003126762*T**2+2.2965E-07*T**3+27649*T**(-1);
       820.00  Y  -6970.594+122.067301*T-26.57*T*LN(T)
       -0.0019493*T**2-1.7895E-08*T**3+16495*T**(-1);
      1050.00  Y  +8168.357+0.423037*T-9.7788593*T*LN(T)
       -0.009539908*T**2+5.20221E-07*T**3-2414794*T**(-1);
      3000.00  N !
 FUNCTION GLIQSR    298.15  +2194.997-10.118994*T-5.0668978*T*LN(T)
       -0.031840595*T**2+4.981237E-06*T**3-265559*T**(-1);
      1050.00  Y  -10855.29+213.406219*T-39.463*T*LN(T);
      3000.00  N !
$ ------------------------------------------------------------------------------
$ Binary system
$
$ From from D. Risold et al. 1996 (included in LB Vol. 3)
$
$ D. Risold, B. Hallstedt, L.J. Gauckler, H.L. Lukas, S.G. Fries,
$ Calphad, 20, 151-60(1996).
$
$ Checked against LB and paper. Checked at 6000 K.
$
$ LBall-v7+fun.tdb has a different fcc interaction (60*T instead of 80*T)
$ resulting in a slightly higher Cu solubility in fcc-Sr (and Sr solubility
$ in fcc-Cu) and a shift of the L + fcc-Sr + bcc-Sr equilibrium from 820 K
$ to 822 K.
$
$ There is an inverse miscibility gap with a minimum at x(Sr)=0.33 and 3254 K.
$
 PAR  L(LIQUID,CU,SR;0),,               -17100+20.1*T;,,              N 96Ris1 !
 PAR  L(LIQUID,CU,SR;1),,               -10000+7.1*T;,,               N 96Ris1 !
 PAR  L(LIQUID,CU,SR;2),,               -3600+1.6*T;,,                N 96Ris1 !
$
 PAR  L(FCC_A1,CU,SR:VA;0),,            +80*T;,,                      N 96Ris1 !
 PAR  L(BCC_A2,CU,SR:VA;0),,            +80*T;,,                      N 96Ris1 !
$
 PAR  G(CUSR,CU:SR),,                   +GHSERCU+GHSERSR-3994;,,      N 96Ris1 !
 PAR  G(CU5SR_D2D,CU:SR),,              +5*GHSERCU+GHSERSR-11898;,,   N 96Ris1 !
$
$ Metastable
$
 PAR  L(HCP_A3,CU,SR:VA;0),,            +80*T;,,                      N Same !
$ ------------------------------------------------------------------------------
$
 ASSESSED_SYSTEM
  CU-SR(TDB -* +LIQUID +FCC_A1 +BCC_A2 +CUSR +CU5SR_D2D
  ;G5 C_S:FCC/CU:VA MAJ:FCC/SR:VA MAJ:BCC/SR:VA ;P3 TMM:300/2000 *) !
$
$
 LIST-OF-REFERENCE
 NUMBER  SOURCE
  Null   'Unknown source'
  Same   'Same or similar interaction as in the corresponding stable phase'
  COST   'COST 507 database'
  91Din  'A.T. Dinsdale, Calphad, 15, 317-425(1991).'
  96Ris1 'D. Risold, B. Hallstedt, L.J. Gauckler, H.L. Lukas, S.G. Fries,
          Calphad, 20, 151-60(1996); Cu-Sr'
!
