$
$ Database for Zr-B from H.M. Chen et al. 2009
$
$ H.M. Chen, F. Zheng, H.S. Liu, L.B. Liu, Z.P. Jin,
$ J. Alloys Compd., 468, 209-16(2009).
$
$ Dataset created 2016.09.25 by Bengt Hallstedt.
$ 2021.02.07: Modified for use with GES6.
$
$ ZRB_B1 is modelled as a separate phase. It should be included in the
$ fcc model.
$
$ ------------------------------------------------------------------------------
 TEMP-LIM 298.15 6000.00 !
$
$ELEMENT NAME  REF. STATE               ATOMIC MASS H298-H0    S298    !
$
 ELEMENT VA   VACUUM                      0.0          0.0      0.0    ! 
 ELEMENT B    BETA_RHOMBO_B              10.81      1222.0      5.9    ! 
 ELEMENT ZR   HCP_A3                     91.22      5566.27    39.1809 ! 
$ ------------------------------------------------------------------------------
$ Phase definitions
$
 PHASE LIQUID:L % 1 1 !
 CONST LIQUID:L : B ZR : !
$
$ Fcc (cF4, Fm-3m) and MeX (cF8, Fm-3m)
$
 PHASE FCC_A1 %A 2 1 1 !
 CONST FCC_A1 : ZR : B VA% : !
$
$ Bcc (cI2, Im-3m)
$
 PHASE BCC_A2 %B 2 1 3 !
 CONST BCC_A2 : ZR : B VA% : !
$
$ Hcp (hP2, P6_3/mmc) and Me2X (NiAs-type, hP4, P6_3/mmc, B8_1)
$
 PHASE HCP_A3 %A 2 1 0.5 !
 CONST HCP_A3 : ZR : B VA% : !
$
$ Prototype beta-B (hR105, R-3m)
$
 PHASE BETA_RHOMBO_B % 2 93 12 !
 CONST BETA_RHOMBO_B : B : B% ZR : !
$
$ Prototype NaCl (cF8, Fm-3m)
$
 PHASE ZRB_B1 % 2 1 1 !
 CONST ZRB_B1 : ZR : B : !
$
$ Prototype AlB2 (hP3, P6/mmm)
$
 PHASE MB2_C32 % 2 1 2 !
 CONST MB2_C32 : ZR : B : !
$
$ Prototype UB12 (cF52, Fm-3m)
$
 PHASE ZRB12_D2F % 2 1 12 !
 CONST ZRB12_D2F : ZR : B : !
$ ------------------------------------------------------------------------------
$ Defaults
$
 DEFINE-SYSTEM-DEFAULT ELEMENT 2 !
 DEFAULT-COM DEFINE_SYSTEM_ELEMENT VA !
 TYPE-DEF % SEQ * !
 TYPE-DEF A GES AMEND_PHASE_DESCRIPTION @ MAGNETIC -3 0.28 !
 TYPE-DEF B GES AMEND_PHASE_DESCRIPTION @ MAGNETIC -1 0.4 !
 FUNCTION ZERO      298.15  0;                                         6000 N !
 FUNCTION UN_ASS    298.15  0;                                         6000 N !
 FUNCTION R         298.15  +8.31451;                                  6000 N !
$ ------------------------------------------------------------------------------
$ Element data
$ ------------------------------------------------------------------------------
$ B
$
$ FCC_A1, HCP_A3, DIAMOND_A4 and GRAPHITE added in unary 3.0
$ BCC_A2 added in unary 4.1
$ GRAPHITE revised in unary 4.4 (using the value from COST 507)
$ FCC_A1, BCC_A2 and HCP_A3 removed in unary 5.0
$ ALPHA_RHOMBO_B added in unary 5.0
$
$ FCC_A1, BCC_A2 and HCP_A3 still in SGSOL 5.0
$ The value for FCC_A1 in COST (and SGTE) is possibly incorrect.
$
 PAR  G(BETA_RHOMBO_B,B:B),,            +105*GHSERBB;,,               N 91Din !
$PAR  G(ALPHA_RHOMBO_B,B),,             +GALPBB;,,                    N 09SGUN !
$PAR  G(FCC_A1,B:VA),,                  +GHSERBB+43514-12.217*T;,,    N SGCOST !
$PAR  G(FCC_A1,B:VA),,                  +GHSERBB+50208-13.472*T;,,    N 94Hal !
$PAR  G(BCC_A2,B:VA),,                  +GHSERBB+43514-12.217*T;,,    N 94Hal !
$PAR  G(HCP_A3,B:VA),,                  +GHSERBB+50208-9.706*T;,,     N SGCOST !
$PAR  G(GRAPHITE,B),,                   +GHSERBB+10000-2*T;,,         N SGCOST !
$PAR  G(GRAPHITE,B),,                   +GHSERBB+5000;,,              N 96SGUN !
$PAR  G(DIAMOND_A4,B),,                 +GHSERBB+10;,,                N 99SGUN !
$PAR  G(DIAMOND_A4,B),,                 +GHSERBB+20;,,                N COST !
$PAR  G(DIAMOND_A4,B),,                 +GHSERBB;,,                   N 96SGUN !
 PAR  G(LIQUID,B),,                     +GLIQBB;,,                    N 91Din !
$
 FUNCTION GHSERBB   298.15  -7735.284+107.111864*T-15.6641*T*LN(T)
       -0.006864515*T**2+6.18878E-07*T**3+370843*T**(-1);
      1100.00  Y  -16649.474+184.801744*T-26.6047*T*LN(T)
       -7.9809E-04*T**2-2.556E-08*T**3+1748270*T**(-1);
      2348.00  Y  -36667.582+231.336244*T-31.5957527*T*LN(T)
       -0.00159488*T**2+1.34719E-07*T**3+11205883*T**(-1);
      3000.00  Y  -21530.653+222.396264*T-31.4*T*LN(T);
      6000.00  N !
 FUNCTION GALPBB    298.15  -6076.24+86.648762*T-12.942464*T*LN(T)
       -7.089468E-3*T**2+0.659896E-6*T**3-45*T**(-1);
      1400.00  Y  +28477.506-106.789208*T+12.1072478*T*LN(T)
       -13.316875E-3*T**2+0.706895E-6*T**3-8002403*T**(-1);
      3000.00  Y  -25699.64+225.127135*T-31.4*T*LN(T);
      6000.00  N !
 FUNCTION GLIQBB    298.15  +48458.559-20.268025*T+GHSERBB;
       500.00  Y  +41119.703+82.101722*T-14.9827763*T*LN(T)
       -0.007095669*T**2+5.07347E-07*T**3+335484*T**(-1);
      2348.00  Y  +28842.012+200.94731*T-31.4*T*LN(T);
      3000.00  Y  +50372.665-21.448954*T+GHSERBB;
      6000.00  N !
 FUNCTION GFCCBB    298.15  +GHSERBB+43514-12.217*T;                   6000 N !
 FUNCTION GBCCBB    298.15  +GHSERBB+43514-12.217*T;                   6000 N !
$ ------------------------------------------------------------------------------
$ Zr
$
$ CUB_A13, CBCC_A12, ORTHORHOMBIC_A20 and TETRAGONAL_U added in unary 4.1
$
 PAR  G(HCP_A3,ZR:VA)           130.00  +GHSERZR;,,                   N 91Din !
 PAR  G(BCC_A2,ZR:VA)           130.00  +GBCCZR;,,                    N 91Din !
$PAR  G(OMEGA,ZR)               130.00  +GOMEZR;,,                    N 91Din !
 PAR  G(FCC_A1,ZR:VA)           130.00  +GHSERZR+7600-0.9*T;,,        N 91Din !
$PAR  G(CBCC_A12,ZR:VA)         130.00  +GHSERZR+4602.2;,,            N 99SGUN !
$PAR  G(CUB_A13,ZR:VA)          130.00  +GHSERZR+7531.2;,,            N 99SGUN !
$PAR  G(ORTHORHOMBIC_A20,ZR)    130.00  +GBCCZR+5000;,,               N 99SGUN !
$PAR  G(TETRAGONAL_U,ZR)        130.00  +GBCCZR+5000;,,               N 99SGUN !
 PAR  G(LIQUID,ZR)              130.00  +GLIQZR;,,                    N 91Din !
$
 FUNCTION GHSERZR   130.00  -7827.595+125.64905*T-24.1618*T*LN(T)
       -0.00437791*T**2+34971*T**(-1);
      2128.00  Y  -26085.921+262.724183*T-42.144*T*LN(T)-1.342896E+31*T**(-9);
      6000.00  N !
 FUNCTION GBCCZR    130.00  -525.539+124.9457*T-25.607406*T*LN(T)
       -3.40084E-04*T**2-9.729E-09*T**3+25233*T**(-1)-7.6143E-11*T**4;
      2128.00  Y  -4620.034+1.55998*T+GHSERZR+1.4103476E+32*T**(-9);
      6000.00  N !
 FUNCTION GOMEZR    130.00  -8878.082+144.432234*T-26.8556*T*LN(T)
       -0.002799446*T**2+38376*T**(-1);
      2128.00  Y  -3414.603+2.566675*T+GHSERZR+8.517346E+31*T**(-9);
      6000.00  N !
 FUNCTION GLIQZR    130.00  +18147.69-9.080812*T+GHSERZR+1.6275E-22*T**7;
      2128.00  Y  -8281.26+253.812609*T-42.144*T*LN(T);
      6000.00  N !
$ ------------------------------------------------------------------------------
$ Binary system
$
$ H.M. Chen, F. Zheng, H.S. Liu, L.B. Liu, Z.P. Jin,
$ J. Alloys Compd., 468, 209-16(2009).
$
$ Checked against paper. Checked at 6000 K.
$
$ Liquid, bcc and hcp parameters are kept from 98Dus.
$
$ ZRB_B1 is modelled as a separate phase. It should be included in the
$ fcc model.
$
 PAR  L(LIQUID,B,ZR;0),,                -250655+29.428*T;,,           N 98Dus !
 PAR  L(LIQUID,B,ZR;1),,                -80060;,,                     N 98Dus !
$
 PAR  G(BCC_A2,ZR:B),,                  -249200+566.133*T
             -86.917*T*LN(T)-0.005328*T**2+1636000*T**(-1);,,         N 98Dus !
 PAR  G(HCP_A3,ZR:B),,                  -78730+236.492*T
             -40.504*T*LN(T)+0.00122*T**2+335460*T**(-1);,,           N 98Dus !
$
 PAR  G(BETA_RHOMBO_B,B:ZR),,           +93*GHSERBB+12*GHSERZR
             -3341262;,,                                              N 09Che !
 PAR  L(BETA_RHOMBO_B,B:B,ZR;0),,       -372087+368.01*T;,,           N 09Che !
$
 PAR  G(ZRB_B1,ZR:B),,                  +GHSERZR+GHSERBB
             -170350.7+14.034*T;,,                                    N 09Che !
 PAR  G(MB2_C32,ZR:B),,                 -349432.5+412.64*T
             -65.188*T*LN(T)-0.004778*T**2+864830*T**(-1);,,          N 09Che !
 PAR  G(ZRB12_D2F,ZR:B),,               +GHSERZR+12*GHSERBB
             -249857.2-19.0106*T;,,                                   N 09Che !
$
$ Metastable
$
 PAR  G(FCC_A1,ZR:B),,                  +UN_ASS;,,                    N !
$ ------------------------------------------------------------------------------
$
 ASSESSED_SYSTEM
   B-ZR(TDB -* +LIQUID +BETA_RHOMBO +HCP_A3 +BCC_A2 +ZRB12_D2F +MB2_C32
   +ZRB_B1 ;P3 TMM:300/4000 *) !
$
$
 LIST-OF-REFERENCE
 NUMBER  SOURCE
  Null   'Unknown source'
  REFLAV 'Laves phase convention: G(LAVES,X:X)=+3*GHSERXX+15000'
  COST   'COST 507 database'
  SGCOST 'COST 507 database, SGTE unary database V.3.0, 1996; Al, B, Nd, Ti, Zn'
  91Din  'A.T. Dinsdale, Calphad, 15, 317-425(1991).'
  94Hal  'B. Hallemans, P. Wollants, J.R. Roos,
          Z. Metallkd., 85, 676-82(1994), SGTE unary database V.4.1, 1999; B'
  96SGUN 'SGTE unary database V.3.0, 1996.'
  98Dus  'H. Duschanek, P. Rogl, in: "Phase Diagrams of Ternary
          Metal-Boron-Carbon Systems", G. Effenberg (Ed.), ASM,
          Materials Park, 1998, pp. 445-85; Zr-B'
  99SGUN 'SGTE unary database V.4.1, 1999.'
  09Che  'H.M. Chen, F. Zheng, H.S. Liu, L.B. Liu, Z.P. Jin,
          J. Alloys Compd., 468, 209-16(2009); Zr-B'
  09SGUN 'SGTE unary database V.5.0, 2009.'
!
