$
$ Database for Al-Sc from H. Bo et al. 2010.
$
$ H. Bo, L.B. Liu, Z.P. Jin, J. Alloys Compd., 490, 318-25(2010).
$
$ Dataset created 2019.07.26 by Bengt Hallstedt.
$ 2020.12.22: Modified for use with GES6.
$
$ ------------------------------------------------------------------------------
 TEMP-LIM 298.15 6000.00 !
$
$ELEMENT NAME  REF. STATE               ATOMIC MASS H298-H0    S298    !
$
 ELEMENT VA   VACUUM                      0.0          0.0      0.0    ! 
 ELEMENT AL   FCC_A1                     26.98154   4540.      28.30   ! 
 ELEMENT SC   HCP_A3                     44.9559    5217.448   34.6435 ! 
$ ------------------------------------------------------------------------------
$ Phase definitions
$
 PHASE LIQUID:L % 1 1 !
 CONST LIQUID:L : AL SC : !
$
$ Fcc (cF4, Fm-3m) and MeX (cF8, Fm-3m)
$
 PHASE FCC_A1 %A 2 1 1 !
 CONST FCC_A1 : AL SC : VA : !
$
$ Bcc (cI2, Im-3m)
$
 PHASE BCC_A2 %B 2 1 3 !
 CONST BCC_A2 : AL SC : VA : !
$
$ Hcp (hP2, P6_3/mmc) and Me2X (NiAs-type, hP4, P6_3/mmc, B8_1)
$
 PHASE HCP_A3 %A 2 1 0.5 !
 CONST HCP_A3 : AL SC : VA : !
$
$ Prototype AuCu3 (cP4, Pm-3m)
$
 PHASE AL3SC_L12 % 2 3 1 !
 CONST AL3SC_L12 : AL : SC : !
$
$ Prototype Cu2Mg (cF24, Fd-3m)
$
 PHASE AL2SC_C15 % 2 2 1 !
 CONST AL2SC_C15 : AL : SC : !
$
$ Prototype CsCl (cP2, Pm-3m)
$
 PHASE ALSC_B2 % 2 1 1 !
 CONST ALSC_B2 : AL : SC : !
$
$ Prototype InNi2 (hP6, P6_3/mmc)
$
 PHASE ALSC2_B82 % 2 1 2 !
 CONST ALSC2_B82 : AL : SC : !
$ ------------------------------------------------------------------------------
$ Defaults
$
 DEFINE-SYSTEM-DEFAULT ELEMENT 2 !
 DEFAULT-COM DEFINE_SYSTEM_ELEMENT VA !
 TYPE-DEF % SEQ * !
 TYPE-DEF A GES AMEND_PHASE_DESCRIPTION @ MAGNETIC -3 0.28 !
 TYPE-DEF B GES AMEND_PHASE_DESCRIPTION @ MAGNETIC -1 0.4 !
 FUNCTION ZERO      298.15  0;                                         6000 N !
 FUNCTION UN_ASS    298.15  0;                                         6000 N !
 FUNCTION R         298.15  +8.31451;                                  6000 N !
$ ------------------------------------------------------------------------------
$ Element data
$ ------------------------------------------------------------------------------
$ Al
$
$ BCT_A5 and DIAMOND_A4 added in unary 3.0
$
 PAR  G(FCC_A1,AL:VA),,                 +GHSERAL;                2900 N 91Din !
 PAR  G(BCC_A2,AL:VA),,                 +GHSERAL+10083-4.813*T;  2900 N 91Din !
 PAR  G(HCP_A3,AL:VA),,                 +GHSERAL+5481-1.8*T;     2900 N 91Din !
$PAR  G(CBCC_A12,AL:VA),,               +GHSERAL
$            +10083.4-4.813*T;                                   2900 N 91Din !
$PAR  G(CUB_A13,AL:VA),,                +GHSERAL
$            +10920.44-4.8116*T;                                 2900 N 91Din !
$PAR  G(BCT_A5,AL),,                    +GHSERAL+10083-4.813*T;  2900 N SGCOST !
$PAR  G(DIAMOND_A4,AL),,                +GHSERAL+30*T;           2900 N SGCOST !
 PAR  G(LIQUID,AL),,                    +GLIQAL;                 2900 N 91Din !
$
 FUNCTION GHSERAL   298.15  -7976.15+137.093038*T-24.3671976*T*LN(T)
       -0.001884662*T**2-8.77664E-07*T**3+74092*T**(-1);
       700.00  Y  -11276.24+223.048446*T-38.5844296*T*LN(T)
       +0.018531982*T**2 -5.764227E-06*T**3+74092*T**(-1);
       933.47  Y  -11278.361+188.684136*T-31.748192*T*LN(T)
       -1.230622E+28*T**(-9);
      2900.00  N !
 FUNCTION GLIQAL    298.15  +11005.045-11.84185*T+GHSERAL+7.9337E-20*T**7;
       933.47  Y  -795.991+177.430209*T-31.748192*T*LN(T);
      2900.00  N !
 FUNCTION GBCCAL    298.15  +GHSERAL+10083-4.813*T;                    2900 N !
$ ------------------------------------------------------------------------------
$ Sc
$
$ FCC_A1 and DHCP added in unary 4.4
$
$ FCC_A1 from 98Mur not included in unary
$
 PAR  G(HCP_A3,SC:VA),,                 +GHSERSC;                3200 N 91Din !
 PAR  G(BCC_A2,SC:VA),,                 +GBCCSC;                 3200 N 91Din !
 PAR  G(FCC_A1,SC:VA),,                 +GHSERSC+5000;           3200 N 99Cac !
$PAR  G(FCC_A1,SC:VA),,                 +GHSERSC+3347-0.02*T;    3200 N 98Mur !
$PAR  G(DHCP,SC),,                      +GHSERSC
$            +1200+0.4157255*T;                                  3200 N 00Nor2 !
 PAR  G(LIQUID,SC),,                    +GLIQSC;                 3200 N 91Din !
$
 FUNCTION GHSERSC   298.15  -8689.547+153.48097*T-28.1882*T*LN(T)
       +0.00321892*T**2-1.64531E-06*T**3+72177*T**(-1);
       800.00  Y  -7511.295+132.759582*T-24.9132*T*LN(T)
       -5.73295E-04*T**2-8.59345E-07*T**3;
      1608.00  Y  +261143.04-1817.92245*T+241.441051*T*LN(T)
       -0.117529396*T**2+8.7398E-06*T**3-50607159*T**(-1);
      2000.00  Y  -30515.246+286.474338*T-44.2249*T*LN(T);
      3200.00  N !
 FUNCTION GBCCSC    298.15  +1979.728-1.024135*T+GHSERSC;
      1000.00  Y  +230161.408-2004.05469*T+276.76664*T*LN(T)
       -0.167120107*T**2+1.5637371E-05*T**3-33783257*T**(-1);
      1608.00  Y  -25928.011+283.642312*T-44.2249*T*LN(T);
      2000.00  Y  +4587.235-2.832026*T+GHSERSC;
      3200.00  N !
 FUNCTION GLIQSC    298.15  +6478.66+45.427539*T-10.7967803*T*LN(T)
       -0.020636524*T**2+2.13106E-06*T**3-158106*T**(-1);
      1608.00  Y  -11832.111+275.871695*T-44.2249*T*LN(T);
      3200.00  N !
$ ------------------------------------------------------------------------------
$ Binary system
$
$ H. Bo, L.B. Liu, Z.P. Jin, J. Alloys Compd., 490, 318-25(2010).
$
$ Checked aginst paper. Checked at 6000 K.
$
 PAR  L(LIQUID,AL,SC;0),,               -131778+3.639*T;,,            N 10Bo !
 PAR  L(LIQUID,AL,SC;1),,               -20126+8.877*T;,,             N 10Bo !
 PAR  L(LIQUID,AL,SC;2),,               +50985-24.917*T;,,            N 10Bo !
$
 PAR  L(FCC_A1,AL,SC:VA;0),,            -109500+2.5*T;,,              N 10Bo !
 PAR  L(BCC_A2,AL,SC:VA;0),,            -113589;,,                    N 10Bo !
 PAR  L(HCP_A3,AL,SC:VA;0),,            -106397;,,                    N 10Bo !
$
 PAR  G(AL3SC_L12,AL:SC),,              +3*GHSERAL+GHSERSC
             -156700+7.2*T;,,                                         N 10Bo !
 PAR  G(AL2SC_C15,AL:SC),,              +2*GHSERAL+GHSERSC
             -142500+8.8*T;,,                                         N 10Bo !
 PAR  G(ALSC_B2,AL:SC),,                +GHSERAL+GHSERSC
             -94100+6.4*T;,,                                          N 10Bo !
 PAR  G(ALSC2_B82,AL:SC),,              +GHSERAL+2*GHSERSC
             -112484+1.6*T;,,                                         N 10Bo !
$ ------------------------------------------------------------------------------
$
 ASSESSED_SYSTEM
  AL-SC(TDB-* +LIQUID +FCC +BCC_A2 +HCP_A3 +AL3SC_L12 +AL2SC_C15 +ALSC_B2
  +ALSC2_B82  ;P3 STP:.7/1200/1) !
$
$
 LIST-OF-REFERENCE
 NUMBER  SOURCE
  Null   'Unknown source'
  SGCOST 'COST 507 database, SGTE unary database V.3.0, 1996; Al, B, Nd, Ti, Zn'
  91Din  'A.T. Dinsdale, Calphad, 15, 317-425(1991).'
  99Cac  'G. Cacciamani, P. Riani, G. Borzone, N. Parodi, A. Saccone, R. Ferro,
          A. Pisch, R. Schmid-Fetzer, Intermetallics, 7, 101-8(1999),
          SGTE unary database V.4.4, 2001; Sc'
  00Nor2 'S. Norgren, PhD Thesis, KTH, Stockholm, 2000,
          SGTE unary database V.4.4, 2001; Nd, Sc'
  10Bo   'H. Bo, L.B. Liu, Z.P. Jin, J. Alloys Compd., 490, 318-25(2010); Al-Sc'
!
