$
$ Database for Y-Zr from H. Flandorfer et al. 1997 (included in LB Vol. 4)
$
$ H. Flandorfer, J. Groebner, A. Stamou, N. Hassiotis, A. Saccone, P. Rogl,
$ R. Wouters, H. Seifert, D. Maccio, R. Ferro, G. Haidemenopoulus, L. Delaey,
$ G. Effenberg, Z. Metallkd., 88, 529-38(1997).
$
$ Dataset created 2010.02.21 by Bengt Hallstedt.
$ 2021.02.07: Modified for use with GES6.
$
$ The invariants in the paper are different. This is not due to the changed
$ unary Y parameters. If old parameters are used the differences compared
$ to LB are only a few K. There are probably misprints in the paper.
$
$ This dataset reproduces the results in LB.
$ The invarants are at 1140, 1462 and 1661 K here and in LB. In the paper
$ they are at 1171, 1437 and 1662 K.
$
$ Solubilities are given by Klodt 1962; 0.4 at% Y in bcc-Zr
$ at 1153 K (invariant; unary hcp-bcc transition at 1135 K) and max 2 at% Zr
$ in hcp-Y at 1660 K.
$
$ ------------------------------------------------------------------------------
 TEMP-LIM 298.15 6000.00 !
$
$ELEMENT NAME  REF. STATE               ATOMIC MASS H298-H0    S298    !
$
 ELEMENT VA   VACUUM                      0.0          0.0      0.0    ! 
 ELEMENT Y    HCP_A3                     88.9059    5983.457   44.7875 ! 
 ELEMENT ZR   HCP_A3                     91.22      5566.27    39.1809 ! 
$ ------------------------------------------------------------------------------
$ Phase definitions
$
 PHASE LIQUID:L % 1 1 !
 CONST LIQUID:L : Y ZR : !
$
$ Fcc (cF4, Fm-3m) and MeX (cF8, Fm-3m)
$
 PHASE FCC_A1 %A 2 1 1 !
 CONST FCC_A1 : Y ZR : VA : !
$
$ Bcc (cI2, Im-3m)
$
 PHASE BCC_A2 %B 2 1 3 !
 CONST BCC_A2 : Y% ZR% : VA : !
$
$ Hcp (hP2, P6_3/mmc) and Me2X (NiAs-type, hP4, P6_3/mmc, B8_1)
$
 PHASE HCP_A3 % 2 1 0.5 !
 CONST HCP_A3 : Y% ZR% : VA : !
$ ------------------------------------------------------------------------------
$ Defaults
$
 DEFINE-SYSTEM-DEFAULT ELEMENT 2 !
 DEFAULT-COM DEFINE_SYSTEM_ELEMENT VA !
 TYPE-DEF % SEQ * !
 TYPE-DEF B GES AMEND_PHASE_DESCRIPTION @ MAGNETIC -1 0.4 !
 TYPE-DEF A GES AMEND_PHASE_DESCRIPTION @ MAGNETIC -3 0.28 !
 FUNCTION ZERO      298.15  0;                                         6000 N !
 FUNCTION UN_ASS    298.15  0;                                         6000 N !
 FUNCTION R         298.15  +8.31451;                                  6000 N !
 FUNCTION RTLNP     298.15  +8.31451*T*LN(1E-05*P);                    6000 N !
$ ------------------------------------------------------------------------------
$ Element data
$ ------------------------------------------------------------------------------
$ Y
$
$ HCP_A3, BCC_A2 and LIQUID revised in unary 3.0
$ FCC_A1 added in unary 4.1
$
 PAR  G(HCP_A3,Y:VA)            100.00  +GHSERYY;                3700 N 95She3 !
 PAR  G(BCC_A2,Y:VA)            100.00  +GBCCYY;                 3700 N 95She3 !
 PAR  G(FCC_A1,Y:VA)            100.00  +GHSERYY+6000;           3700 N Frie2 !
 PAR  G(LIQUID,Y)               100.00  +GLIQYY;                 3700 N 95She3 !
$
 FUNCTION GHSERYY   100.00  -8011.09379+128.572856*T-25.6656992*T*LN(T)
       -0.00175716414*T**2-4.17561786E-07*T**3+26911.509*T**(-1);
      1000.00  Y  -7179.74574+114.497104*T-23.4941827*T*LN(T)
       -0.0038211802*T**2-8.2534534E-08*T**3;
      1795.15  Y  -67480.7761+382.124727*T-56.9527111*T*LN(T)
       +0.00231774379*T**2-7.22513088E-08*T**3+18077162.6*T**(-1);
      3700.00  N !
 FUNCTION GBCCYY    100.00  -833.658863+123.667346*T-25.5832578*T*LN(T)
       -0.00237175965*T**2+9.10372497E-09*T**3+27340.0687*T**(-1);
      1000.00  Y  -1297.79829+134.528352*T-27.3038477*T*LN(T)
       -5.41757644E-04*T**2-3.05012175E-07*T**3;
      1795.15  Y  +15389.4975+0.981325399*T-8.88296647*T*LN(T)
       -0.00904576576*T**2+4.02944768E-07*T**3-2542575.96*T**(-1);
      3700.00  N !
 FUNCTION GLIQYY    100.00  +2098.50738+119.41873*T-24.6467508*T*LN(T)
       -0.00347023463*T**2-8.12981167E-07*T**3+23713.7332*T**(-1);
      1000.00  Y  +7386.44846+19.4520171*T-9.0681627*T*LN(T)
       -0.0189533369*T**2+1.7595327E-06*T**3;
      1795.15  Y  -12976.5957+257.400783*T-43.0952*T*LN(T);
      3700.00  N !
$ ------------------------------------------------------------------------------
$ Zr
$
$ CUB_A13, CBCC_A12, ORTHORHOMBIC_A20 and TETRAGONAL_U added in unary 4.1
$
 PAR  G(HCP_A3,ZR:VA)           130.00  +GHSERZR;,,                   N 91Din !
 PAR  G(BCC_A2,ZR:VA)           130.00  +GBCCZR;,,                    N 91Din !
$PAR  G(OMEGA,ZR)               130.00  +GOMEZR;,,                    N 91Din !
 PAR  G(FCC_A1,ZR:VA)           130.00  +GHSERZR+7600-0.9*T;,,        N 91Din !
$PAR  G(CBCC_A12,ZR:VA)         130.00  +GHSERZR+4602.2;,,            N 99SGUN !
$PAR  G(CUB_A13,ZR:VA)          130.00  +GHSERZR+7531.2;,,            N 99SGUN !
$PAR  G(ORTHORHOMBIC_A20,ZR)    130.00  +GBCCZR+5000;,,               N 99SGUN !
$PAR  G(TETRAGONAL_U,ZR)        130.00  +GBCCZR+5000;,,               N 99SGUN !
 PAR  G(LIQUID,ZR)              130.00  +GLIQZR;,,                    N 91Din !
$
 FUNCTION GHSERZR   130.00  -7827.595+125.64905*T-24.1618*T*LN(T)
       -0.00437791*T**2+34971*T**(-1);
      2128.00  Y  -26085.921+262.724183*T-42.144*T*LN(T)-1.342896E+31*T**(-9);
      6000.00  N !
 FUNCTION GBCCZR    130.00  -525.539+124.9457*T-25.607406*T*LN(T)
       -3.40084E-04*T**2-9.729E-09*T**3+25233*T**(-1)-7.6143E-11*T**4;
      2128.00  Y  -4620.034+1.55998*T+GHSERZR+1.4103476E+32*T**(-9);
      6000.00  N !
 FUNCTION GOMEZR    130.00  -8878.082+144.432234*T-26.8556*T*LN(T)
       -0.002799446*T**2+38376*T**(-1);
      2128.00  Y  -3414.603+2.566675*T+GHSERZR+8.517346E+31*T**(-9);
      6000.00  N !
 FUNCTION GLIQZR    130.00  +18147.69-9.080812*T+GHSERZR+1.6275E-22*T**7;
      2128.00  Y  -8281.26+253.812609*T-42.144*T*LN(T);
      6000.00  N !
$ ------------------------------------------------------------------------------
$ Binary system
$
$ From H. Flandorfer et al. 1997 (included in LB Vol. 4)
$
$ H. Flandorfer, J. Groebner, A. Stamou, N. Hassiotis, A. Saccone, P. Rogl,
$ R. Wouters, H. Seifert, D. Maccio, R. Ferro, G. Haidemenopoulus, L. Delaey,
$ G. Effenberg, Z. Metallkd., 88, 529-38(1997).
$
$ Checked against LB and paper. Checked at 6000 K.
$
$ The invariants in the paper are different. This is not due to the changed
$ unary Y parameters. If old parameters are used the differences compared
$ to LB are only a few K. There are probably misprints in the paper.
$
$ This dataset reproduces the results in LB.
$ The invarants are at 1140, 1462 and 1661 K here and in LB. In the paper
$ they are at 1171, 1437 and 1662 K.
$
$ Solubilities are given by Klodt 1962; 0.4 at% Y in bcc-Zr
$ at 1153 K (invariant; unary hcp-bcc transition at 1135 K) and max 2 at% Zr
$ in hcp-Y at 1660 K.
$
 PAR  L(LIQUID,Y,ZR;0),,                +24000;,,                     N 97Fla !
 PAR  L(LIQUID,Y,ZR;1),,                +3000;,,                      N 97Fla !
$
 PAR  L(BCC_A2,Y,ZR:VA;0),,             +40000;,,                     N 97Fla !
 PAR  L(BCC_A2,Y,ZR:VA;1),,             -9000;,,                      N 97Fla !
$
 PAR  L(HCP_A3,Y,ZR:VA;0),,             +50000;,,                     N 97Fla !
$
$ Metastable
$
 PAR  L(FCC_A1,Y,ZR:VA;0),,             +50000;,,                     N Same !
$ ------------------------------------------------------------------------------
$
 ASSESSED_SYSTEM
  Y-ZR(TDB -* +LIQUID +BCC_A2 +HCP_A3 ;G5 C_S:BCC/ZR:VA MAJ:BCC/Y:VA
  C_S:HCP/ZR:VA MAJ:HCP/Y:VA ;P3 TMM:300/2300 STP:0.7/1400) !
$
$
 LIST-OF-REFERENCE
 NUMBER  SOURCE
  Null   'Unknown source'
  Same   'Same or similar interaction as in the corresponding stable phase'
  COST   'COST 507 database'
  Frie2  'Suzana Fries and Leo Lukas, unpublished,
          SGTE unary database V.4.1, 1999; Y'
  91Din  'A.T. Dinsdale, Calphad, 15, 317-425(1991).'
  95She3 'H. Shen, W. Zhang, G. Liu, R. Wang, Z. Du, Report F-95-03,
          University of Science and Technology, Beijing, May 1995,
          SGTE unary database V.3.0, 1996; Y'
  97Fla  'H. Flandorfer, J. Groebner, A. Stamou, N. Hassiotis, A. Saccone,
          P. Rogl, R. Wouters, H. Seifert, D. Maccio, R. Ferro,
          G. Haidemenopoulus, L. Delaey, G. Effenberg,
          Z. Metallkd., 88, 529-38(1997); Y-Zr'
  99SGUN 'SGTE unary database V.4.1, 1999.'
!
