$
$ Database for Gd-Te from D. Cui et al. 2023.
$
$ D. Cui, J. Wang, J. Zhou, J. Phase Equilib. Diffus., 44, 456-67(2023).
$
$ Dataset created 2024.02.28 by Bengt Hallstedt.
$
$ Associate liquid model with Gd0.5Te0.5 associates.
$
$ One of the Gd2Te3 endmembers has an incorrect stoichiometry in the paper.
$ This results in about 15 K error in the invariant equilibria with Gd2Te3.
$
$ ------------------------------------------------------------------------------
 TEMP-LIM 298.15 6000.00 !
$
$ELEMENT NAME  REF. STATE               ATOMIC MASS H298-H0    S298    !
$
 ELEMENT VA   VACUUM                      0.0          0.0      0.0    ! 
 ELEMENT GD   HCP_A3                    157.25      9087.648   68.0894 ! 
 ELEMENT TE   HEXAGONAL_A8              127.60      6080.      49.221  ! 
$ ------------------------------------------------------------------------------
$ Species
$
 SPECIE  GDTE                               GD0.5TE0.5 !
$ ------------------------------------------------------------------------------
$ Phase definitions
$
 PHASE LIQUID:L % 1 1 !
 CONST LIQUID:L : GD GDTE TE : !
$
$ Fcc (cF4, Fm-3m) and MeX (cF8, Fm-3m)
$
 PHASE FCC_A1 %A 2 1 1 !
 CONST FCC_A1 : GD : VA : !
$
$ Bcc (cI2, Im-3m)
$
 PHASE BCC_A2 %B 2 1 3 !
 CONST BCC_A2 : GD : VA : !
$
$ Hcp (hP2, P6_3/mmc) and Me2X (NiAs-type, hP4, P6_3/mmc, B8_1)
$
 PHASE HCP_A3 %A 2 1 0.5 !
 CONST HCP_A3 : GD : VA : !
$
$ Prototype gamma-Se (hP3, P3_121)
$ The phase is named HEXAGONAL_A8 in the SGTE unary database and
$ TRIGONAL_A8 in LB.
$
 PHASE HEXAGONAL_A8 % 1 1 !
 CONST HEXAGONAL_A8 : TE : !
$
$ Prototype NaCl (cF8, Fm-3m)
$
 PHASE GDTE_B1 % 2 1 1 !
 CONST GDTE_B1 : GD : TE : !
$
$ Prototype Th2S3 (oP20, Pnma)
$
 PHASE GD2TE3 % 3 0.4 0.5714 0.0286 !
 CONST GD2TE3 : GD : TE : GD TE : !
$
$ Prototype UAs2 (tP6, P4/nmm)
$
 PHASE GD4TE7 % 2 4 7 !
 CONST GD4TE7 : GD : TE : !
$
$ Prototype Fe2As (tP6, P4/nmm)
$
 PHASE GDTE2 % 2 1 2 !
 CONST GDTE2 : GD : TE : !
$
$ Prototype Nd2Te5 (oC28, Cmcm)
$
 PHASE GD2TE5 % 2 2 5 !
 CONST GD2TE5 : GD : TE : !
$
$ Prototype NdTe3 (oC16, Cmcm)
$
 PHASE GDTE3 % 2 1 3 !
 CONST GDTE3 : GD : TE : !
$ ------------------------------------------------------------------------------
$ Defaults
$
 DEFINE-SYSTEM-DEFAULT ELEMENT 2 !
 DEFAULT-COM DEFINE_SYSTEM_ELEMENT VA !
 TYPE-DEF % SEQ * !
 TYPE-DEF A GES AMEND_PHASE_DESCRIPTION @ MAGNETIC -3 0.28 !
 TYPE-DEF B GES AMEND_PHASE_DESCRIPTION @ MAGNETIC -1 0.4 !
 FUNCTION ZERO      298.15  0;                                         6000 N !
 FUNCTION UN_ASS    298.15  0;                                         6000 N !
 FUNCTION R         298.15  +8.31451;                                  6000 N !
$ ------------------------------------------------------------------------------
$ Element data
$ ------------------------------------------------------------------------------
$ Gd
$
$ HCP_A3, BCC_A2 and LIQUID revised in unary 3.0
$ Small correction made to top two temperature ranges of bcc_A2 to ensure 
$ continuity in Gibbs energy, AD, Dec 2002
$ FCC_A1 added in unary 4.4
$
$ FCC_A1 from 03Cac not included in unary
$
 PAR  G(HCP_A3,GD:VA)           200.00  +GHSERGD;                3600 N 95She2 !
 PAR  TC(HCP_A3,GD:VA)          200.00    293.4;                 3600 N 95She2 !
 PAR  BM(HCP_A3,GD:VA)          200.00      3.0;                 3600 N 95She2 !
$PAR  TC(HCP_A3,GD:VA)          200.00    291.8;                 3600 N 91Din !
$PAR  BMAGN(HCP_A3,GD:VA)       200.00      3.0;                 3600 N 91Din !
 PAR  G(FCC_A1,GD:VA)           200.00  +GHSERGD+500;            3600 N 00Zin !
$PAR  G(FCC_A1,GD:VA)           200.00  +GHSERGD
$            +1800-0.831451*T;                                   3600 N 03Cac !
 PAR  G(BCC_A2,GD:VA)           200.00  +GBCCGD;                 3600 N 95She2 !
 PAR  G(LIQUID,GD)              200.00  +GLIQGD;                 3600 N 95She2 !
$
 FUNCTION GHSERGD   200.00  -6834.5855+97.13101*T-24.7214131*T*LN(T)
       -0.00285240521*T**2-3.14674076E-07*T**3-8665.73348*T**(-1);
      1000.00  Y  -6483.25362+95.6919924*T-24.6598297*T*LN(T)
       -0.00185225011*T**2-6.61211607E-07*T**3;
      1508.15  Y  -123124.992+699.125537*T-101.800197*T*LN(T)
       +0.0150644246*T**2-6.39165948E-07*T**3+29356890.3*T**(-1);
      3600.00  N !
 FUNCTION GBCCGD    200.00  +3233.80866-2.11184585*T+GHSERGD;
      1000.00  Y  +152792.743-1349.58873*T+180.097094*T*LN(T)
       -0.119550229*T**2+1.17915728E-05*T**3-22038836*T**(-1);
      1508.15  Y  -15783.7618+202.222183*T-38.960425*T*LN(T);
      1586.15  Y  -19850.5562+224.818035*T-41.904333*T*LN(T)
       +8.58222759E-04*T**2-3.77570269E-08*T**3+995428.573*T**(-1);
      3600.00  N !
 FUNCTION GLIQGD    200.00  +13060.0262-8.32179974*T+GHSERGD;
      1000.00  Y  +146262.037-1208.70685*T+159.352082*T*LN(T)
       -0.108247135*T**2+1.06945505E-05*T**3-19678357*T**(-1);
      1508.15  Y  -5397.314+192.336215*T-38.5075*T*LN(T);
      3600.00  N !
$ ------------------------------------------------------------------------------
$ Te
$
$ HEXAGONAL_A8 and LIQUID revised in unary 3.0
$
 PAR  G(HEXAGONAL_A8,TE),,              +GHSERTE;                2000 N 95Dav !
 PAR  G(LIQUID,TE),,                    +GLIQTE;                 2000 N 95Dav !
$
 FUNCTION GHSERTE   298.15  -10544.679+183.372894*T-35.6687*T*LN(T)
       +0.01583435*T**2-5.240417E-06*T**3+155015*T**(-1);
       722.66  Y  +9160.595-129.265373*T+13.004*T*LN(T)
       -0.0362361*T**2+5.006367E-06*T**3-1286810*T**(-1);
      1150.00  Y  -12781.349+174.901226*T-32.5596*T*LN(T);
      1600.00  N !
 FUNCTION GLIQTE    298.15  -17554.731+685.877639*T-126.318*T*LN(T)
       +0.2219435*T**2-9.42075E-05*T**3+827930*T**(-1);
       626.49  Y  -3165763.48+46756.357*T-7196.41*T*LN(T)
       +7.09775*T**2-0.00130692833*T**3+2.58051E+08*T**(-1);
       722.66  Y  +180326.959-1500.57909*T+202.743*T*LN(T)
       -0.142016*T**2+1.6129733E-05*T**3-24238450*T**(-1);
      1150.00  Y  +19110.036-26.1929273*T+GHSERTE;
      1600.00  N !
$ ------------------------------------------------------------------------------
$ Binary system
$
$ D. Cui, J. Wang, J. Zhou, J. Phase Equilib. Diffus., 44, 456-67(2023).
$
$ Checked against paper. Checked at 6000 K.
$
$ Associate liquid model with Gd0.5Te0.5 associates.
$
$ One of the Gd2Te3 endmembers has an incorrect stoichiometry in the paper.
$ This results in about 15 K error in the invariant equilibria with Gd2Te3.
$
 PAR  G(LIQUID,GDTE),,                  +0.5*GLIQGD+0.5*GLIQTE
             -125457+18.059*T;,,                                      N 23Cui !
 PAR  L(LIQUID,GD,GDTE;0),,             +52991-13.613*T;,,            N 23Cui !
 PAR  L(LIQUID,GD,GDTE;1),,             +36155-20.572*T;,,            N 23Cui !
 PAR  L(LIQUID,GD,GDTE;2),,             +5631;,,                      N 23Cui !
 PAR  L(LIQUID,GDTE,TE;0),,             -24375+9.049*T;,,             N 23Cui !
 PAR  L(LIQUID,GDTE,TE;1),,             -55-5.056*T;,,                N 23Cui !
 PAR  L(LIQUID,GDTE,TE;2),,             -12339-3.304*T;,,             N 23Cui !
$
 PAR  G(GDTE_B1,GD:TE),,                +GHSERGD+GHSERTE
             -303400+41.762*T;,,                                      N 23Cui !
$
 PAR  G(GD2TE3,GD:TE:GD),,              +0.4286*GHSERGD+0.5714*GHSERTE
             -139339+20.918*T;,,                                      N 23Cui !
 PAR  G(GD2TE3,GD:TE:TE),,              +0.4*GHSERGD+0.6*GHSERTE
             -134080+20.93*T;,,                                       N 23Cui !
$
 PAR  G(GD4TE7,GD:TE),,                 +4*GHSERGD+7*GHSERTE
             -1371150+211.2*T;,,                                      N 23Cui !
 PAR  G(GDTE2,GD:TE),,                  +GHSERGD+2*GHSERTE
             -350274+55.119*T;,,                                      N 23Cui !
 PAR  G(GD2TE5,GD:TE),,                 +2*GHSERGD+5*GHSERTE
             -709387+105.084*T;,,                                     N 23Cui !
 PAR  G(GDTE3,GD:TE),,                  +GHSERGD+3*GHSERTE
             -359240+51.34*T;,,                                       N 23Cui !
$ ------------------------------------------------------------------------------
$
$
 LIST-OF-REFERENCE
 NUMBER  SOURCE
  Null   'Unknown source'
  Same   'Same or similar interaction as in the corresponding stable phase'
  REFLAV 'Laves phase convention: G(LAVES,X:X)=+3*GHSERXX+15000'
  91Din  'A.T. Dinsdale, Calphad, 15, 317-425(1991).'
  95Dav  'A.V. Davydov, M.H. Rand, B.B. Argent, Calphad, 19, 375-87(1995),
          SGTE unary database V.3.0, 1996; Te'
  95She2 'H. Shen, W. Zhang, G. Liu, R. Wang, Z. Du, Report F-95-02,
          University of Science and Technology, Beijing, May 1995,
          SGTE unary database V.3.0, 1996; Gd'
  00Zin  'M. Zinkevich, N. Mattern, H. J Seifert,
          J. Phase Equilib., 21, 385-94(2000),
          SGTE unary database V.4.4, 2001; Gd'
  03Cac  'G. Cacciamani, S. De Negri, A. Saccone, R. Ferro,
          Intermetallics, 11, 1135-51(2003); Dy, Gd, Ho'
  23Cui  'D. Cui, J. Wang, J. Zhou,
          J. Phase Equilib. Diffus., 44, 456-67(2023); Gd-Te'
!
