$
$ Database for Nb-Re from X.L. Liu et al. 2013.
$
$ X.L. Liu, C.Z. Hargather, Z.-K. Liu, Calphad, 41, 119-27(2013).
$
$ Dataset created 2018.12.15 by Bengt Hallstedt.
$ 2021.01.31: Modified for use with GES6.
$
$ ------------------------------------------------------------------------------
 TEMP-LIM 298.15 6000.00 !
$
$ELEMENT NAME  REF. STATE               ATOMIC MASS H298-H0    S298    !
$
 ELEMENT VA   VACUUM                      0.0          0.0      0.0    ! 
 ELEMENT NB   BCC_A2                     92.9064    5220.0     36.27   ! 
 ELEMENT RE   HCP_A3                    186.207     5333.      36.4820 ! 
$ ------------------------------------------------------------------------------
$ Phase definitions
$
 PHASE LIQUID:L % 1 1 !
 CONST LIQUID:L : NB RE : !
$
$ Fcc (cF4, Fm-3m) and MeX (cF8, Fm-3m)
$
 PHASE FCC_A1 %A 2 1 1 !
 CONST FCC_A1 : NB RE : VA : !
$
$ Bcc (cI2, Im-3m)
$
 PHASE BCC_A2 %B 2 1 3 !
 CONST BCC_A2 : NB% RE : VA : !
$
$ Hcp (hP2, P6_3/mmc) and Me2X (NiAs-type, hP4, P6_3/mmc, B8_1)
$
 PHASE HCP_A3 %A 2 1 0.5 !
 CONST HCP_A3 : NB RE% : VA : !
$
$ Prototype alpha-Mn (cI58, I-43m)
$
 PHASE CHI_A12 % 3 24 10 24 !
 CONST CHI_A12 : RE : NB RE : NB RE : !
$
$ Prototype CrFe (tP30, P4_2/mnm)
$
 PHASE SIGMA_D8B % 3 10 4 16 !
 CONST SIGMA_D8B : RE : NB : NB RE : !
$ ------------------------------------------------------------------------------
$ Defaults
$
 DEFINE-SYSTEM-DEFAULT ELEMENT 2 !
 DEFAULT-COM DEFINE_SYSTEM_ELEMENT VA !
 TYPE-DEF % SEQ * !
 TYPE-DEF A GES AMEND_PHASE_DESCRIPTION @ MAGNETIC -3 0.28 !
 TYPE-DEF B GES AMEND_PHASE_DESCRIPTION @ MAGNETIC -1 0.4 !
 FUNCTION ZERO      298.15  0;                                         6000 N !
 FUNCTION UN_ASS    298.15  0;                                         6000 N !
 FUNCTION R         298.15  +8.31451;                                  6000 N !
$ ------------------------------------------------------------------------------
$ Element data
$ ------------------------------------------------------------------------------
$ Nb
$
 PAR  G(BCC_A2,NB:VA),,                 +GHSERNB;,,                   N 91Din !
 PAR  G(FCC_A1,NB:VA),,                 +GHSERNB+13500+1.7*T;,,       N 91Din !
 PAR  G(HCP_A3,NB:VA),,                 +GHSERNB+10000+2.4*T;,,       N 91Din !
 PAR  G(LIQUID,NB),,                    +GLIQNB;,,                    N 91Din !
$
 FUNCTION GHSERNB   298.15  -8519.353+142.045475*T-26.4711*T*LN(T)
       +2.03475E-04*T**2-3.5012E-07*T**3+93399*T**(-1);
      2750.00  Y  -37669.3+271.720843*T-41.77*T*LN(T)+1.528238E+32*T**(-9);
      6000.00  N !
 FUNCTION GLIQNB    298.15  +29781.555-10.816418*T+GHSERNB-3.06098E-23*T**7;
      2750.00  Y  -7499.398+260.756148*T-41.77*T*LN(T);
      6000.00  N !
$ ------------------------------------------------------------------------------
$ Re
$
$ HCP_A3 and LIQUID revised in unary 3.0
$ BCC_A2 revised in unary 4.4
$
 PAR  G(HCP_A3,RE:VA),,                 +GHSERRE;,,                   N 96Arb !
 PAR  G(FCC_A1,RE:VA),,                 +GHSERRE+11000-1.5*T;,,       N 91Din !
 PAR  G(BCC_A2,RE:VA),,                 +GHSERRE+17000-3.7*T;,,       N 01SGUN !
$PAR  G(BCC_A2,RE:VA),,                 +GHSERRE+29200-6*T;,,         N 91Din !
 PAR  G(LIQUID,RE),,                    +GLIQRE;,,                    N 96Arb !
$
 PAR  G(CHI_A12,RE:RE:RE),,             +58*GHSERRE
             +256567-25.456*T;,,                                      N 13Liu !
$
 FUNCTION GHSERRE   298.15  -7695.279+128.421589*T-24.348*T*LN(T)
       -0.00253505*T**2+1.92818E-07*T**3+32915*T**(-1);
      1200.00  Y  -15775.998+194.667426*T-33.586*T*LN(T)
       +0.00224565*T**2-2.81835E-07*T**3+1376270*T**(-1);
      2400.00  Y  -70882.739+462.110749*T-67.956*T*LN(T)
       +0.01184945*T**2-7.88955E-07*T**3+18075200*T**(-1);
      3458.00  Y  +346325.888-1211.37186*T+140.831655*T*LN(T)
       -0.033764567*T**2+1.053726E-06*T**3-1.34548866E+08*T**(-1);
      5000.00  Y  -78564.296+346.997842*T-49.519*T*LN(T);
      6000.00  N !
 FUNCTION GLIQRE    298.15  +23820.883-6.34538*T+GHSERRE;
      2000.00  Y  +568842.665-2527.83846*T+314.178898*T*LN(T)
       -0.08939817*T**2+3.92854E-06*T**3-1.63100987E+08*T**(-1);
      3458.00  Y  -39044.888+335.723691*T-49.519*T*LN(T);
      5000.00  Y  +39519.408-11.274151*T+GHSERRE;
      6000.00  N !
 FUNCTION GFCCRE    298.15  +GHSERRE+11000-1.5*T;                      6000 N !
 FUNCTION GBCCRE    298.15  +GHSERRE+17000-3.7*T;                      6000 N !
$ ------------------------------------------------------------------------------
$ Binary system
$
$ X.L. Liu, C.Z. Hargather, Z.-K. Liu, Calphad, 41, 119-27(2013).
$
$ Checked against paper and author's tdb. Checked at 6000 K.
$
 PAR  L(LIQUID,NB,RE;0),,               -8017-23.406*T;,,             N 13Liu !
 PAR  L(LIQUID,NB,RE;1),,               -2001;,,                      N 13Liu !
$
 PAR  L(BCC_A2,NB,RE:VA;0),,            -101060+10.568*T;,,           N 13Liu !
 PAR  L(BCC_A2,NB,RE:VA;1),,            -2300;,,                      N 13Liu !
$
 PAR  L(HCP_A3,NB,RE:VA;0),,            +64957-33.387*T;,,            N 13Liu !
$
 PAR  G(CHI_A12,RE:NB:NB),,             +24*GHSERRE+34*GHSERNB
             -610088-13.751*T;,,                                      N 13Liu !
 PAR  G(CHI_A12,RE:NB:RE),,             +48*GHSERRE+10*GHSERNB
             -758795-28.528*T;,,                                      N 13Liu !
 PAR  G(CHI_A12,RE:RE:NB),,             +34*GHSERRE+24*GHSERNB
             +252854;,,                                               N 13Liu !
 PAR  L(CHI_A12,RE:NB,RE:NB;0),,        -352931;,,                    N 13Liu !
 PAR  L(CHI_A12,RE:NB,RE:RE;0),,        -749989+280.032*T;,,          N 13Liu !
 PAR  L(CHI_A12,RE:NB:NB,RE;0),,        -1648141-289.844*T;,,         N 13Liu !
 PAR  L(CHI_A12,RE:RE:NB,RE;0),,        -1200286;,,                   N 13Liu !
$
 PAR  G(SIGMA_D8B,RE:NB:NB),,           +10*GHSERRE+20*GHSERNB
             -407760+0.692*T+0.008769*T**2;,,                         N 13Liu !
 PAR  G(SIGMA_D8B,RE:NB:RE),,           +26*GHSERRE+4*GHSERNB
             -67437+2.033*T;,,                                        N 13Liu !
 PAR  L(SIGMA_D8B,RE:NB:NB,RE;0),,      -479251-498.11*T;,,           N 13Liu !
$
$ metastable
$
 PAR  L(FCC_A1,NB,RE:VA;0),,            +27628;,,                     N 13Liu !
$ ------------------------------------------------------------------------------
$
$
 LIST-OF-REFERENCE
 NUMBER  SOURCE
  Null   'Unknown source'
  Same   'Same or similar interaction as in the corresponding stable phase'
  REFLAV 'Laves phase convention: G(LAVES,X:X)=+3*GHSERXX+15000'
  91Din  'A.T. Dinsdale, Calphad, 15, 317-425(1991).'
  96Arb  'J.W. Arblaster, Calphad, 20, 343-52(1996),
          SGTE unary database V.3.0, 1996; Re'
  01SGUN 'SGTE unary database V.4.4, 2001.'
  13Liu  'X.L. Liu, C.Z. Hargather, Z.-K. Liu, Calphad, 41, 119-27(2013); Nb-Re'
!
