$
$ Database for Cr-Ni from N. Zhao et al. 2020.
$
$ N. Zhao, W. Liu, J.-J. Wang, X.-G. Lu, L. Zhang, Calphad, 71, 101996(2020).
$
$ Dataset created 2021.04.25 by Bengt Hallstedt.
$
$ There are no thermodynamic parameters in the paper. They are only given in a
$ supplemental tdb.
$
$ Complete set of parameters for sigma phase with the 10:4:16 included.
$
$ ------------------------------------------------------------------------------
 TEMP-LIM 298.15 6000.00 !
$
$ELEMENT NAME  REF. STATE               ATOMIC MASS H298-H0    S298    !
$
 ELEMENT VA   VACUUM                      0.0          0.0      0.0    ! 
 ELEMENT CR   BCC_A2                     51.996     4050.0     23.5429 ! 
 ELEMENT NI   FCC_A1                     58.69      4787.0     29.7955 ! 
$ ------------------------------------------------------------------------------
$ Phase definitions
$
 PHASE LIQUID:L % 1 1 !
 CONST LIQUID:L : CR NI : !
$
$ Fcc (cF4, Fm-3m) and MeX (cF8, Fm-3m)
$
 PHASE FCC_A1 %A 2 1 1 !
 CONST FCC_A1 : CR NI% : VA : !
$
$ Bcc (cI2, Im-3m)
$
 PHASE BCC_A2 %B 2 1 3 !
 CONST BCC_A2 : CR% NI : VA : !
$
$ Hcp (hP2, P6_3/mmc) and Me2X (NiAs-type, hP4, P6_3/mmc, B8_1)
$
 PHASE HCP_A3 %A 2 1 0.5 !
 CONST HCP_A3 : CR NI : VA : !
$
$ Prototype MoPt2 (oP6, Immm)
$
 PHASE CRNI2 % 2 1 2 !
 CONST CRNI2 : CR% NI : CR NI% : !
$
$ Prototype CrFe (tP30, P4_2/mnm)
$
 PHASE SIGMA_D8B % 3 10 4 16 !
 CONST SIGMA_D8B : CR NI : CR NI : CR NI : !
$ ------------------------------------------------------------------------------
$ Defaults
$
 DEFINE-SYSTEM-DEFAULT ELEMENT 2 !
 DEFAULT-COM DEFINE_SYSTEM_ELEMENT VA !
 TYPE-DEF % SEQ * !
 TYPE-DEF A GES AMEND_PHASE_DESCRIPTION @ MAGNETIC -3 0.28 !
 TYPE-DEF B GES AMEND_PHASE_DESCRIPTION @ MAGNETIC -1 0.4 !
 FUNCTION ZERO      298.15  0;                                         6000 N !
 FUNCTION UN_ASS    298.15  0;                                         6000 N !
 FUNCTION R         298.15  +8.31451;                                  6000 N !
$ ------------------------------------------------------------------------------
$ Element data
$ ------------------------------------------------------------------------------
$ Cr
$
 PAR  G(BCC_A2,CR:VA),,                 +GHSERCR;,,                   N 91Din !
 PAR  TC(BCC_A2,CR:VA),,                 -311.50;,,                   N 91Din !
 PAR  BM(BCC_A2,CR:VA),,                   -0.008;,,                  N 91Din !
 PAR  G(FCC_A1,CR:VA),,                 +GHSERCR+7284+0.163*T;,,      N 91Din !
 PAR  TC(FCC_A1,CR:VA),,                -1109.00;,,                   N 91Din !
 PAR  BM(FCC_A1,CR:VA),,                   -2.46;,,                   N 91Din !
 PAR  G(HCP_A3,CR:VA),,                 +GHSERCR+4438;,,              N 91Din !
 PAR  TC(HCP_A3,CR:VA),,                -1109.00;,,                   N 91Din !
 PAR  BM(HCP_A3,CR:VA),,                   -2.46;,,                   N 91Din !
$PAR  G(CUB_A13,CR:VA),,                +GHSERCR+15899+0.6276*T;,,    N 91Din !
$PAR  G(CBCC_A12,CR:VA),,               +GHSERCR+11087+2.7196*T;,,    N 91Din !
 PAR  G(LIQUID,CR),,                    +GLIQCR;,,                    N 91Din !
$
 PAR  G(CRNI2,CR:CR),,                  +3*GHSCR+74421;,,             N 20Zha !
 PAR  G(SIGMA_D8B,CR:CR:CR),,           +30*GHCR+362300;,,            N 20Zha !
$
 FUNCTION GHSERCR   298.15  -8856.94+157.48*T-26.908*T*LN(T)
       +0.00189435*T**2-1.47721E-06*T**3+139250*T**(-1);
      2180.00  Y  -34869.344+344.18*T-50*T*LN(T)-2.88526E+32*T**(-9);
      6000.00  N !
 FUNCTION GLIQCR    298.15  +24339.955-11.420225*T+GHSERCR+2.37615E-21*T**7;
      2180.00  Y  -16459.984+335.616316*T-50*T*LN(T);
      6000.00  N !
 FUNCTION GFCCCR    298.15  +GHSERCR+7284+0.163*T;                     6000 N !
 FUNCTION GHCR      298.15  +GHSERCR-100-2.52*T;                       6000 N !
 FUNCTION GHSCR     298.15  +GHSERCR-6000-0.74*T;                      6000 N !
$ ------------------------------------------------------------------------------
$ Ni
$
$ FCC_A1 and LIQUID modified in unary 5.0 (slight change in upper T interval)
$ BCT_A5 added in unary 5.0
$
 PAR  G(FCC_A1,NI:VA),,                 +GHSERNI;                3000 N 91Din !
 PAR  TC(FCC_A1,NI:VA),,                  633.00;                3000 N 91Din !
 PAR  BM(FCC_A1,NI:VA),,                    0.52;                3000 N 91Din !
 PAR  G(BCC_A2,NI:VA),,                 +GHSERNI
             +8715.084-3.556*T;                                  3000 N 91Din !
 PAR  TC(BCC_A2,NI:VA),,                  575.00;                3000 N 91Din !
 PAR  BM(BCC_A2,NI:VA),,                    0.85;                3000 N 91Din !
 PAR  G(HCP_A3,NI:VA),,                 +GHSERNI+1046+1.255*T;   3000 N 91Din !
 PAR  TC(HCP_A3,NI:VA),,                  633.00;                3000 N 91Din !
 PAR  BM(HCP_A3,NI:VA),,                    0.52;                3000 N 91Din !
$PAR  G(BCT_A5,NI),,                    +GHSERNI+10023-4.556*T;  3000 N 99Gho !
$PAR  G(CUB_A13,NI:VA),,                +GHSERNI+2092;           3000 N 91Din !
$PAR  G(CBCC_A12,NI:VA),,               +GHSERNI+3556;           3000 N 91Din !
 PAR  G(LIQUID,NI),,                    +GLIQNI;                 3000 N 91Din !
$
 PAR  G(CRNI2,NI:NI),,                  +3*GHSNI+214;,,               N 20Zha !
 PAR  G(SIGMA_D8B,NI:NI:NI),,           +30*GHNI+400936;,,            N 20Zha !
$
 FUNCTION GHSERNI   298.15  -5179.159+117.854*T-22.096*T*LN(T)-0.0048407*T**2;
      1728.00  Y  -27840.62+279.134977*T-43.1*T*LN(T)+1.12754E+31*T**(-9);
      3000.00  N !
 FUNCTION GLIQNI    298.15  +16414.686-9.397*T+GHSERNI-3.82318E-21*T**7;
      1728.00  Y  -9549.817+268.597977*T-43.1*T*LN(T);
      3000.00  N !
 FUNCTION GBCCNI    298.15  +GHSERNI+8715.084-3.556*T;                 6000 N !
 FUNCTION GHNI      298.15  +GHSERNI-3800-5*T;                         6000 N !
 FUNCTION GHSNI     298.15  +GHSERNI+500+2*T;                          6000 N !
$
 FUNCTION B2NIVA    298.15  +162397.3-27.40575*T;                      6000 N !
 FUNCTION LB2NIVA   298.15  -64024.38+26.49419*T;                      6000 N !
$ ------------------------------------------------------------------------------
$ Binary system
$
$ N. Zhao, W. Liu, J.-J. Wang, X.-G. Lu, L. Zhang, Calphad, 71, 101996(2020).
$
$ Checked against paper and author's tdb. Checked at 6000 K.
$
$ There are no thermodynamic parameters in the paper. They are only given in a
$ supplemental tdb.
$
$ Complete set of parameters for sigma phase with the 10:4:16 included.
$
$ There is a barely visible shift in the bcc boundaries at high temperature,
$ probably because of vacancies included in bcc in the supplemental tdb.
$
 PAR  L(LIQUID,CR,NI;0),,               -15800+2.65*T;,,              N 20Zha !
 PAR  L(LIQUID,CR,NI;1),,               -250+2*T;,,                   N 20Zha !
$
 PAR  L(FCC_A1,CR,NI:VA;0),,            +8130-12.8*T;,,               N 20Zha !
 PAR  L(FCC_A1,CR,NI:VA;1),,            +33580-17.8*T;,,              N 20Zha !
 PAR  TC(FCC_A1,CR,NI:VA;0),,           -3605;,,                      N 86Din !
 PAR  BM(FCC_A1,CR,NI:VA;0),,              -1.91;,,                   N 86Din !
$
 PAR  L(BCC_A2,CR,NI:VA;0),,            +25059-16.7*T;,,              N 20Zha !
 PAR  L(BCC_A2,CR,NI:VA;1),,            +19000-2.7*T;,,               N 20Zha !
 PAR  TC(BCC_A2,CR,NI:VA;0),,           +2373;,,                      N 86Din !
 PAR  TC(BCC_A2,CR,NI:VA;1),,            +617;,,                      N 86Din !
 PAR  BM(BCC_A2,CR,NI:VA;0),,              +4;,,                      N 86Din !
$
 PAR  G(CRNI2,CR:NI),,                  +GHSCR+2*GHSNI-9550;,,        N 20Zha !
 PAR  G(CRNI2,NI:CR),,                  +GHSNI+2*GHSCR+47530;,,       N 20Zha !
$
$ Metastable
$
 PAR  L(HCP_A3,CR,NI:VA;0),,            +4000+1*T;,,                  N 20Zha !
 PAR  L(HCP_A3,CR,NI:VA;1),,            +6000;,,                      N 20Zha !
$
 PAR  G(SIGMA_D8B,CR:CR:NI),,           +14*GHCR+16*GHNI+271913;,,    N 20Zha !
 PAR  G(SIGMA_D8B,CR:NI:CR),,           +26*GHCR+4*GHNI+520426;,,     N 20Zha !
 PAR  G(SIGMA_D8B,CR:NI:NI),,           +10*GHCR+20*GHNI+264489;,,    N 20Zha !
 PAR  G(SIGMA_D8B,NI:CR:CR),,           +20*GHCR+10*GHNI
             +191249-35*T;,,                                          N 20Zha !
 PAR  G(SIGMA_D8B,NI:CR:NI),,           +4*GHCR+26*GHNI
             +255469-25*T;,,                                          N 20Zha !
 PAR  G(SIGMA_D8B,NI:NI:CR),,           +16*GHCR+14*GHNI+303371;,,    N 20Zha !
 PAR  L(SIGMA_D8B,NI:CR:CR,NI;0),,      +20000;,,                     N 20Zha !
$
 FUNCTION UFCRNI    298.15  -1980;                                     6000 N !
 FUNCTION USCRNI    298.15  +UFCRNI;                                   6000 N !
 FUNCTION GFCRNI3   298.15  +3*UFCRNI;                                 6000 N !
 FUNCTION GFCR2NI2  298.15  +4*UFCRNI;                                 6000 N !
 FUNCTION GFCR3NI   298.15  +3*UFCRNI;                                 6000 N !
$ ------------------------------------------------------------------------------
$
 ASSESSED_SYSTEM
  CR-NI(TDB -* +LIQ +BCC_A2 +FCC_A1 +CRNI2 ;P3 TMM:300/2500 *) !
$
$
 LIST-OF-REFERENCE
 NUMBER  SOURCE
  Null   'Unknown source'
  Lin    'Linear combination of lattice stabilities'
  Same   'Same or similar interaction as in the corresponding stable phase'
  86Din  'A.T. Dinsdale, T.G. Chart, NPL, unpublished, 1986; Cr-Ni'
  91Din  'A.T. Dinsdale, Calphad, 15, 317-425(1991).'
  99Gho  'G. Ghosh, Metall. Mater. Trans. A, 30A, 1481-94(1999),
          SGTE unary database V.5.0, 2009; Ni'
  20Zha  'N. Zhao, W. Liu, J.-J. Wang, X.-G. Lu, L. Zhang,
          Calphad, 71, 101996(2020); Cr-Ni'
!
