$
$ Database for Ba-O from S. Zhou et al. 2005.
$
$ S. Zhou, R. Arroyave, C.A. Randall, Z.-K. Liu,
$ J. Am. Ceram. Soc., 88, 1943-48(2005).
$
$ Dataset created 2019.07.02 by Bengt Hallstedt.
$ 2020.12.22: Modified for use with GES6.
$
$ Modified version without O2-2 in the ionic liquid. The reasoning behind this
$ is the following: Measurements of the melting temperature of BaO have been
$ made in air (e.g. M. Foex, Solar Energy, 9, 61-67(1965)). This temperature
$ has been assumed to be the congruent melting temperature of BaO. However, the
$ temperature that is actually measured is the BaO + Liq + Gas three-phase
$ equilibrium. If there is a substantial amount of O2-2 in the liquid these
$ temperatures will differ substantially. In the present assessment the three-
$ phase equilibrium in O2 is at 1630 K, which is much lower than the congruent
$ melting point (2287 K). I.e. the assessment is not consistent with the
$ measurement. This is fixed here by assuming that the amount of O2-2 in the
$ liquid is small, thus removing O2-2 from the liquid model. The (nearly)
$ congruent melting point and the three-phase equilibrium are now at 2294 K,
$ i.e. 7 K higher than the previous congruent melting point.
$
$ The BaO and BaO2 phases are modelled both with separate models (BAO_B1 and
$ BAO2_C11A) and with a common model (BAO). The latter is used by default.
$
$ The phase diagram looks rather strange between BaO and BaO2 when the gas is
$ not included.
$
$ ------------------------------------------------------------------------------
 TEMP-LIM 298.15 6000.00 !
$
$ELEMENT NAME  REF. STATE               ATOMIC MASS H298-H0    S298    !
$
 ELEMENT /-   ELECTRON_GAS                0.0          0.0      0.0    ! 
 ELEMENT VA   VACUUM                      0.0          0.0      0.0    ! 
 ELEMENT BA   BCC_A2                    137.33      6910.0     62.50   ! 
 ELEMENT O    1/2_MOLE_O2(G)             15.999     4341.0    102.52   ! 
$ ------------------------------------------------------------------------------
$ Species
$
 SPECIE  BA+2                               BA/+2 !
 SPECIE  BA2                                BA2 !
 SPECIE  BA2O                               BA2O1 !
 SPECIE  BAO                                BA1O1 !
 SPECIE  BA2O2                              BA2O2 !
 SPECIE  BAO2                               BA1O2 !
 SPECIE  O-2                                O/-2 !
 SPECIE  O2-2                               O2/-2 !
 SPECIE  O2                                 O2 !
 SPECIE  O3                                 O3 !
$ ------------------------------------------------------------------------------
$ Phase definitions
$
 PHASE ION:Y % 2 1 1 !
 CONST ION:Y : BA+2 : O-2 VA : !
$
$ Fcc (cF4, Fm-3m) and MeX (cF8, Fm-3m)
$
 PHASE FCC_A1 %A 2 1 1 !
 CONST FCC_A1 : BA : VA : !
$
$ Bcc (cI2, Im-3m)
$
 PHASE BCC_A2 %B 2 1 3 !
 CONST BCC_A2 : BA : VA : !
$
$ Hcp (hP2, P6_3/mmc) and Me2X (NiAs-type, hP4, P6_3/mmc, B8_1)
$
 PHASE HCP_A3 %A 2 1 0.5 !
 CONST HCP_A3 : BA : VA : !
$
$ Prototype NaCl (cF8, Fm-3m), B1, barium oxide
$ Prototype CaC2 (tI6, I4/mmm), C11_a, barium peroxide
$
 PHASE BAO:I % 2 1 1 !
 CONST BAO:I : BA+2 : O-2 O2-2 : !
$
$ Prototype NaCl (cF8, Fm-3m), B1, barium oxide
$
 PHASE BAO_B1:I % 2 1 1 !
 CONST BAO_B1:I : BA+2 : O-2 O2-2 : !
$
$ Prototype CaC2 (tI6, I4/mmm), C11_a, barium peroxide
$
 PHASE BAO2_C11A:I % 2 1 1 !
 CONST BAO2_C11A:I : BA+2 : O-2 O2-2 : !
$
 PHASE O2GAS % 1 1 !
 CONST O2GAS : O2 :!
$
 PHASE GAS:G % 1 1 !
 CONST GAS:G : BA BA2 BA2O BAO O O2 O3 : !
$ ------------------------------------------------------------------------------
$ Defaults
$
 DEFINE-SYSTEM-DEFAULT ELEMENT 2 !
 DEFAULT-COM DEFINE_SYSTEM_ELEMENT VA /- !
 DEFAULT-COM REJECT_PHASE BAO_B1 BAO2_C11A !
 TYPE-DEF % SEQ * !
 TYPE-DEF A GES AMEND_PHASE_DESCRIPTION @ MAGNETIC -3 0.28 !
 TYPE-DEF B GES AMEND_PHASE_DESCRIPTION @ MAGNETIC -1 0.4 !
 FUNCTION ZERO      298.15  0;                                         6000 N !
 FUNCTION UN_ASS    298.15  0;                                         6000 N !
 FUNCTION R         298.15  +8.31451;                                  6000 N !
 FUNCTION RTLNP     298.15  +8.31451*T*LN(1E-05*P);                    6000 N !
$ ------------------------------------------------------------------------------
$ Element data
$ ------------------------------------------------------------------------------
$ Ba
$
 PAR  G(BCC_A2,BA:VA),,                 +GHSERBA;                4000 N 91Din !
 PAR  G(HCP_A3,BA:VA),,                 +GHSERBA+2000+1.3*T;     4000 N 91Din !
 PAR  G(FCC_A1,BA:VA),,                 +GHSERBA+1800+0.6*T;     4000 N 91Din !
$PAR  G(LIQUID,BA),,                    +GLIQBA;                 4000 N 91Din !
$
 PAR  G(ION,BA+2:VA),,                  +GLIQBA;                 4000 N 91Din !
$
 PAR  G(GAS,BA),,                       +F2140T+RTLNP;,,              N 94SUB !
 PAR  G(GAS,BA2),,                      +F2335T+RTLNP;,,              N 94SUB !
$
 FUNCTION GHSERBA   298.15  -17685.226+233.78606*T-42.889*T*LN(T)
       -0.0018314*T**2-9.5E-11*T**3+705880*T**(-1);
      1000.00  Y  -64873.614+608.188389*T-94.2824199*T*LN(T)
       +0.019504772*T**2-1.051353E-06*T**3+8220192*T**(-1);
      2995.00  Y  +8083.889+136.780042*T-32.2*T*LN(T);
      4000.00  N !
 FUNCTION GLIQBA    298.15  -9738.988+229.540143*T-43.4961089*T*LN(T)
       -0.002346416*T**2+9.91223E-07*T**3+723016*T**(-1);
      1000.00  Y  -7381.093+235.49642*T-45.103*T*LN(T)
       +0.002154*T**2+2.7E-11*T**3-365*T**(-1);
      2995.00  Y  +3856.393-4.568042*T+GHSERBA;
      4000.00  N !
$ Ba(g)
 FUNCTION F2140T    298.15  +178685.405-28.7519074*T-21.15208*T*LN(T)
       +4.6163325E-04*T**2-1.00440133E-07*T**3+6531.67*T**(-1);
      1000.00  Y  +156541.304+187.123918*T-52.09573*T*LN(T)
       +0.019772705*T**2-2.37413833E-06*T**3+2988594.5*T**(-1);
      1900.00  Y  +444158.608-1453.56939*T+163.8061*T*LN(T)
       -0.05237755*T**2+2.155975E-06*T**3-68947450*T**(-1);
      2600.00  Y  +354853.605-1163.84325*T+129.0623*T*LN(T)
       -0.047641765*T**2+2.12269167E-06*T**3-30187880*T**(-1);
      3400.00  Y  -502647.818+1933.17624*T-252.1979*T*LN(T)
       +0.027795155*T**2-6.79449667E-07*T**3+3.319067E+08*T**(-1);
      5300.00  Y  +229718.753+82.4114532*T-35.20435*T*LN(T)
       -8.066315E-04*T**2+2.79384333E-08*T**3-1.3210115E+08*T**(-1);
      9600.00  Y  +456203.156-193.244064*T-5.828403*T*LN(T)
       -0.00239021*T**2+4.210795E-08*T**3-4.457588E+08*T**(-1);
     10000.00  N !
$ Ba2(g)
 FUNCTION F2335T    298.15  +343727.221+33.4913114*T-51.13698*T*LN(T)
       +0.03220523*T**2-6.47438E-06*T**3-72907.6*T**(-1);
       600.00  Y  +356118.558-158.369248*T-21.31458*T*LN(T)
       +2.0490545E-04*T**2-1.36280533E-08*T**3-1040998.5*T**(-1);
      3000.00  N !
$ ------------------------------------------------------------------------------
$ O
$
$ GHSEROO modified in unary 3.0
$
 PAR  G(O2GAS,O2),,                     +2*GHSEROO+RTLNP;,,           N 91Din !
$PAR  G(LIQUID,O),,                     +GHSEROO-2648.9+31.44*T;,,    N 91Din !
$
 PAR  G(GAS,O),,                        +F7397T+RTLNP;,,              N 92SUB !
 PAR  G(GAS,O2),,                       +2*GHSEROO+RTLNP;,,           N 91Din !
 PAR  G(GAS,O3),,                       +F7683T+RTLNP;,,              N 92SUB !
$
 FUNCTION GLIQOO    298.15  +GHSEROO-2648.9+31.44*T;                   6000 N !
$ 1/2 O2(g)
 FUNCTION GHSEROO   298.15  -3480.87-25.503038*T-11.1355*T*LN(T)
       -0.005098875*T**2+6.61845833E-07*T**3-38365*T**(-1);
      1000.00  Y  -6568.763+12.659879*T-16.8138*T*LN(T)
       -5.957975E-04*T**2+6.781E-09*T**3+262905*T**(-1);
      3300.00  Y  -13986.728+31.259624*T-18.9536*T*LN(T)
       -4.25243E-04*T**2+1.0721E-08*T**3+4383200*T**(-1);
      6000.00  N !
$ O(g)
 FUNCTION F7397T    298.15  +243206.529-42897.0876*T**(-1)-20.7513421*T
       -21.0155542*T*LN(T)+1.26870532E-04*T**2-1.23131285E-08*T**3;
      2950.00  Y  +252301.473-3973170.33*T**(-1)-51.974853*T
       -17.2118798*T*LN(T)-5.41356254E-04*T**2+7.64520703E-09*T**3;
      6000.00  N !
$ O3(g)
 FUNCTION F7683T    298.15  +133772.042-11328.9959*T**(-1)-84.8602165*T
       -19.8314069*T*LN(T)-0.0392015696*T**2+7.90727187E-06*T**3;  
       600.00  Y  +120765.524+997137.156*T**(-1)+120.113376*T
       -51.8410152*T*LN(T)-0.00353983136*T**2+3.20640143E-07*T**3;
      1500.00  Y  +115412.196+1878139.02*T**(-1)+164.679664*T
       -58.069736*T*LN(T)-2.84399032E-04*T**2+5.95650279E-10*T**3;
      6000.00  N !
$ ------------------------------------------------------------------------------
$ Binary system
$
$ S. Zhou, R. Arroyave, C.A. Randall, Z.-K. Liu,
$ J. Am. Ceram. Soc., 88, 1943-48(2005).
$
$ Checked against paper.
$
$ Modified version without O2-2 in the ionic liquid. The reasoning behind this
$ is the following: Measurements of the melting temperature of BaO have been
$ made in air (e.g. M. Foex, Solar Energy, 9, 61-67(1965)). This temperature
$ has been assumed to be the congruent melting temperature of BaO. However, the
$ temperature that is actually measured is the BaO + Liq + Gas three-phase
$ equilibrium. If there is a substantial amount of O2-2 in the liquid these
$ temperatures will differ substantially. In the present assessment the three-
$ phase equilibrium in O2 is at 1630 K, which is much lower than the congruent
$ melting point (2287 K). I.e. the assessment is not consistent with the
$ measurement. This is fixed here by assuming that the amount of O2-2 in the
$ liquid is small, thus removing O2-2 from the liquid model. The (nearly)
$ congruent melting point and the three-phase equilibrium are now at 2294 K,
$ i.e. 7 K higher than the previous congruent melting point.
$
$ The BaO and BaO2 phases are modelled both with separate models (BAO_B1 and
$ BAO2_C11A) and with a common model (BAO). The latter is used by default.
$
$ The phase diagram looks rather strange between BaO and BaO2 when the gas is
$ not included.
$
 PAR  G(ION,BA+2:O-2),,                 +2*GLIQBA+2*GLIQOO
             -993855+100.235*T;,,                                     N 05Zho !
$PAR  G(ION,BA+2:O2-2),,                +2*GLIQBA+4*GLIQOO
$            -968761+73.023*T;,,                                      N 05Zho !
$PAR  L(ION,BA+2:O-2,O2-2;0),,          -200000;,,                    N 05Zho !
 PAR  L(ION,BA+2:O-2,VA;0),,            -56504;,,                     N 05Zho !
$
 PAR  G(BAO,BA+2:O-2),,                 +GBAOSOL;,,                   N 05Zho !
 PAR  G(BAO,BA+2:O2-2),,                +GBAO2SOL;,,                  N 05Zho !
 PAR  L(BAO,BA+2:O-2,O2-2;0),,          +33243-12.121*T;,,            N 05Zho !
 PAR  L(BAO,BA+2:O-2,O2-2;1),,          +27600-16.251*T;,,            N 05Zho !
 PAR  L(BAO,BA+2:O-2,O2-2;2),,          +7010;,,                      N 05Zho !
$
 PAR  G(BAO_B1,BA+2:O-2),,              +GBAOSOL;,,                   N 05Zho !
 PAR  G(BAO_B1,BA+2:O2-2),,             +GHSERBA+2*GHSEROO
             -628001+189.81*T;,,                                      N 05Zho !
 PAR  L(BAO_B1,BA+2:O-2,O2-2;0),,       +62501-49.991*T;,,            N 05Zho !
$
 PAR  G(BAO2_C11A,BA+2:O-2),,           +GHSERBA+GHSEROO
             -541716+68.8815*T+3.8059*T*LN(T);,,                      N 05Zho !
 PAR  G(BAO2_C11A,BA+2:O2-2),,          +GBAO2SOL;,,                  N 05Zho !
 PAR  L(BAO2_C11A,BA+2:O-2,O2-2;0),,    +21567-12.221*T;,,            N 05Zho !
$
 PAR  G(GAS,BA2O),,                     +F2339T+RTLNP;,,              N 94SUB !
 PAR  G(GAS,BAO),,                      +F2291T+RTLNP;,,              N 94SUB !
$
 FUNCTION GBAOSOL   298.15  -562498.08+228.7677*T-43.5609*T*LN(T)
       -0.01114*T**2+2.3824667E-06*T**3-2.5271667E-10*T**4+88016.981*T**(-1);
      2280.00  Y  -568509.8642+310.40284*T-55.84644*T*LN(T);
      6000.00  N !
 FUNCTION GBAO2SOL  298.15  -659278.5+384.156*T-69.91257*T*LN(T)
       -0.00192*T**2+3.2187E-07*T**3+213369.6*T**(-1);
      1142.00  Y  -659778.4+393.243815*T-71.452*T*LN(T);
      6000.00  N !
$ Ba2O(g)
 FUNCTION F2339T    298.15  -259922.913+87.0305019*T-55.15417*T*LN(T)
       -0.00662439*T**2+1.14898217E-06*T**3+290806.05*T**(-1);
       900.00  Y  -263453.85+134.319937*T-62.3304*T*LN(T)
       -4.2961955E-06*T**2+5.301555E-11*T**3+632566.5*T**(-1);
      3000.00  N !
$ BaO(g)
 FUNCTION F2291T    298.15  -129260.91-2.02743742*T-34.4359*T*LN(T)
       -0.0024537165*T**2+3.34474E-07*T**3+126036.5*T**(-1);
      1100.00  Y  -138831.073+79.8873477*T-45.95129*T*LN(T)
       +0.003913731*T**2-3.55722167E-07*T**3+1649835*T**(-1);
      2400.00  Y  -111463.794+19.5306843*T-39.56298*T*LN(T)
       +0.00507084*T**2-5.66334E-07*T**3-11782225*T**(-1);
      3800.00  Y  +597280.145-2356.2218*T+249.8813*T*LN(T)
       -0.04754315*T**2+1.229221E-06*T**3-3.377278E+08*T**(-1);
      5900.00  Y  -1824423.83+3041.20998*T-372.6445*T*LN(T)
       +0.023783745*T**2-3.07309167E-07*T**3+1.4338915E+09*T**(-1);
     10000.00  N !
$ ------------------------------------------------------------------------------
$
$
 LIST-OF-REFERENCE
 NUMBER  SOURCE
  Null   'Unknown source'
  91Din  'A.T. Dinsdale, Calphad, 15, 317-425(1991).'
  92SUB  'SGTE Substance Database, version 1992'
  94SUB  'SGTE Substance Database, version 1994'
  05Zho  'S. Zhou, R. Arroyave, C.A. Randall, Z.-K. Liu,
          J. Am. Ceram. Soc., 88, 1943-48(2005); Ba-O'
!
