$
$ Database for Eu-In from F. Gao et al. 2011
$
$ F. Gao, S.L. Wang, C.P. Wang, X.J. Liu, Calphad, 35, 1-5(2011).
$
$ Dataset created 2016.04.17 by Bengt Hallstedt.
$ 2020.12.26: Modified for use with GES6.
$
$ There is an inverse miscibility gap with a minimum at 4960 K and x(In)=0.83.
$
$ ------------------------------------------------------------------------------
 TEMP-LIM 298.15 6000.00 !
$
$ELEMENT NAME  REF. STATE               ATOMIC MASS H298-H0    S298    !
$
 ELEMENT VA   VACUUM                      0.0          0.0      0.0    ! 
 ELEMENT EU   BCC_A2                    151.96      8004.0     80.79304! 
 ELEMENT IN   TETRAGONAL_A6             114.82      6610.0     57.65   ! 
$ ------------------------------------------------------------------------------
$ Phase definitions
$
 PHASE LIQUID:L % 1 1 !
 CONST LIQUID:L : EU IN : !
$
$ Fcc (cF4) and MeX (cF8)
$
 PHASE FCC_A1 %A 2 1 1 !
 CONST FCC_A1 : IN : VA : !
$
$ Bcc (cI2, Im-3m)
$
 PHASE BCC_A2 %B 2 1 3 !
 CONST BCC_A2 : EU% IN : VA : !
$
$ Hcp (hP2, P6_3/mmc) and Me2X (NiAs-type, hP4, P6_3/mmc, B8_1)
$
 PHASE HCP_A3 %A 2 1 0.5 !
 CONST HCP_A3 : IN : VA : !
$
$ Prototype In (tI2, I4/mmm)
$
 PHASE TETRAGONAL_A6 % 1 1 !
 CONST TETRAGONAL_A6 : EU IN% : !
$
$ Prototype Co2Si (oP12, Pnma)
$
 PHASE EU2IN_C37 % 2 2 1 !
 CONST EU2IN_C37 : EU : IN : !
$
$ Unknown structure
$
 PHASE EU2IN_HT % 2 2 1 !
 CONST EU2IN_HT : EU : IN : !
$
$ Prototype CuTi (tP2, P4/mmm)
$
 PHASE EUIN_B11 % 2 1 1 !
 CONST EUIN_B11 : EU : IN : !
$
$ Prototype CaIn2 (hP6, P6_3/mmc)
$
 PHASE EUIN2 % 2 1 2 !
 CONST EUIN2 : EU : IN : !
$
$ Prototype EuIn4 (mC20, C2/m)
$
 PHASE EUIN4 % 2 1 4 !
 CONST EUIN4 : EU : IN : !
$ ------------------------------------------------------------------------------
$ Defaults
$
 DEFINE-SYSTEM-DEFAULT ELEMENT 2 !
 DEFAULT-COM DEFINE_SYSTEM_ELEMENT VA !
 TYPE-DEF % SEQ * !
 TYPE-DEF A GES AMEND_PHASE_DESCRIPTION @ MAGNETIC -3 0.28 !
 TYPE-DEF B GES AMEND_PHASE_DESCRIPTION @ MAGNETIC -1 0.4 !
 FUNCTION ZERO      298.15  0;                                         6000 N !
 FUNCTION UN_ASS    298.15  0;                                         6000 N !
 FUNCTION R         298.15  +8.31451;                                  6000 N !
$ ------------------------------------------------------------------------------
$ Element data
$ ------------------------------------------------------------------------------
$ Eu
$
$ BCC_A2 modified in unary 5.0
$ (upper T interval added + trailing decimals added)
$
$ TETRAGONAL_A6 from 11Gao not included in unary
$
 PAR  G(BCC_A2,EU:VA),,                 +GHSEREU;                1900 N 91Din !
 PAR  G(TETRAGONAL_A6,EU),,             +GHSEREU+1000;           1900 N 11Gao !
 PAR  G(LIQUID,EU),,                    +GLIQEU;                 1900 N 91Din !
$
 FUNCTION GHSEREU   298.15  -9864.965+135.836737*T-32.8418896*T*LN(T)
       +0.00931735*T**2-4.006564E-06*T**3+102717*T**(-1);
      1095.00  Y  -287423.476+2174.733036*T-309.3571009*T*LN(T)
       +0.114530917*T**2-8.809866E-06*T**3+48455305*T**(-1);
      1900.00  Y  -13663.125+182.113799*T-38.11624*T*LN(T);
      1901.00  N !
 FUNCTION GLIQEU    298.15  +8382.505-7.175215*T+GHSEREU;
       400.00  Y  +10972.726-103.688201*T+4.3501554*T*LN(T)
       -0.036811218*T**2+5.452934E-06*T**3-646908*T**(-1);
      1095.00  Y  -6890.641+175.517247*T-38.11624*T*LN(T);
      1900.00  N !
$ ------------------------------------------------------------------------------
$ In
$
$ FCC_A1 and TET_ALPHA1 revised in unary 4.1
$ BCT_A5 and RHOMBOHEDRAL_A7 added in unary 4.1
$ TET_ALPHA1 revised in unary 5.0 (using the value from 99Ans)
$ DHCP added in unary 5.0
$
$ There is quite a bit of confusion about TET_ALPHA1_A6. The structure is
$ the same as In (TETRAGONAL_A6), but with a different (presumably) c/a ratio.
$ TET_ALPHA1_A6 is present in Bi-In, In-Pb and In-Sn (possibly more). Between
$ the TETRAGONAL_A6 (In-ss) and TET_ALPHA1_A6 there is a narrow two-phase
$ region. In each system a different G(TET_ALPHA1_A6,IN) lattice stability
$ was used.
$ In 91Din a value from an unpublished revision of the Bi-In system by
$ P.-Y. Chevalier 1990 is included. In SGTE Unary V 4.4 a value from 98Boa
$ for the In-Pb system is included. 98Boa treated the TET_ALPHA1_A6
$ phase in Bi-In and In-Pb as two different phases and used the lattice
$ stability from 88Che0 for the Bi-In branch of this phase. Finally, SGTE
$ unary V 5.0 uses a value from an unpublished evaluation by 99Ans of the
$ In-Sn system. Due to the close proximity of the TETRAGONAL_A6 and
$ TET_ALPHA1_A6 phases in these systems, any change of lattice stability
$ will cause a distortion of the phase diagram and require reoptimisation.
$
$ The DHCP phase is labelled D0_24 in 03Liu and alpha-prime in 92Ans. The
$ phase is present between the fcc and hcp phases in the Au-Sn and Au-In
$ systems.
$
 PAR  G(TETRAGONAL_A6,IN),,             +GHSERIN;                3800 N 91Din !
 PAR  G(FCC_A1,IN:VA),,                 +GHSERIN+162.061;        3800 N 98Boa !
$PAR  G(FCC_A1,IN:VA),,                 +GHSERIN+123-0.1988*T;   3800 N 91Din !
 PAR  G(BCC_A2,IN:VA),,                 +GHSERIN+800-0.8*T;      3800 N 91Din !
 PAR  G(HCP_A3,IN:VA),,                 +GHSERIN+533-0.6868*T;   3800 N 91Din !
$PAR  G(DHCP,IN),,                      +GHSERIN+520-0.384*T;    3800 N 92Ans !
$PAR  G(TET_ALPHA1_A6,IN),,             +GHSERIN+123-0.1988*T;   3800 N 99Ans1 !
$PAR  G(TET_ALPHA1_A6,IN),,             +GHSERIN+0.31*T;         3800 N 98Boa !
$PAR  G(TET_ALPHA1_A6,IN),,             +GHSERIN+193-0.16479*T;  3800 N 91Din !
$PAR  G(TET_ALPHA1_A6,IN),,             +GHSERIN-33+0.16*T;      3800 N 88Che0 !
$PAR  G(BCT_A5,IN),,                    +GHSERIN
$            +5040.87-3.33969*T;                                 3800 N 99Ans1 !
$PAR  G(RHOMBOHEDRAL_A7,IN),,           +GHSERIN+4184;           3800 N 88Che0 !
 PAR  G(LIQUID,IN),,                    +GLIQIN;                 3800 N 91Din !
$
 FUNCTION GHSERIN   298.15  -6978.89+92.338115*T-21.8386*T*LN(T)
       -0.00572566*T**2-2.120321E-06*T**3-22906*T**(-1);
       429.75  Y  -7033.516+124.476588*T-27.4562*T*LN(T)
       +5.4607E-04*T**2-8.367E-08*T**3-211708*T**(-1)+3.53116E+22*T**(-9);
      3800.00  N !
 FUNCTION GLIQIN    298.15  +3282.092-7.63686*T+GHSERIN-5.59058E-20*T**7;
       429.75  Y  +3283.706-7.640804*T+GHSERIN-3.53116E+22*T**(-9);
      3800.00  N !
$ ------------------------------------------------------------------------------
$ Binary system
$
$ F. Gao, S.L. Wang, C.P. Wang, X.J. Liu, Calphad, 35, 1-5(2011).
$
$ Checked against paper and tdb from author. Checked at 6000 K.
$
$ There is an inverse miscibility gap with a minimum at 4960 K and x(In)=0.83.
$
 PAR  L(LIQUID,EU,IN;0),,               -163100+35.5*T;,,             N 11Gao !
 PAR  L(LIQUID,EU,IN;1),,               +30000-15*T;,,                N 11Gao !
 PAR  L(LIQUID,EU,IN;2),,               +28000;,,                     N 11Gao !
$
 PAR  L(BCC_A2,EU,IN:VA;0),,            +12000;,,                     N 11Gao !
 PAR  L(TETRAGONAL_A6,EU,IN;0),,        +ZERO;,,                      N 11Gao !
$
 PAR  G(EU2IN_C37,EU:IN),,              +2*GHSEREU+GHSERIN
             -172804.5+76*T;,,                                        N 11Gao !
 PAR  G(EU2IN_HT,EU:IN),,               +2*GHSEREU+GHSERIN
             -172058+75.2*T;,,                                        N 11Gao !
 PAR  G(EUIN_B11,EU:IN),,               +GHSEREU+GHSERIN
             -117764+31*T;,,                                          N 11Gao !
 PAR  G(EUIN2,EU:IN),,                  +GHSEREU+2*GHSERIN
             -137071+19*T;,,                                          N 11Gao !
 PAR  G(EUIN4,EU:IN),,                  +GHSEREU+4*GHSERIN
             -188782+75.6*T;,,                                        N 11Gao !
$ ------------------------------------------------------------------------------
$
$
 LIST-OF-REFERENCE
 NUMBER  SOURCE
  Null   'Unknown source'
  Same   'Same or similar interaction as in the corresponding stable phase'
  COST   'COST 507 database'
  88Che0 'P.-Y Chevalier, Calphad, 12, 383-92(1988)
          SGTE unary database V.4.1, 1999; In'
  91Din  'A.T. Dinsdale, Calphad, 15, 317-425(1991).'
  92Ans  'I. Ansara, J.-Ph. Nabot, Calphad, 16, 13-18(1992),
          SGTE unary database V.5.0, 2009; In'
  98Boa  'D. Boa, I. Ansara, Thermochim. Acta, 314, 79-86(1998),
          SGTE unary database V.4.1, 1999; In, Pb'
  99Ans1 'I. Ansara, S.G. Fries, H.L. Lukas, unpublished, 1999,
          SGTE unary database V.5.0, 2009; In, Sn'
  11Gao  'F. Gao, S.L. Wang, C.P. Wang, X.J. Liu,
          Calphad, 35, 1-5(2011); Eu, Eu-In'
!
