$
$ Database for Mg-Ni from M.H.G. Jacobs and P.J. Spencer 1998
$ (Included in LB Vol. 3)
$
$ M.H.G. Jacobs, P.J. Spencer, COST 507, Final report round 2, 1998.
$
$ Dataset created 2010.02.05 by Bengt Hallstedt.
$ 2021.01.24: Modified for use with GES6.
$
$ This version is quite different from the version published in Calphad,
$ which seems quite reasonable with the exception of an inverse liquid
$ miscibility gap and probably too positive solid interactions.
$
$ Solid interactions should be changed. Ni endpoint of LAVES_C36 should be
$ changed. Mg2Ni has a constant heat capacity.
$
$ ------------------------------------------------------------------------------
 TEMP-LIM 298.15 6000.00 !
$
$ELEMENT NAME  REF. STATE               ATOMIC MASS H298-H0    S298    !
$
 ELEMENT VA   VACUUM                      0.0          0.0      0.0    ! 
 ELEMENT MG   HCP_A3                     24.305     4998.      32.671  !
 ELEMENT NI   FCC_A1                     58.69      4787.0     29.7955 ! 
$ ------------------------------------------------------------------------------
$ Phase definitions
$
 PHASE LIQUID:L % 1 1 !
 CONST LIQUID:L : MG NI : !
$
$ Fcc (cF4, Fm-3m) and MeX (cF8, Fm-3m)
$
 PHASE FCC_A1 %A 2 1 1 !
 CONST FCC_A1 : MG NI% : VA : !
$
$ Bcc (cI2, Im-3m)
$
 PHASE BCC_A2 %B 2 1 3 !
 CONST BCC_A2 : MG NI : VA : !
$
$ Hcp (hP2, P6_3/mmc) and Me2X (NiAs-type, hP4, P6_3/mmc, B8_1)
$
 PHASE HCP_A3 %A 2 1 0.5 !
 CONST HCP_A3 : MG% NI : VA : !
$
$ Prototype MgNi2 (hP24, P6_3/mmc)
$
 PHASE C36_LAVES % 2 2 1 !
 CONST C36_LAVES : MG NI% : MG% NI : !
$
$ Prototype Mg2Ni (hP18, P6_222)
$
 PHASE MG2NI % 2 2 1 !
 CONST MG2NI : MG : NI : !
$ ------------------------------------------------------------------------------
$ Defaults
$
 DEFINE-SYSTEM-DEFAULT ELEMENT 2 !
 DEFAULT-COM DEFINE_SYSTEM_ELEMENT VA !
 TYPE-DEF % SEQ * !
 TYPE-DEF A GES AMEND_PHASE_DESCRIPTION @ MAGNETIC -3 0.28 !
 TYPE-DEF B GES AMEND_PHASE_DESCRIPTION @ MAGNETIC -1 0.4 !
 FUNCTION ZERO      298.15  0;                                         6000 N !
 FUNCTION UN_ASS    298.15  0;                                         6000 N !
 FUNCTION R         298.15  +8.31451;                                  6000 N !
$ ------------------------------------------------------------------------------
$ Element data
$ ------------------------------------------------------------------------------
$ Mg
$
 PAR  G(FCC_A1,MG:VA),,                 +GHSERMG+2600-0.9*T;     3000 N 91Din !
 PAR  G(BCC_A2,MG:VA),,                 +GHSERMG+3100-2.1*T;     3000 N 91Din !
 PAR  G(HCP_A3,MG:VA),,                 +GHSERMG;                3000 N 91Din !
$PAR  G(CBCC_A12,MG:VA),,               +GHSERMG
$            +4602.4-3.011*T;                                    3000 N 91Din !
$PAR  G(CUB_A13,MG:VA),,                +GHSERMG+5000-3*T;       3000 N 91Din !
 PAR  G(LIQUID,MG),,                    +GLIQMG;                 3000 N 91Din !
$
 PAR  G(C36_LAVES,MG:MG),,              +3*GHSERMG+15000;,,           N REFLAV !
$
 FUNCTION GHSERMG   298.15  -8367.34+143.675547*T-26.1849782*T*LN(T)
       +4.858E-04*T**2-1.393669E-06*T**3+78950*T**(-1);
       923.00  Y  -14130.185+204.716215*T-34.3088*T*LN(T)+1.038192E+28*T**(-9);
      3000.00  N !
 FUNCTION GLIQMG    298.15  +8202.243-8.83693*T+GHSERMG-8.0176E-20*T**7;
       923.00  Y  -5439.869+195.324057*T-34.3088*T*LN(T);
      3000.00  N !
$ ------------------------------------------------------------------------------
$ Ni
$
$ FCC_A1 and LIQUID modified in unary 5.0 (slight change in upper T interval)
$ BCT_A5 added in unary 5.0
$
 PAR  G(FCC_A1,NI:VA),,                 +GHSERNI;                3000 N 91Din !
 PAR  TC(FCC_A1,NI:VA),,                  633.00;                3000 N 91Din !
 PAR  BM(FCC_A1,NI:VA),,                    0.52;                3000 N 91Din !
 PAR  G(BCC_A2,NI:VA),,                 +GHSERNI
             +8715.084-3.556*T;                                  3000 N 91Din !
 PAR  TC(BCC_A2,NI:VA),,                  575.00;                3000 N 91Din !
 PAR  BM(BCC_A2,NI:VA),,                    0.85;                3000 N 91Din !
 PAR  G(HCP_A3,NI:VA),,                 +GHSERNI+1046+1.255*T;   3000 N 91Din !
 PAR  TC(HCP_A3,NI:VA),,                  633.00;                3000 N 91Din !
 PAR  BM(HCP_A3,NI:VA),,                    0.52;                3000 N 91Din !
$PAR  G(BCT_A5,NI),,                    +GHSERNI+10023-4.556*T;  3000 N 99Gho !
$PAR  G(CBCC_A12,NI:VA),,               +GHSERNI+3556;           3000 N 91Din !
$PAR  G(CUB_A13,NI:VA),,                +GHSERNI+2092;           3000 N 91Din !
 PAR  G(LIQUID,NI),,                    +GLIQNI;                 3000 N 91Din !
$
 PAR  G(C36_LAVES,NI:NI),,              +ZERO;,,                      N 98Jac2 !
$
 FUNCTION GHSERNI   298.15  -5179.159+117.854*T-22.096*T*LN(T)-0.0048407*T**2;
      1728.00  Y  -27840.62+279.134977*T-43.1*T*LN(T)+1.12754E+31*T**(-9);
      3000.00  N !
 FUNCTION GLIQNI    298.15  +16414.686-9.397*T+GHSERNI-3.82318E-21*T**7;
      1728.00  Y  -9549.817+268.597977*T-43.1*T*LN(T);
      3000.00  N !
 FUNCTION GBCCNI    298.15  +GHSERNI+8715.084-3.556*T;                 6000 N !
$ ------------------------------------------------------------------------------
$ Binary system
$
$ From M.H.G. Jacobs and P.J. Spencer 1998 (Included in LB Vol. 3)
$
$ M.H.G. Jacobs, P.J. Spencer, COST 507, Final report round 2, 1998.
$
$ Checked against LB and COST. Checked at 6000 K.
$
$ This version is quite different from the version published in Calphad,
$ which seems quite reasonable with the exception of an inverse liquid
$ miscibility gap and probably too positive solid interactions.
$
$ Solid interactions should be changed. Ni endpoint of C36_LAVES should be
$ changed. Mg2Ni has a constant heat capacity.
$
 PAR  L(LIQUID,MG,NI;0),,               -42304.49+7.45704*T;,,        N 98Jac2 !
 PAR  L(LIQUID,MG,NI;1),,               -15611.66+9.11885*T;,,        N 98Jac2 !
$
 PAR  L(FCC_A1,MG,NI:VA;0),,            +80*T;,,                      N 98Jac2 !
 PAR  L(HCP_A3,MG,NI:VA;0),,            +80*T;,,                      N 98Jac2 !
$
 PAR  G(C36_LAVES,MG:NI),,              +104136-293.9216*T
             +54.35385*T*LN(T)+0.0333*T**2+99*T**(-1)
             -5.14203E-06*T**3;,,                                     N 98Jac2 !
 PAR  G(C36_LAVES,NI:MG),,              -74136+293.9216*T
             -54.35385*T*LN(T)-0.0333*T**2-99*T**(-1)
             +5.14203E-06*T**3;,,                                     N 98Jac2 !
 PAR  L(C36_LAVES,MG,NI:MG;0),,         +50000;,,                     N 98Jac2 !
 PAR  L(C36_LAVES,MG,NI:NI;0),,         +50000;,,                     N 98Jac2 !
 PAR  L(C36_LAVES,MG:MG,NI;0),,         +50000;,,                     N 98Jac2 !
 PAR  L(C36_LAVES,NI:MG,NI;0),,         +50000;,,                     N 98Jac2 !
$
 PAR  G(MG2NI,MG:NI),,                  -82211.2+571.0183*T
             -95.992*T*LN(T);,,                                       N 98Jac2 !
$
$ Metastable
$
 PAR  L(BCC_A2,MG,NI:VA;0),,            +80*T;,,                      N 98Jac2 !
$ ------------------------------------------------------------------------------
$
 ASSESSED_SYSTEM
  MG-NI(TDB -* +LIQUID +FCC_A1 +HCP_A3 +C36_LAVES +MG2NI; P3 TMM:300/2300 *) !
$
$
 LIST-OF-REFERENCE
 NUMBER  SOURCE
  Null   'Unknown source'
  REFLAV 'Laves phase convention: G(LAVES,X:X)=+3*GHSERXX+15000'
  91Din  'A.T. Dinsdale, Calphad, 15, 317-425(1991).'
  98Jac2 'M.H.G. Jacobs, P.J. Spencer, COST 507,
          Final report round 2, 1998; Mg-Ni'
  99Gho  'G. Ghosh, Metall. Mater. Trans. A, 30A, 1481-94(1999),
          SGTE unary database V.5.0, 2009; Ni'
!
