$
$ Database for Cr-H from M. Dottor et al. 2022.
$
$ M. Dottor, J.-C. Crivello, J.-M. Joubert,
$ Int. J. Hydrogen Energy, 47, 23293-309(2022).
$
$ Dataset created 2022.09.24 by Bengt Hallstedt.
$
$ The paper includes high-pressure models, but this dataset only includes
$ the ambient pressure part.
$
$ H is modelled as interstitial in liquid.
$
$ ------------------------------------------------------------------------------
 TEMP-LIM 298.15 6000.00 !
$
$ELEMENT NAME  REF. STATE               ATOMIC MASS H298-H0    S298    !
$
 ELEMENT VA   VACUUM                      0.0          0.0      0.0    ! 
 ELEMENT CR   BCC_A2                     51.996     4050.0     23.5429 ! 
 ELEMENT H    1/2_MOLE_H2(G)              1.0079    4234.      65.285  ! 
$ ------------------------------------------------------------------------------
$ Species
$
 SPECIE  H2                                 H2 !
$ ------------------------------------------------------------------------------
$ Phase definitions
$
 PHASE LIQUID:L % 2 1 1 !
 CONST LIQUID:L : CR : H VA : !
$
$ Fcc (cF4, Fm-3m) and MeX (cF8, Fm-3m)
$
 PHASE FCC_A1 %A 2 1 1 !
 CONST FCC_A1 : CR : H VA% : !
$
$ Bcc (cI2, Im-3m)
$
 PHASE BCC_A2 %B 2 1 3 !
 CONST BCC_A2 : CR : H VA% : !
$
$ Hcp (hP2, P6_3/mmc) and Me2X (NiAs-type, hP4, P6_3/mmc, B8_1)
$ Note! Not standard model for hcp.
$
 PHASE HCP_A3 %A 2 1 1 !
 CONST HCP_A3 : CR : H VA% : !
$
 PHASE GAS:G % 1 1 !
 CONST GAS:G : H H2 : !
$
 PHASE H2GAS % 1 1 !
 CONST H2GAS : H2 : !
$ ------------------------------------------------------------------------------
$ Defaults
$
 DEFINE-SYSTEM-DEFAULT ELEMENT 2 !
 DEFAULT-COM DEFINE_SYSTEM_ELEMENT VA !
 TYPE-DEFINITION % SEQ * !
 TYPE_DEF A GES AMEND_PHASE_DESCRIPTION @ MAGNETIC -3 0.28 !
 TYPE_DEF B GES AMEND_PHASE_DESCRIPTION @ MAGNETIC -1 0.4 !
 FUNCTION ZERO      298.15  0;                                         6000 N !
 FUNCTION UN_ASS    298.15  0;                                         6000 N !
 FUNCTION R         298.15  +8.31451;                                  6000 N !
 FUNCTION RTLNP     298.15  +8.31451*T*LN(1E-05*P);                    6000 N !
$ ------------------------------------------------------------------------------
$ Element data
$ ------------------------------------------------------------------------------
$ Cr
$
 PAR  G(BCC_A2,CR:VA),,                 +GHSERCR;,,                   N 91Din !
 PAR  TC(BCC_A2,CR:VA),,                 -311.50;,,                   N 91Din !
 PAR  BM(BCC_A2,CR:VA),,                   -0.008;,,                  N 91Din !
 PAR  G(FCC_A1,CR:VA),,                 +GHSERCR+7284+0.163*T;,,      N 91Din !
 PAR  TC(FCC_A1,CR:VA),,                -1109.00;,,                   N 91Din !
 PAR  BM(FCC_A1,CR:VA),,                   -2.46;,,                   N 91Din !
 PAR  G(HCP_A3,CR:VA),,                 +GHSERCR+4438;,,              N 91Din !
 PAR  TC(HCP_A3,CR:VA),,                -1109.00;,,                   N 91Din !
 PAR  BM(HCP_A3,CR:VA),,                   -2.46;,,                   N 91Din !
$PAR  G(CBCC_A12,CR:VA),,               +GHSERCR+11087+2.7196*T;,,    N 91Din !
$PAR  G(CUB_A13,CR:VA),,                +GHSERCR+15899+0.6276*T;,,    N 91Din !
 PAR  G(LIQUID,CR:VA),,                 +GLIQCR;,,                    N 91Din !
$
 FUNCTION GHSERCR   298.15  -8856.94+157.48*T-26.908*T*LN(T)
       +0.00189435*T**2-1.47721E-06*T**3+139250*T**(-1);
      2180.00  Y  -34869.344+344.18*T-50*T*LN(T)-2.88526E+32*T**(-9);
      6000.00  N !
 FUNCTION GLIQCR    298.15  +24339.955-11.420225*T+GHSERCR+2.37615E-21*T**7;
      2180.00  Y  -16459.984+335.616316*T-50*T*LN(T);
      6000.00  N !
 FUNCTION GFCCCR    298.15  +GHSERCR+7284+0.163*T;                     6000 N !
$ ------------------------------------------------------------------------------
$ H
$
$ H is not included in unary
$
$PAR  G(LIQUID,H),,                     +GHSERHH
$            +8035+25*T+2*T*LN(T);,,                                  N 04Qiu !
$
 PAR  G(H2GAS,H2),,                     +GHSERH2+RTLNP;,,             N 97SUB !
$
 PAR  G(GAS,H),,                        +F10383T+RTLNP;,,             N 97SUB !
 PAR  G(GAS,H2),,                       +GHSERH2+RTLNP;,,             N 97SUB !
$
$ H(g)
 FUNCTION F10383T   298.15  +211801.621+24.4989821*T-20.78611*T*LN(T);
      6000.00  N !
$ H2(g)
 FUNCTION GHSERH2   298.15  -9522.9741+78.5273879*T-31.35707*T*LN(T)
       +0.0027589925*T**2-7.46390667E-07*T**3+56582.3*T**(-1);
      1000.00  Y  +180.108664-15.6128256*T-17.84857*T*LN(T)
       -0.00584168*T**2+3.14618667E-07*T**3-1280036*T**(-1);
      2100.00  Y  -18840.1663+92.3120255*T-32.05082*T*LN(T)
       -0.0010728235*T**2+1.14281783E-08*T**3+3561002.5*T**(-1);
      6000.00  N !
 FUNCTION GHSERHH   298.15  +0.5*GHSERH2;                              6000 N !
$ ------------------------------------------------------------------------------
$ Binary system
$
$ M. Dottor, J.-C. Crivello, J.-M. Joubert,
$ Int. J. Hydrogen Energy, 47, 23293-309(2022).
$
$ Checked against paper. Checked at 6000 K (at 1 bar).
$
$ The paper includes high-pressure models, but this dataset only includes
$ the ambient pressure part.
$
 PAR  G(LIQUID,CR:H),,                  +GHSERCR+GHSERHH
             -7952+65.4*T;,,                                          N 22Dot !
 PAR  L(LIQUID,CR:H,VA;0),,             -27890;,,                     N 22Dot !
$
 PAR  G(BCC_A2,CR:H),,                  +GHSERCR+3*GHSERHH
             +120650+196.2*T;,,                                       N 22Dot !
 PAR  L(BCC_A2,CR:H,VA;0),,             -3728-38.378*T;,,             N 22Dot !
$
$ Metastable
$
 PAR  G(FCC_A1,CR:H),,                  +GHSERCR+GHSERHH
             -7617.6+60.127*T;,,                                      N 22Dot !
 PAR  G(HCP_A3,CR:H),,                  +GHSERCR+GHSERHH
             -10368+63.176*T;,,                                       N 22Dot !
$ ------------------------------------------------------------------------------
$
$
 LIST-OF-REFERENCE
 NUMBER  SOURCE
  Null   'Unknown source'
  Same   'Same or similar interaction as in the corresponding stable phase'
  COST   'COST 507 database'
  91Din  'A.T. Dinsdale, Calphad, 15, 317-425(1991).'
  97SUB  'SGTE substance database, version 1997'
  04Qiu  'C. Qiu, G.B. Olson, S.M. Opalka, D.L. Anton,
          J. Phase Equilib. Diffus., 25, 520-27(2004); H'
  22Dot  'M. Dottor, J.-C. Crivello, J.-M. Joubert,
          Int. J. Hydrogen Energy, 47, 23293-309(2022); Cr-H'
!
