$
$ Database for Cr-Ta from J. Pavlu et al. 2009.
$
$ J. Pavlu, J. Vrestal, M. Sob, Calphad, 33, 179-86(2009).
$
$ Dataset created 2020.08.09 by Bengt Hallstedt.
$
$ Laves phases changed from 93Dup based on ab initio calculations.
$
$ ------------------------------------------------------------------------------
 TEMP-LIM 298.15 6000.00 !
$
$ELEMENT NAME  REF. STATE               ATOMIC MASS H298-H0    S298    !
$
 ELEMENT VA   VACUUM                      0.0          0.0      0.0    ! 
 ELEMENT CR   BCC_A2                     51.996     4050.0     23.5429 ! 
 ELEMENT TA   BCC_A2                    180.9479    5681.872   41.4718 ! 
$ ------------------------------------------------------------------------------
$ Phase definitions
$
 PHASE LIQUID:L % 1 1 !
 CONST LIQUID:L : CR TA : !
$
$ Fcc (cF4, Fm-3m) and MeX (cF8, Fm-3m)
$
 PHASE FCC_A1 %A 2 1 1 !
 CONST FCC_A1 : CR TA : VA : !
$
$ Bcc (cI2, Im-3m)
$
 PHASE BCC_A2 %B 2 1 3 !
 CONST BCC_A2 : CR% TA% : VA : !
$
$ Hcp (hP2, P6_3/mmc) and Me2X (NiAs-type, hP4, P6_3/mmc, B8_1)
$
 PHASE HCP_A3 %A 2 1 0.5 !
 CONST HCP_A3 : CR TA : VA : !
$
$ Prototype MgZn2 (hP12, P6_3/mmc)
$
 PHASE C14_LAVES % 2 2 1 !
 CONST C14_LAVES : CR% TA : CR TA% : !
$
$ Prototype Cu2Mg (cF24, Fd-3m)
$
 PHASE C15_LAVES % 2 2 1 !
 CONST C15_LAVES : CR% TA : CR TA% : !
$ ------------------------------------------------------------------------------
$ Defaults
$
 DEFINE-SYSTEM-DEFAULT ELEMENT 2 !
 DEFAULT-COM DEFINE_SYSTEM_ELEMENT VA !
 TYPE-DEF % SEQ * !
 TYPE-DEF A GES AMEND_PHASE_DESCRIPTION @ MAGNETIC -3 0.28 !
 TYPE-DEF B GES AMEND_PHASE_DESCRIPTION @ MAGNETIC -1 0.4 !
 FUNCTION ZERO      298.15  0;                                         6000 N !
 FUNCTION UN_ASS    298.15  0;                                         6000 N !
 FUNCTION R         298.15  +8.31451;                                  6000 N !
$ ------------------------------------------------------------------------------
$ Element data
$ ------------------------------------------------------------------------------
$ Cr
$
 PAR  G(BCC_A2,CR:VA),,                 +GHSERCR;,,                   N 91Din !
 PAR  TC(BCC_A2,CR:VA),,                 -311.50;,,                   N 91Din !
 PAR  BM(BCC_A2,CR:VA),,                   -0.008;,,                  N 91Din !
 PAR  G(FCC_A1,CR:VA),,                 +GHSERCR+7284+0.163*T;,,      N 91Din !
 PAR  TC(FCC_A1,CR:VA),,                -1109.00;,,                   N 91Din !
 PAR  BM(FCC_A1,CR:VA),,                   -2.46;,,                   N 91Din !
 PAR  G(HCP_A3,CR:VA),,                 +GHSERCR+4438;,,              N 91Din !
 PAR  TC(HCP_A3,CR:VA),,                -1109.00;,,                   N 91Din !
 PAR  BM(HCP_A3,CR:VA),,                   -2.46;,,                   N 91Din !
 PAR  G(LIQUID,CR),,                    +GLIQCR;,,                    N 91Din !
$
 PAR  G(C14_LAVES,CR:CR),,              +3*GHSERCR+85890;,,           N 09Pav !
 PAR  G(C15_LAVES,CR:CR),,              +3*GHSERCR+81870;,,           N 09Pav !
$
 FUNCTION GHSERCR   298.15  -8856.94+157.48*T-26.908*T*LN(T)
       +0.00189435*T**2-1.47721E-06*T**3+139250*T**(-1);
      2180.00  Y  -34869.344+344.18*T-50*T*LN(T)-2.88526E+32*T**(-9);
      6000.00  N !
 FUNCTION GLIQCR    298.15  +24339.955-11.420225*T+GHSERCR+2.37615E-21*T**7;
      2180.00  Y  -16459.984+335.616316*T-50*T*LN(T);
      6000.00  N !
$ ------------------------------------------------------------------------------
$ Ta
$
 PAR  G(BCC_A2,TA:VA),,                 +GHSERTA;,,                   N 91Din !
 PAR  G(FCC_A1,TA:VA),,                 +GHSERTA+16000+1.7*T;,,       N 91Din !
 PAR  G(HCP_A3,TA:VA),,                 +GHSERTA+12000+2.4*T;,,       N 91Din !
 PAR  G(LIQUID,TA),,                    +GLIQTA;,,                    N 91Din !
$
 PAR  G(C14_LAVES,TA:TA),,              +3*GHSERTA+28050;,,           N 09Pav !
 PAR  G(C15_LAVES,TA:TA),,              +3*GHSERTA+32820;,,           N 09Pav !
$
 FUNCTION GHSERTA   298.15  -7285.889+119.139857*T-23.7592624*T*LN(T)
       -0.002623033*T**2+1.70109E-07*T**3-3293*T**(-1);
      1300.00  Y  -22389.955+243.88676*T-41.137088*T*LN(T)
       +0.006167572*T**2-6.55136E-07*T**3+2429586*T**(-1);
      2500.00  Y  +229382.886-722.59722*T+78.5244752*T*LN(T)
       -0.017983376*T**2+1.95033E-07*T**3-93813648*T**(-1);
      3290.00  Y  -1042384.01+2985.49125*T-362.159132*T*LN(T)
       +0.043117795*T**2-1.055148E-06*T**3+5.54714342E+08*T**(-1);
      6000.00  N !
 FUNCTION GLIQTA    298.15  +29160.975-7.578729*T+GHSERTA;
      1000.00  Y  +43884.339-61.981795*T+0.0279523*T*LN(T)
       -0.012330066*T**2+6.14599E-07*T**3-3523338*T**(-1);
      3290.00  Y  -6314.543+258.110873*T-41.84*T*LN(T);
      6000.00  N !
$ ------------------------------------------------------------------------------
$ Binary system
$
$ J. Pavlu, J. Vrestal, M. Sob, Calphad, 33, 179-86(2009).
$
$ Checked against paper. Checked at 6000 K.
$
$ Laves phases changed from 93Dup based on ab initio calculations.
$
 PAR  L(LIQUID,CR,TA;0),,               -18600+6.2*T;,,               N 93Dup !
 PAR  L(LIQUID,CR,TA;1),,               +12600-4.2*T;,,               N 93Dup !
$
 PAR  L(BCC_A2,CR,TA:VA;0),,            +46800-11.4*T;,,              N 93Dup !
 PAR  L(BCC_A2,CR,TA:VA;1),,            +37200-17.3*T;,,              N 93Dup !
 PAR  L(BCC_A2,CR,TA:VA;2),,            +16200-5.4*T;,,               N 93Dup !
$
 PAR  G(C14_LAVES,CR:TA),,              +2*GHSERCR+GHSERTA
             -30750+0.999*T;,,                                        N 09Pav !
 PAR  G(C14_LAVES,TA:CR),,              +GHSERCR+2*GHSERTA
             +229050+0.112*T;,,                                       N 09Pav !
 PAR  L(C14_LAVES,CR,TA:CR;0),,         +79000;,,                     N 09Pav !
 PAR  L(C14_LAVES,CR,TA:TA;0),,         +55000+4.95*T;,,              N 09Pav !
 PAR  L(C14_LAVES,CR:CR,TA;0),,         -35000-9.85*T;,,              N 09Pav !
 PAR  L(C14_LAVES,TA:CR,TA;0),,         +79000;,,                     N 09Pav !
$
 PAR  G(C15_LAVES,CR:TA),,              +2*GHSERCR+GHSERTA
             -33870+2.53*T;,,                                         N 09Pav !
 PAR  G(C15_LAVES,TA:CR),,              +GHSERCR+2*GHSERTA
             +223170-0.65*T;,,                                        N 09Pav !
 PAR  L(C15_LAVES,CR,TA:CR;0),,         +240000;,,                    N 09Pav !
 PAR  L(C15_LAVES,CR,TA:TA;0),,         +80400-10.3*T;,,              N 09Pav !
 PAR  L(C15_LAVES,CR:CR,TA;0),,         -2500-23.4*T;,,               N 09Pav !
 PAR  L(C15_LAVES,TA:CR,TA;0),,         +240000;,,                    N 09Pav !
$
$ Metastable
$
 PAR  L(FCC_A1,CR,TA:VA;0),,            +46800-11.4*T;,,              N 93Dup !
 PAR  L(FCC_A1,CR,TA:VA;1),,            +37200-17.3*T;,,              N 93Dup !
 PAR  L(FCC_A1,CR,TA:VA;2),,            +16200-5.4*T;,,               N 93Dup !
$
 PAR  L(HCP_A3,CR,TA:VA;0),,            +46800-11.4*T;,,              N Same !
 PAR  L(HCP_A3,CR,TA:VA;1),,            +37200-17.3*T;,,              N Same !
 PAR  L(HCP_A3,CR,TA:VA;2),,            +16200-5.4*T;,,               N Same !
$ ------------------------------------------------------------------------------
$
 ASSESSED_SYSTEM
  CR-TA(TDB -* +LIQ +BCC_A2 +C14_LAV +C15_LAV ;P3 TMM:300/3500 *) !
$
$
 LIST-OF-REFERENCE
 NUMBER  SOURCE
  Null   'Unknown source'
  Same   'Same or similar interaction as in the corresponding stable phase'
  REFLAV 'Laves phase convention: G(LAVES,X:X)=+3*GHSERXX+15000'
  91Din  'A.T. Dinsdale, Calphad, 15, 317-425(1991).'
  93Dup  'N. Dupin, I. Ansara, J. Phase Equilib., 14, 451-56(1993),
          addendum, ibid, 15, 135(1994); Cr-Ta'
  09Pav  'J. Pavlu, J. Vrestal, M. Sob, Calphad, 33, 179-86(2009); Cr-Ta'
!
