$
$ Database for Fe-Mo from A. Fernandez Guillermet 1982
$
$ A. Fernandez Guillermet, Calphad, 6, 127-40 (1982).
$
$ Dataset created 2015.08.14 by Bengt Hallstedt.
$ 2020.12.26: Modified for use with GES6.
$
$ Note! Non-SGTE lattice stabilities used for fcc-Mo and liquid Mo.
$ Using SGTE lattice stabilities strongly stabilises bcc relative to liquid.
$
$ C14_LAVES is described as a stoichiometric compound.
$
$ Invariant equilibria differ by up to 6 K.
$ The gamma-loop is somewhat too large.
$ The differences are probably due to small changes in the Gibbs energy of
$ fcc-Fe from 82Fer to 91Din. The latter is used here.
$
$ ------------------------------------------------------------------------------
 TEMP-LIM 298.15 6000.00 !
$
$ELEMENT NAME  REF. STATE               ATOMIC MASS H298-H0    S298    !
$
 ELEMENT VA   VACUUM                      0.0          0.0      0.0    ! 
 ELEMENT FE   BCC_A2                     55.847     4489.0     27.2797 ! 
 ELEMENT MO   BCC_A2                     95.94      4589.0     28.56   ! 
$ ------------------------------------------------------------------------------
$ Phase definitions
$
 PHASE LIQUID:L % 1 1 !
 CONST LIQUID:L : FE MO : !
$
$ Fcc (cF4, Fm-3m) and MeX (cF8, Fm-3m)
$
 PHASE FCC_A1 %A 2 1 1 !
 CONST FCC_A1 : FE MO : VA : !
$
$ Bcc (cI2, Im-3m)
$
 PHASE BCC_A2 %B 2 1 3 !
 CONST BCC_A2 : FE MO : VA : !
$
$ Hcp (hP2, P6_3/mmc) and Me2X (NiAs-type, hP4, P6_3/mmc, B8_1)
$
 PHASE HCP_A3 % 2 1 0.5 !
 CONST HCP_A3 : FE MO : VA : !
$
$ Prototype MgZn2 (hP12, P6_3/mmc)
$
 PHASE C14_LAVES % 2 2 1 !
 CONST C14_LAVES : FE : MO : !
$
$ Prototype Fe7W6 (hR13, R-3m)
$
 PHASE MU_D85 % 3 7 2 4 !
 CONST MU_D85 : FE : MO : FE MO% : !
$
$ Prototype R-(Co,Cr,Mo) (hR53, R-3) also appears as Fe3Mo2
$
 PHASE R_PHASE % 3 27 14 12 !
 CONST R_PHASE : FE : MO : FE MO : !
$
$ Prototype CrFe (tP30, P4_2/mnm)
$
 PHASE SIGMA_D8B % 3 10 4 16 !
 CONST SIGMA_D8B : FE : MO : FE MO : !
$ ------------------------------------------------------------------------------
$ Defaults
$
 DEFINE-SYSTEM-DEFAULT ELEMENT 2 !
 DEFAULT-COM DEFINE_SYSTEM_ELEMENT VA !
 TYPE-DEF % SEQ * !
 TYPE-DEF A GES AMEND_PHASE_DESCRIPTION @ MAGNETIC -3 0.28 !
 TYPE-DEF B GES AMEND_PHASE_DESCRIPTION @ MAGNETIC -1 0.4 !
 FUNCTION ZERO      298.15  0;                                         6000 N !
 FUNCTION UN_ASS    298.15  0;                                         6000 N !
$ ------------------------------------------------------------------------------
$ Element data
$ ------------------------------------------------------------------------------
$ Fe
$
$ ORTHORHOMBIC_A20 and TETRAGONAL_U added im unary 4.1
$
 PAR  G(BCC_A2,FE:VA),,                 +GHSERFE;,,                   N 91Din !
 PAR  TC(BCC_A2,FE:VA),,                 1043.00;,,                   N 91Din !
 PAR  BM(BCC_A2,FE:VA),,                    2.22;,,                   N 91Din !
 PAR  G(FCC_A1,FE:VA),,                 +GFCCFE;,,                    N 91Din !
 PAR  TC(FCC_A1,FE:VA),,                 -201.00;,,                   N 91Din !
 PAR  BM(FCC_A1,FE:VA),,                   -2.10;,,                   N 91Din !
 PAR  G(HCP_A3,FE:VA),,                 +GHCPFE;,,                    N 91Din !
$PAR  G(CBCC_A12,FE:VA),,               +GHSERFE+4745;,,              N 91Din !
$PAR  G(CUB_A13,FE:VA),,                +GHSERFE+3745;,,              N 91Din !
$PAR  G(ORTHORHOMBIC_A20,FE),,          +GHSERFE+5000;,,              N 99SGUN !
$PAR  G(TETRAGONAL_U,FE),,              +GHSERFE+5000;,,              N 99SGUN !
 PAR  G(LIQUID,FE),,                    +GLIQFE;,,                    N 91Din !
$
$PAR  G(C14_LAVES,FE:FE),,              +3*GHSERFE+15000;,,           N REFLAV !
$
 FUNCTION GHSERFE   298.15  +1225.7+124.134*T-23.5143*T*LN(T)
       -0.00439752*T**2-5.8927E-08*T**3+77359*T**(-1);
      1811.00  Y  -25383.581+299.31255*T-46*T*LN(T)+2.29603E+31*T**(-9);
      6000.00  N !
 FUNCTION GFCCFE    298.15  -1462.4+8.282*T-1.15*T*LN(T)
       +6.4E-04*T**2+GHSERFE;
      1811.00  Y  -1713.815+0.940009*T+GHSERFE+4.9251E+30*T**(-9);
      6000.00  N !
 FUNCTION GHCPFE    298.15  -3705.78+12.591*T-1.15*T*LN(T)
       +6.4E-04*T**2+GHSERFE;
      1811.00  Y  -3957.195+5.249009*T+GHSERFE+4.9251E+30*T**(-9);
      6000.00  N !
 FUNCTION GLIQFE    298.15  +12040.17-6.55843*T+GHSERFE-3.67516E-21*T**7;
      1811.00  Y  -10838.83+291.302*T-46*T*LN(T);
      6000.00  N !
$ ------------------------------------------------------------------------------
$ Mo
$
$ Note! Non-SGTE lattice stabilities used for fcc-Mo and liquid Mo.
$
 PAR  G(BCC_A2,MO:VA),,                 +GHSERMO;                5000 N 91Din !
$PAR  G(FCC_A1,MO:VA),,                 +GHSERMO+15200+0.63*T;   5000 N 91Din !
 PAR  G(FCC_A1,MO:VA),,                 +GHSERMO+10460+0.628*T;  5000 N 82Fer !
 PAR  G(HCP_A3,MO:VA),,                 +GHSERMO+11550;          5000 N 91Din !
$PAR  G(LIQUID,MO),,                    +GLIQMO;                 5000 N 91Din !
 PAR  G(LIQUID,MO),,                    +GHSERMO+24416-20.524*T
             +1.5153*T*LN(T);                                    5000 N 82Fer !
$
$PAR  G(C14_LAVES,MO:MO),,              +3*GHSERMO+15000;,,           N REFLAV !
$
 FUNCTION GHSERMO   298.15  -7746.302+131.9197*T-23.56414*T*LN(T)
       -0.003443396*T**2+5.66283E-07*T**3+65812*T**(-1)-1.30927E-10*T**4;
      2896.00  Y  -30556.41+283.559746*T-42.63829*T*LN(T)-4.849315E+33*T**(-9);
      5000.00  N !
 FUNCTION GLIQMO    298.15  +41831.347-14.694912*T+GHSERMO+4.24519E-22*T**7;
      2896.00  Y  +3538.963+271.6697*T-42.63829*T*LN(T);
      5000.00  N !
 FUNCTION GFCCMO    298.15  +GHSERMO+15200+0.63*T;                     6000 N !
$ ------------------------------------------------------------------------------
$ Binary system
$
$ A. Fernandez Guillermet, Calphad, 6, 127-40 (1982).
$
$ Checked against and paper. Checked at 6000 K.
$
$ Note! Non-SGTE lattice stabilities used for fcc-Mo and liquid Mo.
$ Using SGTE lattice stabilities strongly stabilises bcc relative to liquid.
$
$ C14_LAVES is described as a stoichiometric compound.
$
$ Invariant equilibria differ by up to 6 K.
$ The gamma-loop is somewhat too large.
$ The differences are probably due to small changes in the Gibbs energy of
$ fcc-Fe from 82Fer to 91Din. The latter is used here.
$
 PAR  L(LIQUID,FE,MO;0),,               +8336-0.0864*T;,,             N 82Fer !
 PAR  L(LIQUID,FE,MO;1),,               -8262;,,                      N 82Fer !
$
 PAR  L(FCC_A1,FE,MO:VA;0),,            +26965-12.698*T;,,            N 82Fer !
$
 PAR  L(BCC_A2,FE,MO:VA;0),,            +35724-7.675*T;,,             N 82Fer !
 PAR  L(BCC_A2,FE,MO:VA;1),,            -5225-2.319*T;,,              N 82Fer !
$
 PAR  G(C14_LAVES,FE:MO),,              +2*GFCCFE+GHSERMO
             -16856+4.841*T;,,                                        N 82Fer !
$
 PAR  G(MU_D85,FE:MO:FE),,              +11*GFCCFE+2*GHSERMO
             +37575-1.428*T;,,                                        N 82Fer !
 PAR  G(MU_D85,FE:MO:MO),,              +7*GFCCFE+6*GHSERMO
             -58753+4.027*T;,,                                        N 82Fer !
$
 PAR  G(R_PHASE,FE:MO:FE),,             +39*GFCCFE+14*GHSERMO
             -32406-67.576*T;,,                                       N 82Fer !
 PAR  G(R_PHASE,FE:MO:MO),,             +27*GFCCFE+26*GHSERMO
             +115818-157.502*T;,,                                     N 82Fer !
$
 PAR  G(SIGMA_D8B,FE:MO:FE),,           +26*GFCCFE+4*GHSERMO
             -7619-23.842*T;,,                                        N 82Fer !
 PAR  G(SIGMA_D8B,FE:MO:MO),,           +10*GFCCFE+20*GHSERMO
             +46895-68.812*T;,,                                       N 82Fer !
 PAR  L(SIGMA_D8B,FE:MO:FE,MO;0),,      +269181;,,                    N 82Fer !
$
$ metastable
$
 PAR  L(HCP_A3,FE,MO:VA;0),,            +26965-12.698*T;,,            N Same !
$ ------------------------------------------------------------------------------
$
 ASSESSED_SYSTEM
  FE-MO(TDB -* +LIQUID +BCC_A2 +FCC_A1 +C14_LAVES +MU_D85 +R_PHASE
  +SIGMA_D8B ;P3 TMM:300/3000 STP:.1/2000/-2 STP:.01/1500/1) !
$
$
 LIST-OF-REFERENCE
 NUMBER  SOURCE
  Null   'Unknown source'
  Same   'Same or similar interaction as in the corresponding stable phase'
  REFLAV 'Laves phase convention: G(LAVES,X:X)=+3*GHSERXX+15000'
  82Fer  'A. Fernandez Guillermet, Calphad, 6, 127-40 (1982); Fe-Mo'
  91Din  'A.T. Dinsdale, Calphad, 15, 317-425(1991).'
  99SGUN 'SGTE unary database V.4.1, 1999.'
!
