$
$ Database for Dy-Ge from K. Achgar et al. 2018.
$
$ K. Achgar, N. Selhaoui, A. Iddaoudi, R. Tamim, H. Azza, L. Bouirden,
$ Calphad, 62, 18-29(2018).
$
$ Dataset created 2021.07.04 by Bengt Hallstedt.
$
$ Both RK and Kaptay equations are included. Here standard RK is used.
$
$ The phase diagram calculated with the supplemetal tdb does not match the
$ published phase diagram and also not the parameter table.
$
$ Invariant equilibria differ by up to 7 K.
$
$ The hcp interaction makes no sense.
$
$ The difference in Gibbs energy between the three Dy2Ge3 modifications is
$ too small.
$
$ There is an inverse miscibility gap with a minimum at 4407 K and x(Ge)=0.91.
$
$ ------------------------------------------------------------------------------
 TEMP-LIM 298.15 6000.00 !
$
$ELEMENT NAME  REF. STATE               ATOMIC MASS H298-H0    S298    !
$
 ELEMENT VA   VACUUM                      0.0          0.0      0.0    ! 
 ELEMENT DY   HCP_A3                    162.50      8865.896   74.9559 ! 
 ELEMENT GE   DIAMOND_A4                 72.59      4636.0     31.09   ! 
$ ------------------------------------------------------------------------------
$ Phase definitions
$
 PHASE LIQUID:L % 1 1 !
 CONST LIQUID:L : DY GE : !
$
$ Fcc (cF4, Fm-3m) and MeX (cF8, Fm-3m)
$
 PHASE FCC_A1 %A 2 1 1 !
 CONST FCC_A1 : DY GE : VA : !
$
$ Bcc (cI2, Im-3m)
$
 PHASE BCC_A2 %B 2 1 3 !
 CONST BCC_A2 : DY% GE : VA : !
$
$ Hcp (hP2, P6_3/mmc) and Me2X (NiAs-type, hP4, P6_3/mmc, B8_1)
$
 PHASE HCP_A3 %A 2 1 0.5 !
 CONST HCP_A3 : DY% GE : VA : !
$
$ Prototype C (cF8, Fd-3m)
$
 PHASE DIAMOND_A4 % 1 1 !
 CONST DIAMOND_A4 : GE : !
$
$ Prototype Mn5Si3 (hP16, P6_3/mcm)
$
 PHASE DY5GE3_D88 % 2 5 3 !
 CONST DY5GE3_D88 : DY : DY GE% : !
$
$ Prototype Ge4Sm5 (oP36, Pnma)
$
 PHASE DY5GE4 % 2 5 4 !
 CONST DY5GE4 : DY : GE : !
$
$ Prototype CrB (oC8, Cmcm)
$
 PHASE DYGE_B33 % 2 1 1 !
 CONST DYGE_B33 : DY : GE : !
$
$ Prototype AlB2 (hP3, P6/mmm)
$
 PHASE DY2GE3_C32 % 2 2 3 !
 CONST DY2GE3_C32 : DY : GE : !
$
$ unknown structure
$
 PHASE DY2GE3_BETA % 2 2 3 !
 CONST DY2GE3_BETA : DY : GE : !
$
$ unknown structure
$
 PHASE DY2GE3_GAMMA % 2 2 3 !
 CONST DY2GE3_GAMMA : DY : GE : !
$
$ Prototype Ge5Y3 (oF64, Fdd2)
$
 PHASE DY3GE5 % 2 0.380 0.619 !
 CONST DY3GE5 : DY : GE : !
$
$ Prototype Ge2Tb (oC24, Cmmm)
$
 PHASE DYGE2 % 2 1 2 !
 CONST DYGE2 : DY : GE : !
$
$ Prototype DyGe3 (oC16, Cmcm)
$
 PHASE DYGE3 % 2 0.260 0.739 !
 CONST DYGE3 : DY : GE : !
$ ------------------------------------------------------------------------------
$ Defaults
$
 DEFINE-SYSTEM-DEFAULT ELEMENT 2 !
 DEFAULT-COM DEFINE_SYSTEM_ELEMENT VA !
 TYPE-DEF % SEQ * !
 TYPE-DEF A GES AMEND_PHASE_DESCRIPTION @ MAGNETIC -3 0.28 !
 TYPE-DEF B GES AMEND_PHASE_DESCRIPTION @ MAGNETIC -1 0.4 !
 FUNCTION ZERO      298.15  0;                                         6000 N !
 FUNCTION UN_ASS    298.15  0;                                         6000 N !
 FUNCTION R         298.15  +8.31451;                                  6000 N !
$ ------------------------------------------------------------------------------
$ Element data
$ ------------------------------------------------------------------------------
$ Dy
$
$ HCP_A3, BCC_A2 and LIQUID revised in unary 3.0
$
$ FCC_A1 from 94Lan not included in unary
$ FCC_A1 from 03Cac not included in unary (but it should be)
$ CBCC_A12 and CUB_A13 from 09Wan4 not included in unary.
$
 PAR  G(HCP_A3,DY:VA)           100.00  +GHSERDY;                3000 N 95She1 !
 PAR  TC(HCP_A3,DY:VA)          100.00    179;                   3000 N 95She1 !
 PAR  BM(HCP_A3,DY:VA)          100.00      3.0;                 3000 N 95She1 !
 PAR  G(BCC_A2,DY:VA)           100.00  +GBCCDY;                 3000 N 95She1 !
 PAR  G(FCC_A1,DY:VA)           100.00  +GHSERDY
             +1300-0.6651608*T;                                  3000 N 03Cac !
$PAR  G(FCC_A1,DY:VA)           298.15  +GHSERDY+5000;           3000 N 94Lan !
$PAR  G(CBCC_A12,DY:VA)         298.15  +GHSERDY+10000;          3000 N 09Wan4 !
$PAR  G(CUB_A13,DY:VA)          298.15  +GHSERDY+10000;          3000 N 09Wan4 !
 PAR  G(LIQUID,DY)              100.00  +GLIQDY;                 3000 N 95She1 !
$
 PAR  G(DY5GE3_D88,DY:DY),,             +8*GHSERDY+208000+64*T;,,     N 18Ach !
$
 FUNCTION GHSERDY   100.00  -7937.16586+102.307412*T-26.3917167*T*LN(T)
       -7.61683657E-04*T**2-5.86914125E-07*T**3+4010.90565*T**(-1);
      1000.00  Y  -13733.328+214.012934*T-43.8283359*T*LN(T)
       +0.0166909801*T**2-3.49702836E-06*T**3+0.0173619874*T**(-1);
      1654.15  Y  -404681.371+2032.1415*T-272.123952*T*LN(T)
       +0.0578301681*T**2-2.76169148E-06*T**3+1.09616238E+08*T**(-1);
      3000.00  N !
 FUNCTION GBCCDY    100.00  +1508.1802-0.566616181*T+GHSERDY;
      1000.00  Y  +327500.062-2868.04585*T+391.515418*T*LN(T)
       -0.224042148*T**2+2.04076075E-05*T**3-48652656.5*T**(-1);
      1654.15  Y  -33708.7949+291.409631*T-50.208*T*LN(T);
      1685.15  Y  -40775.4966+330.318068*T-55.2811171*T*LN(T)
       +0.0015254673*T**2-7.7437116E-08*T**3+1776589.32*T**(-1);
      3000.00  N !
 FUNCTION GLIQDY    100.00  +13196.6185-7.5443643*T+GHSERDY;
      1000.00  Y  +300126.971-2519.78614*T+341.302578*T*LN(T)
       -0.196153225*T**2+1.76197799E-05*T**3-43071677.5*T**(-1);
      1685.15  Y  -21864.7344+282.205014*T-49.9151*T*LN(T);
      3000.00  N !
$ ------------------------------------------------------------------------------
$ Ge
$
$ BCT_A5 and RHOMBOHEDRAL_A7 added in unary 4.1
$
 PAR  G(DIAMOND_A4,GE),,                +GHSERGE;                3200 N 91Din !
 PAR  G(FCC_A1,GE:VA),,                 +GHSERGE+36000-22.3*T;   3200 N 91Din !
 PAR  G(BCC_A2,GE:VA),,                 +GHSERGE+34100-23.5*T;   3200 N 91Din !
 PAR  G(HCP_A3,GE:VA),,                 +GHSERGE+35000-21.5*T;   3200 N 91Din !
$PAR  G(BCT_A5,GE),,                    +GHSERGE+28800-16.5*T;   3600 N 99SGUN !
$PAR  G(RHOMBOHEDRAL_A7,GE),,           +GHSERGE+29800-16.5*T;   3600 N 99SGUN !
 PAR  G(LIQUID,GE),,                    +GLIQGE;                 3200 N 91Din !
$
 FUNCTION GHSERGE   298.15  -9486.153+165.635573*T-29.5337682*T*LN(T)
       +0.005568297*T**2-1.513694E-06*T**3+163298*T**(-1);
       900.00  Y  -5689.239+102.86087*T-19.8536239*T*LN(T)-0.003672527*T**2;
      1211.40  Y  -9548.204+156.708024*T-27.6144*T*LN(T)-8.59809E+28*T**(-9);
      3200.00  N !
 FUNCTION GLIQGE    298.15  +37141.489-30.687043*T+GHSERGE+8.56632E-21*T**7;
      1211.40  Y  +27243.473+126.324186*T-27.6144*T*LN(T);
      3200.00  N !
$ ------------------------------------------------------------------------------
$ Binary system
$
$ K. Achgar, N. Selhaoui, A. Iddaoudi, R. Tamim, H. Azza, L. Bouirden,
$ Calphad, 62, 18-29(2018).
$
$ Checked against paper and author's tdb. Checked at 6000 K.
$
$ Both RK and Kaptay equations are included. Here standard RK is used.
$
$ The phase diagram calculated with the supplemetal tdb does not match the
$ published phase diagram and also not the parameter table.
$
$ Invariant equilibria differ by up to 7 K.
$
$ The hcp interaction makes no sense.
$
$ The difference in Gibbs energy between the three Dy2Ge3 modifications is
$ too small.
$
$ There is an inverse miscibility gap with a minimum at 4407 K and x(Ge)=0.91.
$
 PAR  L(LIQUID,DY,GE;0),,               -268121.57-1.1442*T;,,        N 18Ach !
 PAR  L(LIQUID,DY,GE;1),,               +37646.42-26.70302*T;,,       N 18Ach !
 PAR  L(LIQUID,DY,GE;2),,               +54703.93+9.9947*T;,,         N 18Ach !
$
 PAR  L(HCP_A3,DY,GE:VA;0),,            +ZERO;,,                      N 18Ach !
 PAR  L(HCP_A3,DY,GE:VA;1),,            -69413.23-20.4258*T;,,        N 18Ach !
$
 PAR  L(BCC_A2,DY,GE:VA;0),,            +ZERO;,,                      N 18Ach !
$
 PAR  G(DY5GE3_D88,DY:GE),,             +5*GHSERDY+3*GHSERGE
             -737749.36+17.8048*T;,,                                  N 18Ach !
 PAR  L(DY5GE3_D88,DY:DY,GE;0),,        -216000-8*T;,,                N 18Ach !
$
 PAR  G(DY5GE4,DY:GE),,                 +5*GHSERDY+4*GHSERGE
             -819602.01+12.6882*T;,,                                  N 18Ach !
 PAR  G(DYGE_B33,DY:GE),,               +GHSERDY+GHSERGE
             -180367.98+2.5328*T;,,                                   N 18Ach !
 PAR  G(DY2GE3_C32,DY:GE),,             +2*GHSERDY+3*GHSERGE
             -429648.25+12.723*T;,,                                   N 18Ach !
 PAR  G(DY2GE3_BETA,DY:GE),,            +2*GHSERDY+3*GHSERGE
             -429400.35+12.51*T;,,                                    N 18Ach !
 PAR  G(DY2GE3_GAMMA,DY:GE),,           +2*GHSERDY+3*GHSERGE
             -429383.3+12.499*T;,,                                    N 18Ach !
 PAR  G(DY3GE5,DY:GE),,                 +0.380*GHSERDY+0.619*GHSERGE
             -85082.51+4.9393*T;,,                                    N 18Ach !
 PAR  G(DYGE2,DY:GE),,                  +GHSERDY+2*GHSERGE
             -244594.35+27.7689*T;,,                                  N 18Ach !
 PAR  G(DYGE3,DY:GE),,                  +0.260*GHSERDY+0.739*GHSERGE
             -66031.19+8.9522*T;,,                                    N 18Ach !
$ ------------------------------------------------------------------------------
$
$
 LIST-OF-REFERENCE
 NUMBER  SOURCE
  Null   'Unknown source'
  Same   'Same or similar interaction as in the corresponding stable phase'
  REFLAV 'Laves phase convention: G(LAVES,X:X)=+3*GHSERXX+15000'
  91Din  'A.T. Dinsdale, Calphad, 15, 317-425(1991).'
  94Lan  'S. Landin, J. Agren,
          J. Alloys Compd., 207-208, 449-53(1994); Dy, Tb'
  95She1 'H. Shen, W. Zhang, G. Liu, R. Wang, Z. Du, Report F-95-01,
          University of Science and Technology, Beijing, May 1995,
          SGTE unary database V.3.0, 1996; Dy'
  99SGUN 'SGTE unary database V.4.1, 1999.'
  03Cac  'G. Cacciamani, S. De Negri, A. Saccone, R. Ferro,
          Intermetallics, 11, 1135-51(2003); Dy, Ho'
  09Wan4 'C.P. Wang, Z. Lin, X.J. Liu,
          J. Alloys Compd., 469, 123-28(2009); Dy, Mn, Pr'
  18Ach  'K. Achgar, N. Selhaoui, A. Iddaoudi, R. Tamim, H. Azza, L. Bouirden,
          Calphad, 62, 18-29(2018); Dy-Ge'
!
