$
$ Database for Sr-Yb from D. Shin 2007.
$
$ D. Shin, PhD Thesis, 2007.
$
$ Dataset created 2025.02.11 by Bengt Hallstedt.
$
$ Fcc interaction from SQS calculations.
$
$ ------------------------------------------------------------------------------
 TEMP-LIM 298.15 6000.00 !
$
$ELEMENT NAME  REF. STATE               ATOMIC MASS H298-H0    S298    !
$
 ELEMENT VA   VACUUM                      0.0          0.0      0.0    ! 
 ELEMENT SR   FCC_A1                     87.62      6568.      55.694  ! 
 ELEMENT YB   FCC_A1                    173.04      6711.136   59.8312 ! 
$ ------------------------------------------------------------------------------
$ Phase definitions
$
 PHASE LIQUID:L % 1 1 !
 CONST LIQUID:L : SR YB : !
$
$ Fcc (cF4, Fm-3m) and MeX (cF8, Fm-3m)
$
 PHASE FCC_A1 %A 2 1 1 !
 CONST FCC_A1 : SR% YB% : VA : !
$
$ Bcc (cI2, Im-3m)
$
 PHASE BCC_A2 %B 2 1 3 !
 CONST BCC_A2 : SR% YB% : VA : !
$
$ Hcp (hP2, P6_3/mmc) and Me2X (NiAs-type, hP4, P6_3/mmc, B8_1)
$
 PHASE HCP_A3 %A 2 1 0.5 !
 CONST HCP_A3 : SR YB : VA : !
$ ------------------------------------------------------------------------------
$ Defaults
$
 DEFINE-SYSTEM-DEFAULT ELEMENT 2 !
 DEFAULT-COM DEFINE_SYSTEM_ELEMENT VA !
 TYPE-DEF % SEQ * !
 TYPE-DEF A GES AMEND_PHASE_DESCRIPTION @ MAGNETIC -3 0.28 !
 TYPE-DEF B GES AMEND_PHASE_DESCRIPTION @ MAGNETIC -1 0.4 !
 FUNCTION ZERO      298.15  0;                                         6000 N !
 FUNCTION UN_ASS    298.15  0;                                         6000 N !
 FUNCTION R         298.15  +8.31451;                                  6000 N !
$ ------------------------------------------------------------------------------
$ Element data
$ ------------------------------------------------------------------------------
$ Sr
$
 PAR  G(FCC_A1,SR:VA),,                 +GHSERSR;                3000 N 91Din !
 PAR  G(BCC_A2,SR:VA),,                 +GBCCSR;                 3000 N 91Din !
 PAR  G(HCP_A3,SR:VA),,                 +GHSERSR+250+0.7*T;      3000 N 91Din !
 PAR  G(LIQUID,SR),,                    +GLIQSR;                 3000 N 91Din !
$
 FUNCTION GHSERSR   298.15  -7532.367+107.183879*T-23.905*T*LN(T)
       -0.00461225*T**2-1.67477E-07*T**3-2055*T**(-1);
       820.00  Y  -13380.102+153.196104*T-30.0905432*T*LN(T)
       -0.003251266*T**2+1.84189E-07*T**3+850134*T**(-1);
      3000.00  N !
 FUNCTION GBCCSR    298.15  -6779.234+116.583654*T-25.6708365*T*LN(T)
       -0.003126762*T**2+2.2965E-07*T**3+27649*T**(-1);
       820.00  Y  -6970.594+122.067301*T-26.57*T*LN(T)
       -0.0019493*T**2-1.7895E-08*T**3+16495*T**(-1);
      1050.00  Y  +8168.357+0.423037*T-9.7788593*T*LN(T)
       -0.009539908*T**2+5.20221E-07*T**3-2414794*T**(-1);
      3000.00  N !
 FUNCTION GLIQSR    298.15  +2194.997-10.118994*T-5.0668978*T*LN(T)
       -0.031840595*T**2+4.981237E-06*T**3-265559*T**(-1);
      1050.00  Y  -10855.29+213.406219*T-39.463*T*LN(T);
      3000.00  N !
$ ------------------------------------------------------------------------------
$ Yb
$
$ HCP_A3 added in unary 5.0
$
 PAR  G(FCC_A1,YB:VA),,                 +GHSERYB;                2000 N 91Din !
 PAR  G(BCC_A2,YB:VA),,                 +GBCCYB;                 2000 N 91Din !
 PAR  G(HCP_A3,YB:VA),,                 +GHSERYB+5000;           2000 N 06Guo !
 PAR  G(LIQUID,YB),,                    +GLIQYB;                 2000 N 91Din !
$
 FUNCTION GHSERYB   298.15  -9370.941+189.327664*T-40.0791*T*LN(T)
       +0.04227115*T**2-2.2242E-05*T**3;
       553.00  Y  -8192.154+121.065655*T-26.7591*T*LN(T)-0.00256065*T**2;
      1033.00  Y  +16034.89-89.478241*T+2.7623966*T*LN(T)
       -0.017961331*T**2+1.421719E-06*T**3-3631462*T**(-1);
      2000.00  N !
 FUNCTION GBCCYB    298.15  -965.99-21.293677*T-3.8534432*T*LN(T)
       -0.030009694*T**2+4.743871E-06*T**3-334650*T**(-1);
      1033.00  Y  -13368.113+188.313864*T-36.1079*T*LN(T);
      1097.00  Y  -3911.847+113.174165*T-25.7402233*T*LN(T)
       -0.004743348*T**2+3.63044E-07*T**3-1553668*T**(-1);
      2000.00  N !
 FUNCTION GLIQYB    298.15  +7030.788-40.615571*T-1.8061816*T*LN(T)
       -0.03250938*T**2+5.136665E-06*T**3-370554*T**(-1);
      1033.00  Y  -6445.835+186.690398*T-36.7774*T*LN(T);
      2000.00  N !
 FUNCTION GHCPYB    298.15  +GHSERYB+5000;                             2000 N !
$ ------------------------------------------------------------------------------
$ Binary system
$
$ D. Shin, PhD Thesis, 2007.
$
$ Checked against thesis. Checked at 6000 K.
$
$ Fcc interaction from SQS calculations.
$
 PAR  L(LIQUID,SR,YB;0),,               +2000;,,                      N 07Shi !
$
 PAR  L(FCC_A1,SR,YB:VA;0),,            +2672;,,                      N 07Shi !
 PAR  L(BCC_A2,SR,YB:VA;0),,            +2672;,,                      N 07Shi !
$
$ Metastable
$
 PAR  L(HCP_A3,SR,YB:VA;0),,            +2672;,,                      N Same !
$ ------------------------------------------------------------------------------
$
$
 LIST-OF-REFERENCE
 NUMBER  SOURCE
  Null   'Unknown source'
  Same   'Same or similar interaction as in the corresponding stable phase'
  COST   'COST 507 database'
  91Din  'A.T. Dinsdale, Calphad, 15, 317-425(1991).'
  06Guo  'C. Guo, Z. Du, J. Alloys Compd., 422, 102-8(2006),
          SGTE unary database V.5.0, 2009; Yb'
  07Shi  'D. Shin, PhD Thesis, 2007; Sr-Yb'
!
