$
$ Database for Cu-Pr from W. Zhuang et al. 1996
$
$ W. Zhuang, Z.-Y. Qiao, S. Wei, J. Shen, J. Phase Equilib., 17, 508-21(1996).
$
$ Dataset created 2017.11.26 by Bengt Hallstedt.
$ 2020.12.26: Modified for use with GES6.
$
$ Cu is not included in dhcp or bcc and Pr is not included in fcc in the paper.
$
$ Invariant equilibria are shifted by up to 3 K from rounding errors from
$ fractional compositions.
$
$ ------------------------------------------------------------------------------
 TEMP-LIM 298.15 6000.00 !
$
$ELEMENT NAME  REF. STATE               ATOMIC MASS H298-H0    S298    !
$
 ELEMENT VA   VACUUM                      0.0          0.0      0.0    ! 
 ELEMENT CU   FCC_A1                     63.546     5004.      33.15   !
 ELEMENT PR   DHCP                      140.9077    7418.232   73.9313 ! 
$ ------------------------------------------------------------------------------
$ Phase definitions
$
 PHASE LIQUID:L % 1 1 !
 CONST LIQUID:L : CU PR : !
$
$ Fcc (cF4, Fm-3m) and MeX (cF8, Fm-3m)
$
 PHASE FCC_A1 %A 2 1 1 !
 CONST FCC_A1 : CU : VA : !
$
$ Bcc (cI2, Im-3m)
$
 PHASE BCC_A2 %B 2 1 3 !
 CONST BCC_A2 : CU PR% : VA : !
$
$ Hcp (hP2, P6_3/mmc) and Me2X (NiAs-type, hP4, P6_3/mmc, B8_1)
$
 PHASE HCP_A3 %A 2 1 0.5 !
 CONST HCP_A3 : CU : VA : !
$
$ Prototype alpha-La (hP4, P6_3/mmc)
$
 PHASE DHCP % 1 1 !
 CONST DHCP : PR : !
$
$ Prototype CeCu6 (oP28, Pnma)
$
 PHASE CU6PR % 2 6 1 !
 CONST CU6PR : CU : PR : !
$
$ Prototype CaCu5 (hP6, P6/mmm)
$
 PHASE CU5PR_D2D % 2 5 1 !
 CONST CU5PR_D2D : CU : PR : !
$
$ Pearson o**
$
 PHASE CU4PR % 2 4 1 !
 CONST CU4PR : CU : PR : !
$
$ Prototype Hg2K (oI12, Imma)
$
 PHASE CU2PR % 2 2 1 !
 CONST CU2PR : CU : PR : !
$
$ Prototype FeB (oP8, Pnma)
$
 PHASE CUPR_B27 % 2 1 1 !
 CONST CUPR_B27 : CU : PR : !
$ ------------------------------------------------------------------------------
$ Defaults
$
 DEFINE-SYSTEM-DEFAULT ELEMENT 2 !
 DEFAULT-COM DEFINE_SYSTEM_ELEMENT VA !
 TYPE-DEF % SEQ * !
 TYPE-DEF A GES AMEND_PHASE_DESCRIPTION @ MAGNETIC -3 0.28 !
 TYPE-DEF B GES AMEND_PHASE_DESCRIPTION @ MAGNETIC -1 0.4 !
 FUNCTION ZERO      298.15  0;                                         6000 N !
 FUNCTION UN_ASS    298.15  0;                                         6000 N !
 FUNCTION R         298.15  +8.31451;                                  6000 N !
$ ------------------------------------------------------------------------------
$ Element data
$ ------------------------------------------------------------------------------
$ Cu
$
 PAR  G(FCC_A1,CU:VA),,                 +GHSERCU;                3200 N 91Din !
 PAR  G(BCC_A2,CU:VA),,                 +GHSERCU+4017-1.255*T;   3200 N 91Din !
 PAR  G(HCP_A3,CU:VA),,                 +GHSERCU+600+0.2*T;      3200 N 91Din !
 PAR  G(LIQUID,CU),,                    +GLIQCU;                 3200 N 91Din !
$
 FUNCTION GHSERCU   298.15  -7770.458+130.485235*T-24.112392*T*LN(T)
       -0.00265684*T**2+1.29223E-07*T**3+52478*T**(-1);
      1357.77  Y  -13542.026+183.803828*T-31.38*T*LN(T)+3.64167E+29*T**(-9);
      3200.00  N !
 FUNCTION GLIQCU    298.15  +12964.735-9.511904*T+GHSERCU-5.8489E-21*T**7;
      1357.77  Y  -46.545+173.881484*T-31.38*T*LN(T);
      3200.00  N !
$ ------------------------------------------------------------------------------
$ Pr
$
$ FCC_A1 from 04Du (used in SGSOL 5.0; this value is ABSURD!!!)
$ not included in unary
$ FCC_A1 from 09Wan4 not included in unary (this is not a good value)
$
 PAR  G(DHCP,PR),,                      +GHSERPR;                3800 N 91Din !
 PAR  G(BCC_A2,PR:VA),,                 +GBCCPR;                 3800 N 91Din !
$PAR  G(FCC_A1,PR:VA),,                 +GHSERPR+312707;         3800 N 04Du2 !
$PAR  G(FCC_A1,PR:VA),,                 +GHSERPR+25000;          3800 N 09Wan4 !
 PAR  G(LIQUID,PR),,                    +GLIQPR;                 3800 N 91Din !
$
 FUNCTION GHSERPR   298.15  -18803.379+356.587384*T-68.9176*T*LN(T)
       +0.072929*T**2-2.5184333E-05*T**3+507385*T**(-1);
       500.00  Y  -7246.848+82.427384*T-22.8909*T*LN(T)
       -0.00497126*T**2-1.22951E-06*T**3;
       800.00  Y  +95411.023-1073.55111*T+146.764*T*LN(T)
       -0.1288205*T**2+1.5592233E-05*T**3-11588800*T**(-1);
      1068.00  Y  -481663.131+4234.33311*T-606.120311*T*LN(T)
       +0.305181506*T**2-3.0994702E-05*T**3+70926840*T**(-1);
      1204.00  Y  -20014.678+227.685155*T-42.9697*T*LN(T);
      3800.00  N !
 FUNCTION GBCCPR    298.15  -2863.651+28.274853*T-13.7470527*T*LN(T)
       -0.02284377*T**2+3.542468E-06*T**3-87486*T**(-1);
      1068.00  Y  -11985.919+188.657121*T-38.451*T*LN(T);
      1204.00  Y  +953.224+100.826281*T-26.6824313*T*LN(T)
       -0.004106833*T**2+1.76214E-07*T**3-2473024*T**(-1);
      3800.00  N !
 FUNCTION GLIQPR    298.15  +3848.961-29.099465*T-4.7344931*T*LN(T)
       -0.035119723*T**2+5.427467E-06*T**3-207406*T**(-1);
      1068.00  Y  -10539.574+219.508805*T-42.9697*T*LN(T);
      3800.00  N !
$ ------------------------------------------------------------------------------
$ Binary system
$
$ W. Zhuang, Z.-Y. Qiao, S. Wei, J. Shen, J. Phase Equilib., 17, 508-21(1996).
$
$ Checked against paper. Checked at 6000K.
$
$ Cu is not included in dhcp or bcc and Pr is not included in fcc in the paper.
$
$ Invariant equilibria are shifted by up to 3 K from rounding errors from
$ fractional compositions.
$
 PAR  L(LIQUID,CU,PR;0),,               -67977+6.8*T;,,               N 96Zhu !
 PAR  L(LIQUID,CU,PR;1),,               -29602+2.96*T;,,              N 96Zhu !
$
 PAR  L(BCC_A2,CU,PR:VA;0),,            +UN_ASS;,,                    N !
$
 PAR  G(CU6PR,CU:PR),,                  +6*GHSERCU+GHSERPR
             -88956+0.35*T;,,                                         N 96Zhu !
 PAR  G(CU5PR_D2D,CU:PR),,              +5*GHSERCU+GHSERPR
             -82530+0.66*T;,,                                         N 96Zhu !
 PAR  G(CU4PR,CU:PR),,                  +4*GHSERCU+GHSERPR
             -75295+0.6*T;,,                                          N 96Zhu !
 PAR  G(CU2PR,CU:PR),,                  +2*GHSERCU+GHSERPR
             -59061+0.63*T;,,                                         N 96Zhu !
 PAR  G(CUPR,CU:PR),,                   +GHSERCU+GHSERPR
             -38092+5*T;,,                                            N 96Zhu !
$ ------------------------------------------------------------------------------
$
$
 LIST-OF-REFERENCE
 NUMBER  SOURCE
  Null   'Unknown source'
  COST   'COST 507 database'
  91Din  'A.T. Dinsdale, Calphad, 15, 317-425(1991).'
  96Zhu  'W. Zhuang, Z.-Y. Qiao, S. Wei, J. Shen,
          J. Phase Equilib., 17, 508-21(1996); Cu-Pr'
  04Du2  'Z. Du, C. Guo, D. Lu, J. Alloys Compd., 364, 117-20(2004); Pr'
  09Wan4 'C.P. Wang, Z. Lin, X.J. Liu,
          J. Alloys Compd., 469, 123-28(2009); Mn, Pr'
!
