$
$ Database for Sm-Zn from B.R. Jia et al. 2009
$
$ B.R. Jia, L.G. Zhang, G.X. Huang, H.Y. Qi, H. Yang, L.B. Liu, Z.P. Jin,
$ F. Zheng, J. Alloys Compd., 473, 176-79(2009).
$
$ Dataset created 2017.07.09 by Bengt Hallstedt.
$ 2021.02.05: Modified for use with GES6.
$
$ The peritectic temperature of SmZn11 is at 1107 K instead of 1033 K and
$ the decomposition of Sm3Zn22 is at 1145 K instead of 1163 K, possibly
$ because of misprints in the parameter table.
$
$ ------------------------------------------------------------------------------
 TEMP-LIM 298.15 6000.00 !
$
$ELEMENT NAME  REF. STATE               ATOMIC MASS H298-H0    S298    !
$
 ELEMENT VA   VACUUM                      0.0          0.0      0.0    ! 
 ELEMENT SM   RHOMB_C19                 150.36      7573.04    69.4962 ! 
 ELEMENT ZN   HCP_A3                     65.38      5657.0     41.63   ! 
$ ------------------------------------------------------------------------------
$ Phase definitions
$
 PHASE LIQUID:L % 1 1 !
 CONST LIQUID:L : SM ZN : !
$
$ Fcc (cF4, Fm-3m) and MeX (cF8, Fm-3m)
$
 PHASE FCC_A1 %A 2 1 1 !
 CONST FCC_A1 : ZN : VA% : !
$
$ Bcc (cI2, Im-3m)
$
 PHASE BCC_A2 %B 2 1 3 !
 CONST BCC_A2 : SM ZN : VA% : !
$
$ Hcp (hP2, P6_3/mmc) and Me2X (NiAs-type, hP4, P6_3/mmc, B8_1)
$
 PHASE HCP_A3 %A 2 1 0.5 !
 CONST HCP_A3 : SM ZN : VA% : !
$
$ Prototype alpha-Sm (hR9, R-3m)
$
 PHASE RHOMB_C19 % 1 1 !
 CONST RHOMB_C19 : SM : !
$
$ Prototype CsCl (cP2, Pm-3m)
$
 PHASE SMZN_B2 % 2 1 1 !
 CONST SMZN_B2 : SM : ZN : !
$
$ Prototype Hg2K (oI12, Imma)
$
 PHASE SMZN2 % 2 1 2 !
 CONST SMZN2 : SM : ZN : !
$
$ Prototype YZn3 (oP16, Pnma)
$
 PHASE SMZN3 % 2 1 3 !
 CONST SMZN3 : SM : ZN : !
$
$ Prototype Al11La3 (oI28, Immm)
$
 PHASE SM3ZN11 % 2 3 11 !
 CONST SM3ZN11 : SM : ZN : !
$
$ Prototype Gd13Zn58 (hP142, P6_3mc)
$
 PHASE SM13ZN58 % 2 13 58 !
 CONST SM13ZN58 : SM : ZN : !
$
$ Prototype Ce3Zn22 (tI100, I4_1/amd)
$
 PHASE SM3ZN22 % 2 3 22 !
 CONST SM3ZN22 : SM : ZN : !
$
$ Prototype Ni17Th2 (hP38, P6_3/mmc), RT
$ Prototype Th2Zn17 (hR19, R-3m), HT
$
 PHASE SM2ZN17 % 2 2 17 !
 CONST SM2ZN17 : SM : ZN : !
$
$ Prototype Mn12Th (tI26, I4/mmm)
$
 PHASE SMZN11_D2B % 2 1 11 !
 CONST SMZN11_D2B : SM : ZN : !
$ ------------------------------------------------------------------------------
$ Defaults
$
 DEFINE-SYSTEM-DEFAULT ELEMENT 2 !
 DEFAULT-COM DEFINE_SYSTEM_ELEMENT VA !
 TYPE-DEF % SEQ * !
 TYPE-DEF A GES AMEND_PHASE_DESCRIPTION @ MAGNETIC -3 0.28 !
 TYPE-DEF B GES AMEND_PHASE_DESCRIPTION @ MAGNETIC -1 0.4 !
 FUNCTION ZERO      298.15  0;                                         6000 N !
 FUNCTION UN_ASS    298.15  0;                                         6000 N !
 FUNCTION R         298.15  +8.31451;                                  6000 N !
$ ------------------------------------------------------------------------------
$ Element data
$ ------------------------------------------------------------------------------
$ Sm
$
$ HCP_A3 added in unary 4.4
$ HCP_A3 modified in unary 5.0
$
$ FCC_A1 from 00Du (used in SGSOL 5.0; this value is absurd)
$ not included in unary
$ FCC_A1 from 02Zin not included in unary
$
 PAR  G(RHOMB_C19,SM),,                 +GHSERSM;                2100 N 91Din !
 PAR  G(BCC_A2,SM:VA),,                 +GBCCSM;                 2100 N 91Din !
$PAR  G(FCC_A1,SM:VA),,                 +GHSERSM+180946;         2100 N 00Du1 !
$PAR  G(FCC_A1,SM:VA),,                 +GHSERSM+5000;           2100 N 98Su1 !
$PAR  G(FCC_A1,SM:VA),,                 +GHSERSM+1000;           2100 N 09Wan1 !
 PAR  G(HCP_A3,SM:VA),,                 +GHSERSM
             +69.977-0.069491*T;                                 2100 N 98Su2 !
$PAR  G(CBCC_A12,SM:VA),,               +GHSERSM+1000;           2100 N 09Wan1 !
$PAR  G(CUB_A13,SM:VA),,                +GHSERSM+5000;           2100 N 09Wan1 !
 PAR  G(LIQUID,SM),,                    +GLIQSM;                 2100 N 91Din !
$
 FUNCTION GHSERSM   298.15  -3872.013-32.10748*T-1.6485*T*LN(T)
       -0.050254*T**2+1.010345E-05*T**3-82168*T**(-1);
       700.00  Y  -50078.215+627.869894*T-102.665*T*LN(T)
       +0.0474522*T**2-7.538383E-06*T**3+3861770*T**(-1);
      1190.00  Y  +289719.819-2744.50976*T+381.41982*T*LN(T)
       -0.254986338*T**2+2.7512152E-05*T**3-40102102*T**(-1);
      1345.00  Y  -23056.079+282.194375*T-50.208*T*LN(T);
      2100.00  N !
 FUNCTION GBCCSM    298.15  -4368.72+55.972523*T-16.9298494*T*LN(T)
       -0.025446016*T**2+3.579527E-06*T**3+94209*T**(-1);
      1190.00  Y  -15957.862+253.121044*T-46.9445*T*LN(T);
      1345.00  Y  +111191.653-624.680805*T+71.6856914*T*LN(T)
       -0.047314968*T**2+3.329865E-06*T**3-24870276*T**(-1);
      2100.00  N !
 FUNCTION GLIQSM    298.15  +3468.783+20.117456*T-11.6968284*T*LN(T)
       -0.032418177*T**2+4.544272E-06*T**3+23528*T**(-1);
      1190.00  Y  -11728.229+273.487076*T-50.208*T*LN(T);
      2100.00  N !
$ ------------------------------------------------------------------------------
$ Zn
$
$ BCT_A5 and DIAMOND_A4 added in unary 3.0
$ HCP_A3 revised in unary 4.1 (due to introduction of HCP_ZN)
$ RHOMBOHEDRAL_A7 and TETRAGONAL_A6 added in unary 4.1
$ TETRAGONAL_A6 revised in unary 4.4
$ CBCC_A12 and CUB_A13 added in unary 4.4
$ HCP_A3 and LIQUID modified in unary 5.0 (melting T and coefficients adjusted)
$ RHOMBO_A10 added in unary 5.0
$
$ Pure Zn restored as HCP_A3
$
$ RHOMB_C19 from 09Liu not included in unary
$
 PAR  G(HCP_A3,ZN:VA),,                 +GHSERZN;                1700 N 91Din !
$PAR  G(HCP_A3,ZN:VA),,                 +GHSERZN
$            +2969.82-1.56968*T;                                 1700 N 93Kow !
 PAR  G(FCC_A1,ZN:VA),,                 +GHSERZN
             +2969.82-1.56968*T;                                 1700 N 91Din !
 PAR  G(BCC_A2,ZN:VA),,                 +GHSERZN
             +2886.96-2.5104*T;                                  1700 N 91Din !
$PAR  G(DIAMOND_A4,ZN),,                +GHSERZN+30*T;           1700 N SGCOST !
$PAR  G(BCT_A5,ZN),,                    +GHSERZN
$            +2886.96-2.5104*T;                                  1700 N SGCOST !
$PAR  G(TETRAGONAL_A6,ZN),,             +GHSERZN+4184;           1700 N 96Lee !
$PAR  G(TETRAGONAL_A6,ZN),,             +GHSERZN
$            +2886.96-2.5104*T;                                  1700 N 99SGUN !
$PAR  G(RHOMBOHEDRAL_A7,ZN),,           +GHSERZN+2300+11.5*T;    1700 N 99SGUN !
$PAR  G(RHOMBO_A10,ZN),,                +GLIQZN-2000+10*T;       1700 N 98Han !
$PAR  G(CBCC_A12,ZN:VA),,               +GHSERZN+2000;           1700 N 01Mie !
$PAR  G(CUB_A13,ZN:VA),,                +GHSERZN+2000;           1700 N 01Mie !
$PAR  G(RHOMB_C19,ZN),,                 +GHSERZN+2108.72;        1700 N 09Liu !
 PAR  G(LIQUID,ZN),,                    +GLIQZN;                 1700 N 91Din !
$
 FUNCTION GHSERZN   298.15  -7285.787+118.470069*T-23.701314*T*LN(T)
       -0.001712034*T**2-1.264963E-06*T**3;
       692.677 Y  -11070.546+172.345644*T-31.38*T*LN(T)+4.7047E+26*T**(-9);
      1700.00  N !
 FUNCTION GLIQZN    298.15  +7157.222-10.29305*T+GHSERZN-3.58949E-19*T**7;
       692.677 Y  -3620.385+161.60854*T-31.38*T*LN(T);
      1700.00  N !
 FUNCTION GBCCZN    298.15  +GHSERZN+2886.96-2.5104*T;                 6000 N !
$ ------------------------------------------------------------------------------
$ Binary system
$
$ B.R. Jia, L.G. Zhang, G.X. Huang, H.Y. Qi, H. Yang, L.B. Liu, Z.P. Jin,
$ F. Zheng, J. Alloys Compd., 473, 176-79(2009).
$
$ Checked against paper. Checked at 6000 K.
$
$ The peritectic temperature of SmZn11 is at 1107 K instead of 1033 K and
$ the decomposition of Sm3Zn22 is at 1145 K instead of 1163 K, possibly
$ because of misprints in the parameter table.
$
 PAR  L(LIQUID,SM,ZN;0),,               -139082.353+8.9496*T;,,       N 09Jia !
 PAR  L(LIQUID,SM,ZN;1),,               +102514.705-18.8097*T;,,      N 09Jia !
 PAR  L(LIQUID,SM,ZN;2),,               -40835.866+9.003*T;,,         N 09Jia !
$
 PAR  L(BCC_A2,SM,ZN:VA;0),,            -73794.804+2.002*T;,,         N 09Jia !
 PAR  L(HCP_A3,SM,ZN:VA;0),,            -58379.804+1.9299*T;,,        N 09Jia !
$
 PAR  G(SMZN_B2,SM:ZN),,                +GHSERSM+GHSERZN
             -83937.16+0.3976*T;,,                                    N 09Jia !
 PAR  G(SMZN2,SM:ZN),,                  +GHSERSM+2*GHSERZN
             -168787.3878+27.1995*T;,,                                N 09Jia !
 PAR  G(SMZN3,SM:ZN),,                  +GHSERSM+3*GHSERZN
             -204800.8172+33.7732*T;,,                                N 09Jia !
 PAR  G(SM3ZN11,SM:ZN),,                +3*GHSERSM+11*GHSERZN
             -686000+114.1*T;,,                                       N 09Jia !
 PAR  G(SM13ZN58,SM:ZN),,               +13*GHSERSM+58*GHSERZN
             -3335461.5223+572.1819*T;,,                              N 09Jia !
 PAR  G(SM3ZN22,SM:ZN),,                +3*GHSERSM+22*GHSERZN
             -1094988.22+286.165*T;,,                                 N 09Jia !
 PAR  G(SM2ZN17,SM:ZN),,                +2*GHSERSM+17*GHSERZN
             -813235.4255+228.2812*T;,,                               N 09Jia !
 PAR  G(SMZN11_D2B,SM:ZN),,             +GHSERSM+11*GHSERZN
             -402921.1104+98.4828*T;,,                                N 09Jia !
$ ------------------------------------------------------------------------------
$
$
 LIST-OF-REFERENCE
 NUMBER  SOURCE
  Null   'Unknown source'
  Same   'Same or similar interaction as in the corresponding stable phase'
  REFLAV 'Laves phase convention: G(LAVES,X:X)=+3*GHSERXX+15000'
  SGCOST 'COST 507 database, SGTE unary database V.3.0, 1996; Al, B, Nd, Ti, Zn'
  COST   'COST 507 database'
  91Din  'A.T. Dinsdale, Calphad, 15, 317-425(1991).'
  93Kow  'M. Kowalski, P.J. Spencer, J. Phase Equilib., 14, 432-38 (1993),
          SGTE unary database V.4.1, 1999; Zn'
  96Lee  'B.-J. Lee, Calphad, 20, 471-80(1996)
          SGTE unary database V.4.4, 2001; Zn'
  98Han  'S.C. Hansen, Calphad, 22, 359-73(1998),
          SGTE unary database V.5.0, 2009; Zn'
  98Su1  'X. Su, W. Zhang, G. Liu, Z. Du,
          J. Alloys Compd., 267, 149-53(1998); Sm'
  98Su2  'X. Su, W. Zhang, Z. Du, J. Alloys Compd., 278, 182-84(1998)
          SGTE unary database V.4.4, 2001; Sm'
  99SGUN 'SGTE unary database V.4.1, 1999.'
  00Du1  'Z. Du, H. Yang, Z. Metallkd., 91 455-59(2000); Pd, Sm'
  01Mie  'J. Miettinen, Calphad, 25, 43-58(2001),
          SGTE unary database V.4.4, 2001; Sn, Zn'
  09Jia  'B.R. Jia, L.G. Zhang, G.X. Huang, H.Y. Qi, H. Yang, L.B. Liu,
          Z.P. Jin, F. Zheng, J. Alloys Compd., 473, 176-79(2009); Sm-Zn'
  09Liu  'X.J. Liu, X. Chen, C.P. Wang,
          J. Alloys Compd., 468, 115-21(2009); Zn'
  09Wan1 'C.P. Wang, H.L. Zhang, S.L. Wang, Z. Lin, X.J. Liu, A.T. Tang,
          F.S. Pan, J. Alloys Compd., 481, 291-95(2009); Ho, Mn, Sm'
!
