$
$ Database for Lu-Mn from H. Ye et al. 2024.
$
$ H. Ye, J. Wang, Q. Chen, G. Rao, H. Zhou,
$ Mater. Genome Eng. Adv., 2, 39(2024).
$
$ Dataset created 2024.07.24 by Bengt Hallstedt.
$
$ ------------------------------------------------------------------------------
 TEMP-LIM 298.15 6000.00 !
$
$ELEMENT NAME  REF. STATE               ATOMIC MASS H298-H0    S298    !
$
 ELEMENT VA   VACUUM                      0.0          0.0      0.0    ! 
 ELEMENT LU   HCP_A3                    174.967     6388.968   50.9611 ! 
 ELEMENT MN   CBCC_A12                   54.9380    4995.696   32.2206 ! 
$ ------------------------------------------------------------------------------
$ Phase definitions
$
 PHASE LIQUID:L % 1 1 !
 CONST LIQUID:L : LU MN : !
$
$ Fcc (cF4, Fm-3m) and MeX (cF8, Fm-3m)
$
 PHASE FCC_A1 %A 2 1 1 !
 CONST FCC_A1 : MN : VA : !
$
$ Bcc (cI2, Im-3m)
$
 PHASE BCC_A2 %B 2 1 3 !
 CONST BCC_A2 : MN : VA : !
$
$ Hcp (hP2, P6_3/mmc) and Me2X (NiAs-type, hP4, P6_3/mmc, B8_1)
$
 PHASE HCP_A3 %A 2 1 0.5 !
 CONST HCP_A3 : LU% MN : VA : !
$
$ Prototype alpha-Mn (cI58, I-43m)
$
 PHASE CBCC_A12 %A 2 1 1 !
 CONST CBCC_A12 : MN : VA : !
$
$ Prototype beta-Mn (cP20, P4_132)
$
 PHASE CUB_A13 % 2 1 1 !
 CONST CUB_A13 : MN : VA : !
$
$ Prototype MgZn2 (hP12, P6_3/mmc)
$
 PHASE LUMN2_C14 % 2 1 2 !
 CONST LUMN2_C14 : LU : MN : !
$
$ Prototype Mn23Th6 (cF116, Fm-3m)
$
 PHASE LU6MN23_D8A %A 2 6 23 !
 CONST LU6MN23_D8A : LU : MN : !
$
$ Prototype LuMn5 (hP12, P6_3mc)
$
 PHASE LUMN5 % 2 1 5 !
 CONST LUMN5 : LU : MN : !
$ ------------------------------------------------------------------------------
$ Defaults
$
 DEFINE-SYSTEM-DEFAULT ELEMENT 2 !
 DEFAULT-COM DEFINE_SYSTEM_ELEMENT VA !
 TYPE-DEF % SEQ * !
 TYPE-DEF A GES AMEND_PHASE_DESCRIPTION @ MAGNETIC -3 0.28 !
 TYPE-DEF B GES AMEND_PHASE_DESCRIPTION @ MAGNETIC -1 0.4 !
 FUNCTION ZERO      298.15  0;                                         6000 N !
 FUNCTION UN_ASS    298.15  0;                                         6000 N !
$ ------------------------------------------------------------------------------
$ Element data
$ ------------------------------------------------------------------------------
$ Lu
$
 PAR  G(HCP_A3,LU:VA),,                 +GHSERLU;                3700 N 91Din !
 PAR  G(LIQUID,LU),,                    +GLIQLU;                 3700 N 91Din !
$
 FUNCTION GHSERLU   298.15  -8788.329+146.536283*T-29.812*T*LN(T)
       +0.00519165*T**2-1.790717E-06*T**3+39723*T**(-1);
       700.00  Y  -9043.057+142.327643*T-29.0095*T*LN(T)
       +0.00371416*T**2-1.50147E-06*T**3+141549*T**(-1);
      1700.00  Y  +6940.092-46.91844*T-1.83986*T*LN(T)-0.0119001*T**2;
      1936.00  Y  -404023.691+1829.37943*T-239.019502*T*LN(T)
       +0.041800748*T**2-1.661174E-06*T**3+1.24825465E+08*T**(-1);
      3700.00  N !
 FUNCTION GLIQLU    298.15  +12772.12-4.998883*T+GHSERLU;
       600.00  Y  +30389.863-198.378793*T+20.9392663*T*LN(T)
       -0.034238743*T**2+2.890636E-06*T**3-2398650*T**(-1);
      1936.00  Y  -18994.687+292.091104*T-47.9068*T*LN(T);
      3700.00  N !
$ ------------------------------------------------------------------------------
$ Mn
$
 PAR  G(CBCC_A12,MN:VA),,               +GHSERMN;                2000 N 91Din !
 PAR  TC(CBCC_A12,MN:VA),,               -285.00;                2000 N 91Din !
 PAR  BMAG(CBCC_A12,MN:VA),,               -0.66;                2000 N 91Din !
 PAR  G(CUB_A13,MN:VA),,                +GCUBMN;                 2000 N 91Din !
 PAR  G(FCC_A1,MN:VA),,                 +GFCCMN;                 2000 N 91Din !
 PAR  TC(FCC_A1,MN:VA),,                -1620.00;                2000 N 91Din !
 PAR  BMAG(FCC_A1,MN:VA),,                 -1.86;                2000 N 91Din !
 PAR  G(BCC_A2,MN:VA),,                 +GBCCMN;                 2000 N 91Din !
 PAR  TC(BCC_A2,MN:VA),,                 -580.00;                2000 N 91Din !
 PAR  BMAG(BCC_A2,MN:VA),,                 -0.27;                2000 N 91Din !
 PAR  G(HCP_A3,MN:VA),,                 +GHCPMN;                 2000 N 91Din !
 PAR  TC(HCP_A3,MN:VA),,                -1620.00;                2000 N 91Din !
 PAR  BMAG(HCP_A3,MN:VA),,                 -1.86;                2000 N 91Din !
 PAR  G(LIQUID,MN),,                    +GLIQMN;                 2000 N 91Din !
$
 FUNCTION GHSERMN   298.15  -8115.28+130.059*T-23.4582*T*LN(T)
       -0.00734768*T**2+69827*T**(-1);
      1519.00  Y  -28733.41+312.2648*T-48*T*LN(T)+1.656847E+30*T**(-9);
      2000.00  N !
 FUNCTION GCUBMN    298.15  -5800.4+135.995*T-24.8785*T*LN(T)
       -0.00583359*T**2+70269*T**(-1);
      1519.00  Y  +442.65-0.9715*T+GHSERMN+2.310723E+30*T**(-9);
      2000.00  N !
 FUNCTION GFCCMN    298.15  -3439.3+131.884*T-24.5177*T*LN(T)
       -0.006*T**2+69600*T**(-1);
      1519.00  Y  +2663.31-2.5984*T+GHSERMN+2.205113E+30*T**(-9);
      2000.00  N !
 FUNCTION GBCCMN    298.15  -3235.3+127.85*T-23.7*T*LN(T)
       -0.00744271*T**2+60000*T**(-1);
      1519.00  Y  +5544.58-4.5605*T+GHSERMN-3.91695E+29*T**(-9);
      2000.00  N !
 FUNCTION GHCPMN    298.15  -4439.3+133.007*T-24.5177*T*LN(T)
       -0.006*T**2+69600*T**(-1);
      1519.00  Y  +1663.31-1.4754*T+GHSERMN+2.205113E+30*T**(-9);
      2000.00  N !
 FUNCTION GLIQMN    298.15  +17859.91-12.6208*T+GHSERMN-4.41929E-21*T**7;
      1519.00  Y  -9993.9+299.036*T-48*T*LN(T);
      2000.00  N !
$ ------------------------------------------------------------------------------
$ Binary system
$
$ H. Ye, J. Wang, Q. Chen, G. Rao, H. Zhou,
$ Mater. Genome Eng. Adv., 2, 39(2024).
$
$ Checked against paper. Checked at 6000 K.
$
 PAR  L(LIQUID,LU,MN;0),,               -25632.25+10.8*T;,,           N 24Ye !
 PAR  L(LIQUID,LU,MN;1),,               +11292.93-1.6*T;,,            N 24Ye !
 PAR  L(LIQUID,LU,MN;2),,               +2600;,,                      N 24Ye !
$
 PAR  L(HCP_A3,LU,MN:VA;0),,            +80000;,,                     N 24Ye !
$
 PAR  G(LUMN2_C14,LU:MN),,              +3*GLUMN2;,,                  N 24Ye !
$
 PAR  G(LU6MN23_D8A,LU:MN),,            +29*GLU6MN23;,,               N 24Ye !
 PAR  TC(LU6MN23_D8A,LU:MN),,             378.00;,,                   N 24Ye !
$ 1 mole of atoms below
$PAR  BMAG(LU6MN23_D8A,LU:MN),,             0.082;,,                  N 24Ye !
 PAR  BMAG(LU6MN23_D8A,LU:MN),,             8.831;,,                  N 24Ye !
$
 PAR  G(LUMN5,LU:MN),,                  +GHSERLU+5*GHSERMN
             -21300-13.38*T;,,                                        N 24Ye !
$
 FUNCTION GLUMN2    298.15  -11800-6.41*T-0.0057*T**2+EGLUMN2;         6000 N !
 FUNCTION TGLUMN2   298.15  +230;                                      6000 N !
 FUNCTION FGLUMN2   298.15  +1-EXP(-TGLUMN2*T**(-1));                  6000 N !
 FUNCTION EGLUMN2   298.15  +12.471765*TGLUMN2+24.94353*T*LN(FGLUMN2); 6000 N !
$
 FUNCTION GLU6MN23  298.15  -12480-2.2*T-0.0066*T**2+EGLU6MN2;         6000 N !
 FUNCTION TGLU6MN2  298.15  +235;                                      6000 N !
 FUNCTION FGLU6MN2  298.15  +1-EXP(-TGLU6MN2*T**(-1));                 6000 N !
 FUNCTION EGLU6MN2  298.15  +12.471765*TGLU6MN2
       +24.94353*T*LN(FGLU6MN2);
      6000.00  N !
$ ------------------------------------------------------------------------------
$
$
 LIST-OF-REFERENCE
 NUMBER  SOURCE
  Null   'Unknown source'
  Same   'Same or similar interaction as in the corresponding stable phase'
  REFLAV 'Laves phase convention: G(LAVES,X:X)=+3*GHSERXX+15000'
  91Din  'A.T. Dinsdale, Calphad, 15, 317-425(1991).'
  24Ye   'H. Ye, J. Wang, Q. Chen, G. Rao, H. Zhou,
          Mater. Genome Eng. Adv., 2, 39(2024); Lu-Mn'
!
