$
$ Database for Rh-Ti from X. Hu et al. 2022.
$
$ X. Hu, L. Chen, C. Zhan, K. Xu, M. Lou, K. Chang, Calphad, 76, 102386(2022).
$
$ Dataset created 2023.05.14 by Bengt Hallstedt.
$
$ Order-disorder models for fcc (Rh3Ti-L12) and bcc (RhTi-B2). The L12 model
$ seems incomplete.
$
$ Liquid and fcc interactions misprinted in paper.
$
$ ------------------------------------------------------------------------------
 TEMP-LIM 298.15 6000.00 !
$
$ELEMENT NAME  REF. STATE               ATOMIC MASS H298-H0    S298    !
$
 ELEMENT VA   VACUUM                      0.0          0.0      0.0    ! 
 ELEMENT RH   FCC_A1                    102.9055    4920.384   31.5557 ! 
 ELEMENT TI   HCP_A3                     47.88      4824.      30.72   ! 
$ ------------------------------------------------------------------------------
$ Phase definitions
$
 PHASE LIQUID:L % 1 1 !
 CONST LIQUID:L : RH TI : !
$
$ Fcc (cF4, Fm-3m) and MeX (cF8, Fm-3m)
$
 PHASE FCC_A1 %A 2 1 1 !
 CONST FCC_A1 : RH% TI : VA : !
$
$ Disordered part of L12_FCC, identical to FCC_A1
$
 PHASE A1_FCC %A 2 1 1 !
 CONST A1_FCC : RH% TI : VA : !
$
$ Prototype AuCu3 (cP4, Pm-3m), Rh3Ti
$
 PHASE L12_FCC %AY 3 0.75 0.25 1 !
 CONST L12_FCC : RH% TI : RH TI% : VA :  !
$
$ Bcc (cI2, Im-3m)
$
 PHASE BCC_A2 %B 2 1 3 !
 CONST BCC_A2 : RH TI% : VA : !
$
$ Disordered part of B2_BCC, identical to BCC_A2 (except Va)
$
 PHASE A2_BCC %B 2 1 3 !
 CONST A2_BCC : RH TI% : VA : !
$
$ Prototype CsCl (cP2, Pm-3m), RhTi
$
 PHASE B2_BCC %BO 3 0.5 0.5 3 !
 CONST B2_BCC : RH% TI : RH TI% : VA : !
$
$ Hcp (hP2, P6_3/mmc) and Me2X (NiAs-type, hP4, P6_3/mmc, B8_1)
$
 PHASE HCP_A3 %A 2 1 0.5 !
 CONST HCP_A3 : RH TI% : VA : !
$
$ Prototype Ge3Rh5 (oP16, Pbam)
$
 PHASE RH5TI3 % 2 5 3 !
 CONST RH5TI3 : RH : TI : !
$
$ Prototype CuZr2 (tI6, I4/mmm)
$
 PHASE RHTI2 % 2 1 2 !
 CONST RHTI2 : RH : TI : !
$ ------------------------------------------------------------------------------
$ Defaults
$
 DEFINE-SYSTEM-DEFAULT ELEMENT 2 !
 DEFAULT-COM DEFINE_SYSTEM_ELEMENT VA !
 TYPE-DEF % SEQ * !
 TYPE-DEF A GES AMEND_PHASE_DESCRIPTION @ MAGNETIC -3 0.28 !
 TYPE-DEF B GES AMEND_PHASE_DESCRIPTION @ MAGNETIC -1 0.4 !
 TYPE-DEF O GES AMEND_PHASE_DESCRIPTION B2_BCC DIS_PART A2_BCC !
 TYPE-DEF Y GES AMEND_PHASE_DESCRIPTION L12_FCC DIS_PART A1_FCC !
 FUNCTION ZERO      298.15  0;                                         6000 N !
 FUNCTION UN_ASS    298.15  0;                                         6000 N !
 FUNCTION R         298.15  +8.31451;                                  6000 N !
$ ------------------------------------------------------------------------------
$ Element data
$ ------------------------------------------------------------------------------
$ Rh
$
 PAR  G(FCC_A1,RH:VA),,                 +GHSERRH;                2500 N 91Din !
 PAR  G(A1_FCC,RH:VA),,                 +GHSERRH;                2500 N 91Din !
 PAR  G(BCC_A2,RH:VA),,                 +GHSERRH+19000-4.7*T;    2500 N 91Din !
 PAR  G(A2_BCC,RH:VA),,                 +GHSERRH+19000-4.7*T;    2500 N 91Din !
 PAR  G(HCP_A3,RH:VA),,                 +GHSERRH+3000-0.5*T;     2500 N 91Din !
 PAR  G(LIQUID,RH),,                    +GLIQRH;                 2500 N 91Din !
$
 FUNCTION GHSERRH   298.15  -7848.828+132.020923*T-24.0178336*T*LN(T)
       -0.003424186*T**2-1.68032E-07*T**3+55846*T**(-1);
      1200.00  Y  -28367.852+305.771019*T-48.3766632*T*LN(T)
       +0.00966345*T**2-1.512774E-06*T**3+3348162*T**(-1);
      2237.00  Y  -6237470.48+30151.6342*T-3874.21058*T*LN(T)
       +1.04921361*T**2-5.3978814E-05*T**3+1.88036218E+09*T**(-1);
      2450.00  Y  -44863.489+344.889895*T-50.58456*T*LN(T);
      2500.00  N !
 FUNCTION GLIQRH    298.15  +19092.91-6.92133*T+GHSERRH;
       700.00  Y  +35898.508-147.926418*T+15.6492377*T*LN(T)
       -0.028665357*T**2+2.100572E-06*T**3-2638940*T**(-1);
      2237.00  Y  -18208.54+332.974832*T-50.58456*T*LN(T);
      2500.00  N !
 FUNCTION GBCCRH    298.15  +GHSERRH+19000-4.7*T;                      2500 N !
$ ------------------------------------------------------------------------------
$ Ti
$
$ BCT_A5 added in unary 3.0
$
 PAR  G(HCP_A3,TI:VA),,                 +GHSERTI;                4000 N 91Din !
 PAR  G(BCC_A2,TI:VA),,                 +GBCCTI;                 4000 N 91Din !
 PAR  G(A2_BCC,TI:VA),,                 +GBCCTI;                 4000 N 91Din !
 PAR  G(FCC_A1,TI:VA),,                 +GHSERTI+6000-0.1*T;     4000 N 91Din !
 PAR  G(A1_FCC,TI:VA),,                 +GHSERTI+6000-0.1*T;     4000 N 91Din !
$PAR  G(DIAMOND_A4,TI),,                +GHSERTI+25000;          4000 N 91Din !
$PAR  G(BCT_A5,TI),,                    +GHSERTI+4602.2;         3000 N SGCOST !
$PAR  G(CBCC_A12,TI:VA),,               +GHSERTI+4602.2;         4000 N 91Din !
$PAR  G(CUB_A13,TI:VA),,                +GHSERTI+7531.2;         4000 N 91Din !
 PAR  G(LIQUID,TI),,                    +GLIQTI;                 4000 N 91Din !
$
 FUNCTION GHSERTI   298.15  -8059.921+133.615208*T-23.9933*T*LN(T)
       -0.004777975*T**2+1.06716E-07*T**3+72636*T**(-1);
       900.00  Y  -7811.815+132.988068*T-23.9887*T*LN(T)
       -0.0042033*T**2-9.0876E-08*T**3+42680*T**(-1);
      1155.00  Y  +908.837+66.976538*T-14.9466*T*LN(T)
       -0.0081465*T**2+2.02715E-07*T**3-1477660*T**(-1);
      1941.00  Y  -124526.786+638.806871*T-87.2182461*T*LN(T)
       +0.008204849*T**2-3.04747E-07*T**3+36699805*T**(-1);
      4000.00  N !
 FUNCTION GBCCTI    298.15  -1272.064+134.71418*T-25.5768*T*LN(T)
       -6.63845E-04*T**2-2.78803E-07*T**3+7208*T**(-1);
      1155.00  Y  +6667.385+105.366379*T-22.3771*T*LN(T)
       +0.00121707*T**2-8.4534E-07*T**3-2002750*T**(-1);
      1941.00  Y  +26483.26-182.426471*T+19.0900905*T*LN(T)
       -0.02200832*T**2+1.228863E-06*T**3+1400501*T**(-1);
      4000.00  N !
 FUNCTION GLIQTI    298.15  +12194.415-6.980938*T+GHSERTI;
      1300.00  Y  +369519.198-2554.0225*T+342.059267*T*LN(T)
       -0.163409355*T**2+1.2457117E-05*T**3-67034516*T**(-1);
      1941.00  Y  -19887.066+298.7367*T-46.29*T*LN(T);
      4000.00  N !
 FUNCTION GFCCTI    298.15  +GHSERTI+6000-0.1*T;                       4000 N !
$ ------------------------------------------------------------------------------
$ Binary system
$
$ X. Hu, L. Chen, C. Zhan, K. Xu, M. Lou, K. Chang, Calphad, 76, 102386(2022).
$
$ Checked against paper and author's tdb. Checked at 6000 K.
$
$ Order-disorder models for fcc (Rh3Ti-L12) and bcc (RhTi-B2). The L12 model
$ seems incomplete.
$
$ Liquid and fcc interactions misprinted in paper.
$
 PAR  L(LIQUID,RH,TI;0),,               -246999.6;,,                  N 22Hu !
 PAR  L(LIQUID,RH,TI;1),,               -34857.5;,,                   N 22Hu !
$
 PAR  L(FCC_A1,RH,TI:VA;0),,            -208882-12.5*T;,,             N 22Hu !
 PAR  L(FCC_A1,RH,TI:VA;1),,            -19*T;,,                      N 22Hu !
$
 PAR  L(A1_FCC,RH,TI:VA;0),,            -208882-12.5*T;,,             N 22Hu !
 PAR  L(A1_FCC,RH,TI:VA;1),,            -19*T;,,                      N 22Hu !
$
 PAR  G(L12_FCC,RH:TI:VA;0),,           -7400;,,                      N 22Hu !
 PAR  G(L12_FCC,TI:RH:VA;0),,           +7400;,,                      N 22Hu !
 PAR  L(L12_FCC,RH,TI:TI:VA;0),,        +20000+7*T;,,                 N 22Hu !
 PAR  L(L12_FCC,RH:RH,TI:VA;0),,        +26500-2*T;,,                 N 22Hu !
$
 PAR  L(BCC_A2,RH,TI:VA;0),,            -248522;,,                    N 22Hu !
 PAR  L(BCC_A2,RH,TI:VA;1),,            -45769;,,                     N 22Hu !
$
 PAR  L(A2_BCC,RH,TI:VA;0),,            -248522;,,                    N 22Hu !
 PAR  L(A2_BCC,RH,TI:VA;1),,            -45769;,,                     N 22Hu !
$
 PAR  G(B2_BCC,RH:TI:VA;0),,            -54000;,,                     N 22Hu !
 PAR  G(B2_BCC,TI:RH:VA;0),,            -54000;,,                     N 22Hu !
 PAR  L(B2_BCC,RH,TI:RH:VA;0),,         -61000+6*T;,,                 N 22Hu !
 PAR  L(B2_BCC,RH:RH,TI:VA;0),,         -61000+6*T;,,                 N 22Hu !
 PAR  L(B2_BCC,RH,TI:TI:VA;0),,         +6280;,,                      N 22Hu !
 PAR  L(B2_BCC,TI:RH,TI:VA;0),,         +6280;,,                      N 22Hu !
$
 PAR  L(HCP_A3,RH,TI:VA;0),,            -100000;,,                    N 22Hu !
 PAR  L(HCP_A3,RH,TI:VA;1),,            +40000;,,                     N 22Hu !
$
 PAR  G(RH5TI3,RH:TI),,                 +5*GHSERRH+3*GHSERTI
             -576500;,,                                               N 22Hu !
 PAR  G(RHTI2,RH:TI),,                  +GHSERRH+2*GHSERTI-163050;,,  N 22Hu !
$ ------------------------------------------------------------------------------
$
$
 LIST-OF-REFERENCE
 NUMBER  SOURCE
  Null   'Unknown source'
  Same   'Same or similar interaction as in the corresponding stable phase'
  SGCOST 'COST 507 database, SGTE unary database V.3.0, 1996; Al, B, Nd, Ti, Zn'
  91Din  'A.T. Dinsdale, Calphad, 15, 317-425(1991).'
  22Hu   'X. Hu, L. Chen, C. Zhan, K. Xu, M. Lou, K. Chang,
          Calphad, 76, 102386(2022); Rh-Ti'
!
