$
$ Database for Dy-H from K. Fu et al. 2017.
$
$ K. Fu, G. Li, J. Li, Y. Liu, W. Tian, X. Li,
$ J. Alloys Compd., 696, 60-66(2017).
$
$ Dataset created 2018.06.21 by Bengt Hallstedt.
$ 2020.12.26: Modified for use with GES6.
$
$ This is a partial modelling of the system without the liquid.
$
$ The models for fcc and hcp are non-standard to include the DyH2 and DyH3
$ phases. The third sublattice in these phases represents tetrahedral
$ interstitial sites. The bcc model is also non-standard.
$
$ The phase diagram is only approximately reproduced. Some mistake in the
$ fcc and/or hcp parameters remains.
$
$ ------------------------------------------------------------------------------
 TEMP-LIM 298.15 6000.00 !
$
$ELEMENT NAME  REF. STATE               ATOMIC MASS H298-H0    S298    !
$
 ELEMENT VA   VACUUM                      0.0          0.0      0.0    ! 
 ELEMENT DY   HCP_A3                    162.50      8865.896   74.9559 ! 
 ELEMENT H    1/2_MOLE_H2(G)              1.0079    4234.      65.285  ! 
$ ------------------------------------------------------------------------------
$ Species
$
 SPECIE  H2                                 H2 !
$ ------------------------------------------------------------------------------
$ Phase definitions
$
 PHASE LIQUID:L % 1 1 !
 CONST LIQUID:L : DY H : !
$
$ Fcc (cF4, Fm-3m) and MeX (cF8, Fm-3m) and CaF2 (cF12, Fm-3m)
$
 PHASE FCC_A1 %A 3 1 1 2 !
 CONST FCC_A1 : DY : H VA : H VA : !
$
$ Bcc (cI2, Im-3m)
$
 PHASE BCC_A2 %B 2 1 1 !
 CONST BCC_A2 : DY : H VA% : !
$
$ Hcp (hP2, P6_3/mmc) and Me2X (NiAs-type, hP4, P6_3/mmc, B8_1)
$ and HoH3 (hP24, P-3c1)
$
 PHASE HCP_A3 %A 3 1 1 2 !
 CONST HCP_A3 : DY : H VA : H VA : !
$
 PHASE GAS:G % 1 1 !
 CONST GAS:G : H H2 : !
$ ------------------------------------------------------------------------------
$ Defaults
$
 DEFINE-SYSTEM-DEFAULT ELEMENT 2 !
 DEFAULT-COM DEFINE_SYSTEM_ELEMENT VA !
 TYPE-DEF % SEQ * !
 TYPE-DEF A GES AMEND_PHASE_DESCRIPTION @ MAGNETIC -3 0.28 !
 TYPE-DEF B GES AMEND_PHASE_DESCRIPTION @ MAGNETIC -1 0.4 !
 FUNCTION ZERO      298.15  0;                                         6000 N !
 FUNCTION UN_ASS    298.15  0;                                         6000 N !
 FUNCTION R         298.15  +8.31451;                                  6000 N !
 FUNCTION RTLNP     298.15  +8.31451*T*LN(1E-05*P);                    6000 N !
$ ------------------------------------------------------------------------------
$ Element data
$ ------------------------------------------------------------------------------
$ Dy
$
$ HCP_A3, BCC_A2 and LIQUID revised in unary 3.0
$
$ FCC_A1 from 03Cac not included in unary (but it should be)
$ FCC_A1 from 17Fu not included in unary
$
 PAR  G(HCP_A3,DY:VA:VA)        100.00  +GHSERDY;                3000 N 95She1 !
 PAR  TC(HCP_A3,DY:VA:VA)       100.00    179;                   3000 N 95She1 !
 PAR  BMAGN(HCP_A3,DY:VA:VA)    100.00      3.0;                 3000 N 95She1 !
 PAR  G(BCC_A2,DY:VA)           100.00  +GBCCDY;                 3000 N 95She1 !
$PAR  G(FCC_A1,DY:VA:VA)        100.00  +GHSERDY
$            +1300-0.6651608*T;                                  3000 N 03Cac !
 PAR  G(FCC_A1,DY:VA:VA)        100.00  +GHSERDY+5562-0.83*T;    3000 N 17Fu !
 PAR  G(LIQUID,DY)              100.00  +GLIQDY;                 3000 N 95She1 !
$
 FUNCTION GHSERDY   100.00  -7937.16586+102.307412*T-26.3917167*T*LN(T)
       -7.61683657E-04*T**2-5.86914125E-07*T**3+4010.90565*T**(-1);
      1000.00  Y  -13733.328+214.012934*T-43.8283359*T*LN(T)
       +0.0166909801*T**2-3.49702836E-06*T**3+0.0173619874*T**(-1);
      1654.15  Y  -404681.371+2032.1415*T-272.123952*T*LN(T)
       +0.0578301681*T**2-2.76169148E-06*T**3+1.09616238E+08*T**(-1);
      3000.00  N !
 FUNCTION GBCCDY    100.00  +1508.1802-0.566616181*T+GHSERDY;
      1000.00  Y  +327500.062-2868.04585*T+391.515418*T*LN(T)
       -0.224042148*T**2+2.04076075E-05*T**3-48652656.5*T**(-1);
      1654.15  Y  -33708.7949+291.409631*T-50.208*T*LN(T);
      1685.15  Y  -40775.4966+330.318068*T-55.2811171*T*LN(T)
       +0.0015254673*T**2-7.7437116E-08*T**3+1776589.32*T**(-1);
      3000.00  N !
 FUNCTION GLIQDY    100.00  +13196.6185-7.5443643*T+GHSERDY;
      1000.00  Y  +300126.971-2519.78614*T+341.302578*T*LN(T)
       -0.196153225*T**2+1.76197799E-05*T**3-43071677.5*T**(-1);
      1685.15  Y  -21864.7344+282.205014*T-49.9151*T*LN(T);
      3000.00  N !
$ ------------------------------------------------------------------------------
$ H
$
$ H is not included in unary
$
 PAR  G(LIQUID,H),,                     +0.5*GHSERH2
             +8035+25*T+2*T*LN(T);,,                                  N 06Qiu !
$
 PAR  G(GAS,H),,                        +F10383T+RTLNP;,,             N 97SUB !
 PAR  G(GAS,H2),,                       +GHSERH2+RTLNP;,,             N 97SUB !
$
$ H(g)
 FUNCTION F10383T   298.15  +211801.621+24.4989821*T-20.78611*T*LN(T);
      6000.00  N !
$ H2(g)
 FUNCTION GHSERH2   298.15  -9522.9741+78.5273879*T-31.35707*T*LN(T)
       +0.0027589925*T**2-7.46390667E-07*T**3+56582.3*T**(-1);
      1000.00  Y  +180.108664-15.6128256*T-17.84857*T*LN(T)
       -0.00584168*T**2+3.14618667E-07*T**3-1280036*T**(-1);
      2100.00  Y  -18840.1663+92.3120255*T-32.05082*T*LN(T)
       -0.0010728235*T**2+1.14281783E-08*T**3+3561002.5*T**(-1);
      6000.00  N !
$ ------------------------------------------------------------------------------
$ Binary system
$
$ K. Fu, G. Li, J. Li, Y. Liu, W. Tian, X. Li,
$ J. Alloys Compd., 696, 60-66(2017).
$
$ Checked against paper. Checked at 6000 K.
$
$ This is a partial modelling of the system without the liquid.
$
$ The models for fcc and hcp are non-standard to include the DyH2 and DyH3
$ phases. The third sublattice in these phases represents tetrahedral
$ interstitial sites. The bcc model is also non-standard.
$
$ The phase diagram is only approximately reproduced. Some mistake in the
$ fcc and/or hcp parameters remains.
$
 PAR  L(LIQUID,DY,H;0),,                +UN_ASS;,,                    N !
$
 PAR  G(FCC_A1,DY:H:VA),,               +GHSERDY+0.5*GHSERH2
             -49871+65*T;,,                                           N 17Fu !
 PAR  G(FCC_A1,DY:VA:H),,               +GHSERDY+GHSERH2
             -213075.33+138.5*T;,,                                    N 17Fu !
 PAR  G(FCC_A1,DY:H:H),,                +GHSERDY+1.5*GHSERH2
             -230708.11+195*T;,,                                      N 17Fu !
 PAR  L(FCC_A1,DY:H,VA:VA;0),,          -21425.169;,,                 N 17Fu !
 PAR  L(FCC_A1,DY:H,VA:H;0),,           -21425.169;,,                 N 17Fu !
 PAR  L(FCC_A1,DY:VA:H,VA;0),,          +43836.757-19.891767*T;,,     N 17Fu !
 PAR  L(FCC_A1,DY:H:H,VA;0),,           +43836.757-19.891767*T;,,     N 17Fu !
$
 PAR  G(BCC_A2,DY:H),,                  +GHSERDY+0.5*GHSERH2
             -46654+65*T;,,                                           N 17Fu !
$
 PAR  G(HCP_A3,DY:H:VA),,               +GHSERDY+0.5*GHSERH2
             -65831.08+65*T;,,                                        N 17Fu !
 PAR  G(HCP_A3,DY:VA:H),,               +GHSERDY+GHSERH2
             -169184+130*T;,,                                         N 17Fu !
 PAR  G(HCP_A3,DY:H:H),,                +GHSERDY+1.5*GHSERH2
             -252710.72+195.99*T;,,                                   N 17Fu !
 PAR  L(HCP_A3,DY:H,VA:VA;0),,          -21425.17;,,                  N 17Fu !
 PAR  L(HCP_A3,DY:H,VA:H;0),,           +UN_ASS;,,                    N 17Fu !
 PAR  L(HCP_A3,DY:VA:H,VA;0),,          -23400.769+5.58*T;,,          N 17Fu !
 PAR  L(HCP_A3,DY:H:H,VA;0),,           -23400.769+5.58*T;,,          N 17Fu !
$ ------------------------------------------------------------------------------
$
$
 LIST-OF-REFERENCE
 NUMBER  SOURCE
  Null   'Unknown source'
  Same   'Same or similar interaction as in the corresponding stable phase'
  REFLAV 'Laves phase convention: G(LAVES,X:X)=+3*GHSERXX+15000'
  91Din  'A.T. Dinsdale, Calphad, 15, 317-425(1991).'
  95She1 'H. Shen, W. Zhang, G. Liu, R. Wang, Z. Du, Report F-95-01,
          University of Science and Technology, Beijing, May 1995,
          SGTE unary database V.3.0, 1996; Dy'
  97SUB  'SGTE substance database, version 1997'
  03Cac  'G. Cacciamani, S. De Negri, A. Saccone, R. Ferro,
          Intermetallics, 11, 1135-51(2003); Dy'
  06Qiu  'C. Qiu, S.M. Opalka, G.B. Olson, D.L. Anton,
          Int. J. Mater. Res., 97, 845-53(2006); H, Na-H'
  17Fu   'K. Fu, G. Li, J. Li, Y. Liu, W. Tian, X. Li,
          J. Alloys Compd., 696, 60-66(2017); Dy, Dy-H'
!
