$
$ Database for Cr-Fe from J.-O. Andersson and B. Sundman 1987
$ (included in LB Vol. 2)
$ Liquid modified by B.-J. Lee 1993
$
$ J.-O. Andersson, B. Sundman, Calphad, 11, 83-92(1987).
$
$ Dataset created 2009.10.19 by Bengt Hallstedt.
$ 2020.08.02: Modified for use with GES6.
$
$ Wrong sign for L(FCC_A1,CR,FE:VA;0) in the paper.
$
$ The SIGMA_D8B and SIGMA_OLD phase fields are very similar.
$
$ ------------------------------------------------------------------------------
 TEMP-LIM 298.15 6000.00 !
$
$ELEMENT NAME  REF. STATE               ATOMIC MASS H298-H0    S298    !
$
 ELEMENT VA   VACUUM                      0.0          0.0      0.0    ! 
 ELEMENT CR   BCC_A2                     51.996     4050.0     23.5429 ! 
 ELEMENT FE   BCC_A2                     55.847     4489.0     27.2797 ! 
$ ------------------------------------------------------------------------------
$ Phase definitions
$
 PHASE LIQUID:L % 1 1 !
 CONST LIQUID:L : CR FE : !
$
$ Fcc (cF4, Fm-3m) and MeX (cF8, Fm-3m)
$
 PHASE FCC_A1 %A 2 1 1 !
 CONST FCC_A1 : CR FE : VA : !
$
$ Bcc (cI2, Im-3m)
$
 PHASE BCC_A2 %B 2 1 3 !
 CONST BCC_A2 : CR FE : VA : !
$
$ Hcp (hP2, P6_3/mmc) and Me2X (NiAs-type, hP4, P6_3/mmc, B8_1)
$
 PHASE HCP_A3 %A 2 1 0.5 !
 CONST HCP_A3 : CR FE : VA : !
$
$ Prototype CrFe (tP30, P4_2/mnm)
$
 PHASE SIGMA_D8B % 3 10 4 16 !
 CONST SIGMA_D8B : FE : CR : CR FE : !
$
$ Sigma in TCFE 2000 and SSOL V4
$
 PHASE SIGMA_OLD % 3 8 4 18 !
 CONST SIGMA_OLD : FE : CR : CR FE : !
$
$ Prototype CrFe (tP30, P4_2/mnm, D8_b)
$
 PHASE HIGH_SIGMA % 3 10 4 16 !
 CONST HIGH_SIGMA : FE : CR : CR FE : !
$
$ Prototype alpha-Mn (cI58, I-43m)
$
 PHASE CHI_A12 % 3 24 10 24 !
 CONST CHI_A12 : CR FE : CR : CR FE : !
$
$ Prototype MgZn2 (hP12, P6_3/mmc)
$
 PHASE C14_LAVES % 2 2 1 !
 CONST C14_LAVES : CR% FE% : CR FE : !
$ ------------------------------------------------------------------------------
$ Defaults
$
 DEFINE-SYSTEM-DEFAULT ELEMENT 2 !
 DEFAULT-COM DEFINE_SYSTEM_ELEMENT VA !
 DEFAULT-COM REJECT_PHASE SIGMA_OLD HIGH_SIGMA C14_LAVES CHI_A12 !
 TYPE-DEF % SEQ * !
 TYPE-DEF A GES AMEND_PHASE_DESCRIPTION @ MAGNETIC -3 0.28 !
 TYPE-DEF B GES AMEND_PHASE_DESCRIPTION @ MAGNETIC -1 0.4 !
 FUNCTION ZERO      298.15  0;                                         6000 N !
 FUNCTION UN_ASS    298.15  0;                                         6000 N !
 FUNCTION R         298.15  +8.31451;                                  6000 N !
$ ------------------------------------------------------------------------------
$ Element data
$ ------------------------------------------------------------------------------
$ Cr
$
 PAR  G(BCC_A2,CR:VA),,                 +GHSERCR;,,                   N 91Din !
 PAR  TC(BCC_A2,CR:VA),,                 -311.50;,,                   N 91Din !
 PAR  BM(BCC_A2,CR:VA),,                   -0.008;,,                  N 91Din !
 PAR  G(FCC_A1,CR:VA),,                 +GHSERCR+7284+0.163*T;,,      N 91Din !
 PAR  TC(FCC_A1,CR:VA),,                -1109.00;,,                   N 91Din !
 PAR  BM(FCC_A1,CR:VA),,                   -2.46;,,                   N 91Din !
 PAR  G(HCP_A3,CR:VA),,                 +GHSERCR+4438;,,              N 91Din !
 PAR  TC(HCP_A3,CR:VA),,                -1109.00;,,                   N 91Din !
 PAR  BM(HCP_A3,CR:VA),,                   -2.46;,,                   N 91Din !
$PAR  G(CUB_A13,CR:VA),,                +GHSERCR+15899+0.6276*T;,,    N 91Din !
$PAR  G(CBCC_A12,CR:VA),,               +GHSERCR+11087+2.7196*T;,,    N 91Din !
 PAR  G(LIQUID,CR),,                    +GLIQCR;,,                    N 91Din !
$
 PAR  G(CHI_A12,CR:CR:CR),,             +48*GFCCCR+10*GHSERCR
             +109000+123*T;,,                                         N 88Gus4 !
 PAR  G(C14_LAVES,CR:CR),,              +3*GHSERCR+15000;,,           N REFLAV !
$
 FUNCTION GHSERCR   298.15  -8856.94+157.48*T-26.908*T*LN(T)
       +0.00189435*T**2-1.47721E-06*T**3+139250*T**(-1);
      2180.00  Y  -34869.344+344.18*T-50*T*LN(T)-2.88526E+32*T**(-9);
      6000.00  N !
 FUNCTION GLIQCR    298.15  +24339.955-11.420225*T+GHSERCR+2.37615E-21*T**7;
      2180.00  Y  -16459.984+335.616316*T-50*T*LN(T);
      6000.00  N !
 FUNCTION GFCCCR    298.15  +GHSERCR+7284+0.163*T;                     6000 N !
$ ------------------------------------------------------------------------------
$ Fe
$
$ ORTHORHOMBIC_A20 and TETRAGONAL_U added im unary 4.1
$
 PAR  G(BCC_A2,FE:VA),,                 +GHSERFE;,,                   N 91Din !
 PAR  TC(BCC_A2,FE:VA),,                 1043.00;,,                   N 91Din !
 PAR  BM(BCC_A2,FE:VA),,                    2.22;,,                   N 91Din !
 PAR  G(FCC_A1,FE:VA),,                 +GFCCFE;,,                    N 91Din !
 PAR  TC(FCC_A1,FE:VA),,                 -201.00;,,                   N 91Din !
 PAR  BM(FCC_A1,FE:VA),,                   -2.10;,,                   N 91Din !
 PAR  G(HCP_A3,FE:VA),,                 +GHCPFE;,,                    N 91Din !
$PAR  G(CBCC_A12,FE:VA),,               +GHSERFE+4745;,,              N 91Din !
$PAR  G(CUB_A13,FE:VA),,                +GHSERFE+3745;,,              N 91Din !
$PAR  G(ORTHORHOMBIC_A20,FE),,          +GHSERFE+5000;,,              N 99SGUN !
$PAR  G(TETRAGONAL_U,FE),,              +GHSERFE+5000;,,              N 99SGUN !
 PAR  G(LIQUID,FE),,                    +GLIQFE;,,                    N 91Din !
$
 PAR  G(C14_LAVES,FE:FE),,              +3*GHSERFE+15000;,,           N REFLAV !
$
 FUNCTION GHSERFE   298.15  +1225.7+124.134*T-23.5143*T*LN(T)
       -0.00439752*T**2-5.8927E-08*T**3+77359*T**(-1);
      1811.00  Y  -25383.581+299.31255*T-46*T*LN(T)+2.29603E+31*T**(-9);
      6000.00  N !
 FUNCTION GFCCFE    298.15  -1462.4+8.282*T-1.15*T*LN(T)
       +6.4E-04*T**2+GHSERFE;
      1811.00  Y  -1713.815+0.940009*T+GHSERFE+4.9251E+30*T**(-9);
      6000.00  N !
 FUNCTION GHCPFE    298.15  -3705.78+12.591*T-1.15*T*LN(T)
       +6.4E-04*T**2+GHSERFE;
      1811.00  Y  -3957.195+5.249009*T+GHSERFE+4.9251E+30*T**(-9);
      6000.00  N !
 FUNCTION GLIQFE    298.15  +12040.17-6.55843*T+GHSERFE-3.67516E-21*T**7;
      1811.00  Y  -10838.83+291.302*T-46*T*LN(T);
      6000.00  N !
$ ------------------------------------------------------------------------------
$ Binary system
$
$ From J.-O. Andersson and B. Sundman 1987 (included in LB Vol. 2)
$ Liquid modified by B.-J. Lee 1993
$
$ J.-O. Andersson, B. Sundman, Calphad, 11, 83-92(1987).
$
$ Checked against LB and paper. Checked at 6000 K.
$
$ Wrong sign for L(FCC_A1,CR,FE:VA;0) in the paper.
$
$ The SIGMA_D8B and SIGMA_OLD phase fields are very similar.
$
$PAR  L(LIQUID,CR,FE;0),,               -14550+6.65*T;,,              N 87And1 !
 PAR  L(LIQUID,CR,FE;0),,               -17737+7.996546*T;,,          N 93Lee1 !
 PAR  L(LIQUID,CR,FE;1),,               -1331;,,                      N 93Lee1 !
$
 PAR  L(BCC_A2,CR,FE:VA;0),,            +20500-9.68*T;,,              N 87And1 !
 PAR  BM(BCC_A2,CR,FE:VA;0),,              -0.85;,,                   N 87And1 !
 PAR  TC(BCC_A2,CR,FE:VA;0),,           +1650;,,                      N 87And1 !
 PAR  TC(BCC_A2,CR,FE:VA;1),,            +550;,,                      N 87And1 !
$
 PAR  L(FCC_A1,CR,FE:VA;0),,            +10833-7.477*T;,,             N 87And1 !
 PAR  L(FCC_A1,CR,FE:VA;1),,            +1410;,,                      N 87And1 !
$
 PAR  G(SIGMA_D8B,FE:CR:CR),,           +10*GFCCFE+20*GHSERCR
             +83844-111.32*T;,,                                       N 00Wes !
 PAR  G(SIGMA_D8B,FE:CR:FE),,           +10*GFCCFE+4*GHSERCR
             +16*GHSERFE+140515-111.32*T;,,                           N 00Wes !
$
 PAR  G(SIGMA_OLD,FE:CR:CR),,           +8*GFCCFE+22*GHSERCR
             +92300-95.96*T;,,                                        N 87And1 !
 PAR  G(SIGMA_OLD,FE:CR:FE),,           +8*GFCCFE+4*GHSERCR
             +18*GHSERFE+117300-95.96*T;,,                            N 87And1 !
$
$ metastable
$
 PAR  L(HCP_A3,CR,FE:VA;0),,            +10833-7.477*T;,,             N 90Fri1 !
$
 PAR  G(CHI_A12,CR:CR:FE),,             +24*GFCCCR+10*GHSERCR
             +24*GFCCFE+500000;,,                                     N 88Gus4 !
 PAR  G(CHI_A12,FE:CR:CR),,             +24*GFCCFE+10*GHSERCR
             +24*GFCCCR+18300-100*T;,,                                N 88And4 !
 PAR  G(CHI_A12,FE:CR:FE),,             +48*GFCCFE+10*GHSERCR
             +57300-100*T;,,                                          N 88And4 !
$
 PAR  G(C14_LAVES,CR:FE),,              +2*GHSERCR+GHSERFE+15000;,,   N REFLAV !
 PAR  G(C14_LAVES,FE:CR),,              +2*GHSERFE+GHSERCR+15000;,,   N REFLAV !
 PAR  L(C14_LAVES,CR,FE:CR;0),,         +40000;,,                     N 99Lee !
 PAR  L(C14_LAVES,CR,FE:FE;0),,         +40000;,,                     N 99Lee !
 PAR  L(C14_LAVES,CR:CR,FE;0),,         +20000;,,                     N 99Lee !
 PAR  L(C14_LAVES,FE:CR,FE;0),,         +20000;,,                     N 99Lee !
$
$ Added 100 J to SIGMA_D8B
 PAR  G(HIGH_SIGMA,FE:CR:CR),,          +10*GFCCFE+20*GHSERCR
             +83944-111.32*T;,,                                       N 00Wes !
 PAR  G(HIGH_SIGMA,FE:CR:FE),,          +10*GFCCFE+4*GHSERCR
             +16*GHSERFE+140615-111.32*T;,,                           N 00Wes !
$ ------------------------------------------------------------------------------
$
 ASSESSED_SYSTEM
  CR-FE(TDB -* +LIQ +BCC_A2 +FCC_A1 +SIGMA_D8B
  ;G5 C_S:BCC/CR:VA MAJ:BCC/FE:VA ;P3 TMM:300/2500 STP:.6/1200/-2/2/1) !
$
$
 LIST-OF-REFERENCE
 NUMBER  SOURCE
  Null   'Unknown source'
  REFLAV 'Laves phase convention: G(LAVES,X:X)=+3*GHSERXX+15000'
  87And1 'J.-O. Andersson, B. Sundman, Calphad, 11, 83-92(1987); Cr-Fe'
  88And4 'J.-O. Andersson, N. Lange,
          Metall. Trans. A, 19A, 1385-94(1988); Cr-Fe-Mo'
  88Gus4 'P. Gustafson, Metall. Trans. A, 19A, 2531-46(1988); Cr-Fe-W'
  90Fri1 'K. Frisk, Metall. Trans. A, 21A, 2477-88(1990); Cr-Fe-N' 
  91Din  'A.T. Dinsdale, Calphad, 15, 317-425(1991).'
  93Lee1 'B.-J. Lee, Calphad, 17, 251-68(1993); Cr-Fe'
  99Lee  'B.-J. Lee, unpublished, 1999'
  99SGUN 'SGTE unary database V.4.1, 1999.'
  00Wes  'S. Westman, unpublished, 2000; Cr-Fe'
!
