$
$ Database for Hf-B from Y. Pan et al. 2021.
$
$ Y. Pan, L. Huang, J. Zhang, Y. Du, F. Luo, S. Zhang,
$ J. Phase Equilib. Diffus., 42, 864-78(2021).
$
$ Dataset created 2022.10.30 by Bengt Hallstedt.
$
$ Modified from 97Bit. Non-stoichiometry added to HfB and HfB2.
$
$ The models for HfB and HfB2 seem questionable considering the large size
$ difference between Hf and B. There is no discussion about actual defects
$ in these phases in the paper.
$
$ HfB2 has a strange shape below 1000 K.
$
$ In some works HfB has been found to have an NaCl type structure, but this
$ is probably caused by impurities.
$
$ ------------------------------------------------------------------------------
 TEMP-LIM 298.15 6000.00 !
$
$ELEMENT NAME  REF. STATE               ATOMIC MASS H298-H0    S298    !
$
 ELEMENT VA   VACUUM                      0.0          0.0      0.0    ! 
 ELEMENT B    BETA_RHOMBO_B              10.81      1222.0      5.9    ! 
 ELEMENT HF   HCP_A3                    178.49      5845.0     43.56   ! 
$ ------------------------------------------------------------------------------
$ Phase definitions
$
 PHASE LIQUID:L % 1 1 !
 CONST LIQUID:L : B HF : !
$
$ Fcc (cF4, Fm-3m) and MeX (cF8, Fm-3m)
$
 PHASE FCC_A1 %A 2 1 1 !
 CONST FCC_A1 : HF : B VA% : !
$
$ Bcc (cI2, Im-3m)
$
 PHASE BCC_A2 %B 2 1 3 !
 CONST BCC_A2 : HF% : B VA% : !
$
$ Hcp (hP2, P6_3/mmc) and Me2X (NiAs-type, hP4, P6_3/mmc, B8_1)
$
 PHASE HCP_A3 %A 2 1 0.5 !
 CONST HCP_A3 : HF% : B VA% : !
$
$ Prototype beta-B (hR105, R-3m)
$
 PHASE BETA_RHOMBO_B % 2 93 12 !
 CONST BETA_RHOMBO_B : B : B : !
$
$ Prototype FeB (oP8, Pnma)
$
 PHASE HFB_B27 % 2 1 1 !
 CONST HFB_B27 : HF : B% HF : !
$
$ Prototype AlB2 (hP3, P6/mmm)
$
 PHASE HFB2_C32 % 2 1 2 !
 CONST HFB2_C32 : HF% B : HF B% : !
$ ------------------------------------------------------------------------------
$ Defaults
$
 DEFINE-SYSTEM-DEFAULT ELEMENT 2 !
 DEFAULT-COM DEFINE_SYSTEM_ELEMENT VA !
 TYPE-DEF % SEQ * !
 TYPE-DEF A GES AMEND_PHASE_DESCRIPTION @ MAGNETIC -3 0.28 !
 TYPE-DEF B GES AMEND_PHASE_DESCRIPTION @ MAGNETIC -1 0.4 !
 FUNCTION ZERO      298.15  0;                                         6000 N !
 FUNCTION UN_ASS    298.15  0;                                         6000 N !
 FUNCTION R         298.15  +8.31451;                                  6000 N !
$ ------------------------------------------------------------------------------
$ Element data
$ ------------------------------------------------------------------------------
$ B
$
$ FCC_A1, HCP_A3, DIAMOND_A4 and GRAPHITE added in unary 3.0
$ BCC_A2 added in unary 4.1
$ GRAPHITE revised in unary 4.4 (using the value from COST 507)
$ FCC_A1, BCC_A2 and HCP_A3 removed in unary 5.0
$ ALPHA_RHOMBO_B added in unary 5.0
$
$ FCC_A1, BCC_A2 and HCP_A3 still in SGSOL 5.0
$ The value for FCC_A1 in COST (and SGTE) is possibly incorrect.
$
$PAR  G(BETA_RHOMBO_B,B),,              +GHSERBB;,,                   N 91Din !
 PAR  G(BETA_RHOMBO_B,B:B),,            +105*GHSERBB;,,               N 91Din !
$PAR  G(ALPHA_RHOMBO_B,B),,             +GALPBB;,,                    N 09SGUN !
$PAR  G(FCC_A1,B:VA),,                  +GHSERBB+43514-12.217*T;,,    N SGCOST !
$PAR  G(FCC_A1,B:VA),,                  +GHSERBB+50208-13.472*T;,,    N 94Hal !
$PAR  G(BCC_A2,B:VA),,                  +GHSERBB+43514-12.217*T;,,    N 94Hal !
$PAR  G(HCP_A3,B:VA),,                  +GHSERBB+50208-9.706*T;,,     N SGCOST !
$PAR  G(GRAPHITE,B),,                   +GHSERBB+10000-2*T;,,         N SGCOST !
$PAR  G(GRAPHITE,B),,                   +GHSERBB+5000;,,              N 96SGUN !
$PAR  G(DIAMOND_A4,B),,                 +GHSERBB+10;,,                N 99SGUN !
$PAR  G(DIAMOND_A4,B),,                 +GHSERBB+20;,,                N COST !
$PAR  G(DIAMOND_A4,B),,                 +GHSERBB;,,                   N 96SGUN !
 PAR  G(LIQUID,B),,                     +GLIQBB;,,                    N 91Din !
$
 PAR  G(HFB2_C32,B:B),,                 +ZERO;,,                      N 21Pan !
$
 FUNCTION GHSERBB   298.15  -7735.284+107.111864*T-15.6641*T*LN(T)
       -0.006864515*T**2+6.18878E-07*T**3+370843*T**(-1);
      1100.00  Y  -16649.474+184.801744*T-26.6047*T*LN(T)
       -7.9809E-04*T**2-2.556E-08*T**3+1748270*T**(-1);
      2348.00  Y  -36667.582+231.336244*T-31.5957527*T*LN(T)
       -0.00159488*T**2+1.34719E-07*T**3+11205883*T**(-1);
      3000.00  Y  -21530.653+222.396264*T-31.4*T*LN(T);
      6000.00  N !
 FUNCTION GALPBB    298.15  -6076.24+86.648762*T-12.942464*T*LN(T)
       -7.089468E-3*T**2+0.659896E-6*T**3-45*T**(-1);
      1400.00  Y  +28477.506-106.789208*T+12.1072478*T*LN(T)
       -13.316875E-3*T**2+0.706895E-6*T**3-8002403*T**(-1);
      3000.00  Y  -25699.64+225.127135*T-31.4*T*LN(T);
      6000.00  N !
 FUNCTION GLIQBB    298.15  +48458.559-20.268025*T+GHSERBB;
       500.00  Y  +41119.703+82.101722*T-14.9827763*T*LN(T)
       -0.007095669*T**2+5.07347E-07*T**3+335484*T**(-1);
      2348.00  Y  +28842.012+200.94731*T-31.4*T*LN(T);
      3000.00  Y  +50372.665-21.448954*T+GHSERBB;
      6000.00  N !
 FUNCTION GFCCBB    298.15  +GHSERBB+43514-12.217*T;                   6000 N !
$ ------------------------------------------------------------------------------
$ Hf
$
$ HCP_A3 and BCC_A2 modified in unary 5.0
$ (upper T interval added + trailing decimals added)
$
 PAR  G(HCP_A3,HF:VA),,                 +GHSERHF;                3001 N 91Din !
 PAR  G(BCC_A2,HF:VA),,                 +GBCCHF;                 3001 N 91Din !
 PAR  G(FCC_A1,HF:VA),,                 +GHSERHF+10000-2.2*T;    3001 N 91Din !
 PAR  G(LIQUID,HF),,                    +GLIQHF;                 3001 N 91Din !
$
 PAR  G(HFB_B27,HF:HF),,                +2*GHSERHF+129867.07;,,       N 21Pan !
 PAR  G(HFB2_C32,HF:HF),,               +3*GHSERHF+190739.12;,,       N 21Pan !
$
 FUNCTION GHSERHF   298.15  -6987.297+110.744026*T-22.7075*T*LN(T)
       -0.004146145*T**2-4.77E-10*T**3-22590*T**(-1);
      2506.00  Y  -1446776.329+6193.609991*T-787.5363829*T*LN(T)
       +0.1735215*T**2-7.575759E-06*T**3+5.01742495E+08*T**(-1);
      3000.00  Y  -34274.698+277.882368*T-44*T*LN(T);
      3001.00  N !
 FUNCTION GBCCHF    298.15  +5370.703+103.836026*T-22.8995*T*LN(T)
       -0.004206605*T**2+8.71923E-07*T**3-22590*T**(-1)-1.446E-10*T**4;
      2506.00  Y  +1912456.771-8624.20573*T+1087.6141247*T*LN(T)
       -0.286857065*T**2+1.3427829E-05*T**3-6.10085091E+08*T**(-1);
      3000.00  Y  -32498.178+276.723247*T-44*T*LN(T);
      3001.00  N !
 FUNCTION GLIQHF    298.15  +27402.256-10.953093*T+GHSERHF;
      1000.00  Y  +49731.499-149.91739*T+12.116812*T*LN(T)
       -0.021262021*T**2+1.376466E-06*T**3-4449699*T**(-1);
      2506.00  Y  -4247.217+265.470523*T-44*T*LN(T);
      3001.00  N !
$ ------------------------------------------------------------------------------
$ Binary system
$
$ Y. Pan, L. Huang, J. Zhang, Y. Du, F. Luo, S. Zhang,
$ J. Phase Equilib. Diffus., 42, 864-78(2021).
$
$ Checked against paper. Checked at 6000K.
$
$ Modified from 97Bit. Non-stoichiometry added to HfB and HfB2.
$
$ The models for HfB and HfB2 seem questionable considering the large size
$ difference between Hf and B. There is no discussion about actual defects
$ in these phases in the paper.
$
$ HfB2 has a strange shape below 1000 K.
$
$ In some works HfB has been found to have an NaCl type structure, but this
$ is probably caused by impurities.
$
 PAR  L(LIQUID,B,HF;0),,                -170625-4.85541*T;,,          N 97Bit !
 PAR  L(LIQUID,B,HF;1),,                -39128;,,                     N 97Bit !
 PAR  L(LIQUID,B,HF;2),,                +16331.1;,,                   N 97Bit !
$
 PAR  G(BCC_A2,HF:B),,                  +GBCCHF+3*GHSERBB
             -137926;,,                                               N 97Bit !
$
 PAR  G(HCP_A3,HF:B),,                  +GHSERHF+0.5*GHSERBB
             -44765.7;,,                                              N 97Bit !
$
 PAR  G(HFB_B27,HF:B),,                 +GHSERHF+GHSERBB
             -158537.05+4.69*T;,,                                     N 21Pan !
$
 PAR  G(HFB2_C32,HF:B),,                +GHSERHF+2*GHSERBB
             -305018.73-82.27*T+13.66*T*LN(T)-0.010401397*T**2
             +1.49775E-06*T**3-450137.172*T**(-1);,,                  N 21Pan !
 PAR  G(HFB2_C32,B:HF),,                +GHSERBB+2*GHSERHF
             +36154.56;,,                                             N 21Pan !
$
$ Metastable
$
 PAR  G(FCC_A1,HF:B),,                  +UN_ASS;,,                    N !
 PAR  L(FCC_A1,HF:B,VA;0),,             +UN_ASS;,,                    N !
$ ------------------------------------------------------------------------------
$
 ASSESSED_SYSTEM
   B-HF(TDB -* +LIQ +MB2_C16 +BCC_A2 +BETA_RHO +MB_B27 +HCP_A3
  ;P3 TMM:300/4000 STP:.8/3500) !
$
$
 LIST-OF-REFERENCE
 NUMBER  SOURCE
  Null   'Unknown source'
  Same   'Same or similar interaction as in the corresponding stable phase'
  REFLAV 'Laves phase convention: G(LAVES,X:X)=+3*GHSERXX+15000'
  COST   'COST 507 database'
  SGCOST 'COST 507 database, SGTE unary database V.3.0, 1996; Al, B, Nd, Ti, Zn'
  91Din  'A.T. Dinsdale, Calphad, 15, 317-425(1991).'
  94Bat  'C. Baetzner, PhD thesis, Univ. Stuttgart, Germany, 1994; Ti-B'
  94Hal  'B. Hallemans, P. Wollants, J.R. Roos,
          Z. Metallkd., 85, 676-82(1994), SGTE unary database V.4.1, 1999; B'
  96SGUN 'SGTE unary database V.3.0, 1996.'
  97Bit  'H. Bittermann, P. Rogl, J. Phase Equilib., 18, 24-47(1997);
          Hf-B'
  99SGUN 'SGTE unary database V.4.1, 1999.'
  09SGUN 'SGTE unary database V.5.0, 2009.'
  21Pan  'Y. Pan, L. Huang, J. Zhang, Y. Du, F. Luo, S. Zhang,
          J. Phase Equilib. Diffus., 42, 864-78(2021); Hf-B'
!
