$
$ Database for Hg-Tl from W. Gierlotka et al. 2006
$
$ W. Gierlotka, J. Sopousek, K. Fitzner, Calphad, 30, 425-30(2006).
$
$ Dataset created 2010.06.27 by Bengt Hallstedt.
$ 2021.01.17: Modified for use with GES6.
$ 2024.08.29: Added upper T-interval for GHSERTL and GBCCTL.
$
$ The lattice stability used for hcp-Hg is not acceptable.
$
$ ------------------------------------------------------------------------------
 TEMP-LIM 298.15 6000.00 !
$
$ELEMENT NAME  REF. STATE               ATOMIC MASS H298-H0    S298    !
$
 ELEMENT VA   VACUUM                      0.0          0.0      0.0    ! 
 ELEMENT HG   LIQUID                    200.59      9342.      75.90   ! 
 ELEMENT TL   HCP_A3                    204.383     6831.97    64.2997 ! 
$ ------------------------------------------------------------------------------
$ Phase definitions
$
 PHASE LIQUID:L % 1 1 !
 CONST LIQUID:L : HG TL : !
$
$ Fcc (cF4, Fm-3m) and MeX (cF8, Fm-3m)
$
 PHASE FCC_A1 %A 2 1 1 !
 CONST FCC_A1 : HG TL : VA : !
$
$ Bcc (cI2, Im-3m)
$
 PHASE BCC_A2 %B 2 1 3 !
 CONST BCC_A2 : HG TL% : VA : !
$
$ Hcp (hP2, P6_3/mmc) and Me2X (NiAs-type, hP4, P6_3/mmc, B8_1)
$
 PHASE HCP_A3 %A 2 1 0.5 !
 CONST HCP_A3 : HG TL% : VA : !
$
$ Prototype Hg (hR1, R-3m)
$
 PHASE RHOMBO_A10 % 1 1 !
 CONST RHOMBO_A10 : HG : !
$ ------------------------------------------------------------------------------
$ Defaults
$
 DEFINE-SYSTEM-DEFAULT ELEMENT 2 !
 DEFAULT-COM DEFINE_SYSTEM_ELEMENT VA !
 TYPE-DEFINITION % SEQ * !
 TYPE_DEF A GES AMEND_PHASE_DESCRIPTION @ MAGNETIC -3 0.28 !
 TYPE_DEF B GES AMEND_PHASE_DESCRIPTION @ MAGNETIC -1 0.4 !
 FUNCTION ZERO      298.15  0;                                         6000 N !
 FUNCTION UN_ASS    298.15  0;                                         6000 N !
 FUNCTION R         298.15  +8.31451;                                  6000 N !
$ ------------------------------------------------------------------------------
$ Element data
$ ------------------------------------------------------------------------------
$ Hg
$
$ HCP_A3 and TETRAGONAL_A6 added in unary 4.1
$ FCC_A1 added in unary 5.0
$
$ FCC_A1, BCC_A2 and HCP_A3 from 06Gie are not included in unary
$ The value for HCP_A3 from 06Gie is not acceptable
$
 PAR  G(LIQUID,HG)              200.00  +GHSERHG;                2000 N 91Din !
 PAR  G(RHOMBO_A10,HG)          200.00  +GRHOHG;                 2000 N 91Din !
$PAR  G(FCC_A1,HG:VA)           200.00  +GHSERHG+5+8.368*T;      2000 N 02Mai !
 PAR  G(FCC_A1,HG:VA)           200.00  +GHSERHG
             +1607.94+0.682*T;                                   2000 N 06Gie !
 PAR  G(BCC_A2,HG:VA)           200.00  +GHSERHG
             +3276+14.071*T;                                     2000 N 06Gie !
 PAR  G(HCP_A3,HG:VA)           200.00  +GHSERHG
             +31382.08+11.807*T;                                 2000 N 06Gie !
$PAR  G(HCP_A3,HG:VA)           200.00  +GRHOHG+200+0.7*T;       2000 N 95Yan !
$PAR  G(TETRAGONAL_A6,HG)       200.00  +GRHOHG
$            +208.68+1.765592*T;                                 2000 N 95Yan !
$
 FUNCTION GHSERHG   200.00  +82356.855-3348.19466*T+618.193308*T*LN(T)
       -2.0282337*T**2+0.00118398213*T**3-2366612*T**(-1);
       234.32  Y  -8961.207+135.232291*T-32.257*T*LN(T)
       +0.0097977*T**2-3.20695E-06*T**3+6670*T**(-1);
       400.00  Y  -7970.627+112.33345*T-28.414*T*LN(T)
       +0.00318535*T**2-1.077802E-06*T**3-41095*T**(-1);
       700.00  Y  -7161.338+90.797305*T-24.87*T*LN(T)
       -0.00166775*T**2+8.737E-09*T**3-27495*T**(-1);
      2000.00  N !
 FUNCTION GRHOHG    200.00  -10668.401+123.274598*T-28.847*T*LN(T)
       +0.01699705*T**2-2.4555667E-05*T**3+13330*T**(-1);
       234.32  Y  -11425.394+135.928158*T-30.2091*T*LN(T)
       +0.00107555*T**2-2.28298E-07*T**3+35545*T**(-1);
      2000.00  N !
$ ------------------------------------------------------------------------------
$ Tl
$
$ Upper T-interval for GHSERTL and GBCCTL added in Version 5.0
$
 PAR  G(HCP_A3,TL:VA)           200.00  +GHSERTL;                1801 N 91Din !
 PAR  G(BCC_A2,TL:VA)           200.00  +GBCCTL;                 1801 N 91Din !
 PAR  G(FCC_A1,TL:VA)           200.00  +GHSERTL+310;            1801 N 91Din !
 PAR  G(LIQUID,TL)              200.00  +GLIQTL;                 1801 N 91Din !
$
 FUNCTION GHSERTL   200.00  -8104.038+107.140405*T-25.2274*T*LN(T)
       -0.0033063*T**2-1.21807E-07*T**3+42058*T**(-1);
       577.00  Y  -15406.859+196.771926*T-38.4130658*T*LN(T)
       +0.005228106*T**2-5.19136E-07*T**3+729665*T**(-1);
      1800.00  Y  -4885.034+106.361006*T-25.8437*T*LN(T)
       -8.3662E-04*T**2+9E-12*T**3-612570*T**(-1);
      1801.00  N !
 FUNCTION GBCCTL    200.00  -9194.493+150.019517*T-33.0508*T*LN(T)
       +0.0172318*T**2-1.0115933E-05*T**3+82153*T**(-1);
       577.00  Y  -41836.403+482.633817*T-79.2926704*T*LN(T)
       +0.026042993*T**2-2.359101E-06*T**3+3507810*T**(-1);
      1800.00  Y  -623.343+101.120182*T-25.8437*T*LN(T)
       -8.3662E-04*T**2+9E-12*T**3-612570*T**(-1);
      1801.00  N !
 FUNCTION GLIQTL    200.00  -946.623+0.755649*T-7.44455*T*LN(T)
       -0.044350292*T**2+1.4248046E-05*T**3-54228*T**(-1);
       577.00  Y  -614.74+98.472609*T-25.8437*T*LN(T)
       -8.3662E-04*T**2+9E-12*T**3-612570*T**(-1);
      1801.00  N !
$ ------------------------------------------------------------------------------
$ Binary system
$
$ W. Gierlotka, J. Sopousek, K. Fitzner, Calphad, 30, 425-30(2006).
$
$ Checked against paper. Checked at 6000K.
$
$ The lattice stability used for hcp-Hg is not acceptable.
$
 PAR  L(LIQUID,HG,TL;0),,               -5109.16+52.7488*T
             -6.635*T*LN(T);,,                                        N 06Gie !
 PAR  L(LIQUID,HG,TL;1),,               -2724.48+6.2702*T
             -0.298*T*LN(T);,,                                        N 06Gie !
 PAR  L(LIQUID,HG,TL;2),,               -504.65-0.7278*T
             +0.0199*T*LN(T);,,                                       N 06Gie !
$
 PAR  L(FCC_A1,HG,TL:VA;0),,            +3029.091-6.003*T;,,          N 06Gie !
 PAR  L(FCC_A1,HG,TL:VA;1),,            -30822.289+53.76*T;,,         N 06Gie !
$
 PAR  L(BCC_A2,HG,TL:VA;0),,            -12288.26+12.569*T;,,         N 06Gie !
 PAR  L(BCC_A2,HG,TL:VA;1),,            -11180.07+11.809*T;,,         N 06Gie !
 PAR  L(BCC_A2,HG,TL:VA;2),,            -3758.79;,,                   N 06Gie !
$
 PAR  L(HCP_A3,HG,TL:VA;0),,            -28565.35-6.343*T;,,          N 06Gie !
$ ------------------------------------------------------------------------------
$
$
 LIST-OF-REFERENCE
 NUMBER  SOURCE
  Null   'Unknown source'
  Same   'Same or similar interaction as in the corresponding stable phase'
  REFLAV 'Laves phase convention: G(LAVES,X:X)=+3*GHSERXX+15000'
  COST   'COST 507 database'
  91Din  'A.T. Dinsdale, Calphad, 15, 317-425(1991).'
  95Yan  'J. Yang, N.J. Silk, A. Watson, A.W. Bryant, T.G. Chart, B.B. Argent,
          Calphad, 19, 415-30(1995), SGTE unary database V.4.1, 1999; Cd, Hg'
  02Mai  'A. Maitre, J.M. Fiorani, M. Vilasi, J. Phase Equilib.,
          23, 329-38(2002), SGTE unary database V.5.0, 2009; Hg'
  06Gie  'W. Gierlotka, J. Sopousek, K. Fitzner,
          Calphad, 30, 425-30(2006); Hg, Hg-Tl'
!
