$
$ Database for Ni-Si from Yong Du and J.C. Schuster 1999
$
$ Y. Du, J.C. Schuster, Metall. Mater. Trans. A, 30A, 2409-18(1999).
$
$ Dataset created 2010.02.15 by Bengt Hallstedt.
$ 2017.07.31: Parameters for FCC_4SL from 12Yua used and modified
$ 2021.02.02: Modified for use with GES6.
$
$ Modified from 96Lin.
$
$ There two! inverse miscibility gaps; one at x(Si)=0.35, T>5600 K,
$ another at x(Si)=0.92, T>2900
$
$ Misprint in paper: their L(LIQUID,NI,SI;2) is L(LIQUID,NI,SI;3)
$
$ There are up to 3 K differences in invariant equilibria involving
$ Ni2Si-theta.
$
$ The L12_FCC model cannot be converted to FCC_4SL without changing parameter
$ values. With the current parameters L10 becomes a stable phase. If the
$ parameters from 12Yua for NiSi_L10 and NiSi3_L12 are used Ni3Si_L12 is far
$ too stable. The 12Yua parameters for FCC_4SL were modified. The result is
$ very close, but there is strange behaviour of FCC_4SL at very low temperature.
$
$ ------------------------------------------------------------------------------
 TEMP-LIM 298.15 6000.00 !
$
$ELEMENT NAME  REF. STATE               ATOMIC MASS H298-H0    S298    !
$
 ELEMENT VA   VACUUM                      0.0          0.0      0.0    ! 
 ELEMENT NI   FCC_A1                     58.69      4787.0     29.7955 ! 
 ELEMENT SI   DIAMOND_A4                 28.0855    3217.      18.81   ! 
$ ------------------------------------------------------------------------------
$ Phase definitions
$
 PHASE LIQUID:L % 1 1 !
 CONST LIQUID:L : NI SI : !
$
$ Fcc (cF4, Fm-3m) and MeX (cF8, Fm-3m)
$
 PHASE FCC_A1 %A 2 1 1 !
 CONST FCC_A1 : NI% SI : VA : !
$
$ Disordered part of L12_FCC and FCC_4SL (identical to FCC_A1)
$
 PHASE A1_FCC %A 2 1 1 !
 CONST A1_FCC : NI% SI : VA : !
$
$ Prototype AuCu3 (cP4, Pm-3m)
$
 PHASE L12_FCC %AY 3 0.75 0.25 1 !
 CONST L12_FCC : NI% SI : NI SI% : VA : !
$
$ Prototype AuCu3 (cP4, Pm-3m, L1_2) and AuCu (tP4, P4/mmm, L1_0)
$
$PHASE FCC_4SL:F %AY 5 0.25 0.25 0.25 0.25 1 !
$CONST FCC_4SL:F : NI SI : NI SI : NI SI : NI SI : VA : !
$
$ Bcc (cI2, Im-3m)
$
 PHASE BCC_A2 %B 2 1 3 !
 CONST BCC_A2 : NI SI : VA : !
$
$ Hcp (hP2, P6_3/mmc) and Me2X (NiAs-type, hP4, P6_3/mmc, B8_1)
$
 PHASE HCP_A3 %A 2 1 0.5 !
 CONST HCP_A3 : NI SI : VA : !
$
$ Prototype C (cF8, Fd-3m)
$
 PHASE DIAMOND_A4 % 1 1 !
 CONST DIAMOND_A4 : SI : !
$
$ Prototype Ge9Pd25 (hP34, P-3), beta-2
$
 PHASE NI3SI_M % 2 3 1 !
 CONST NI3SI_M : NI : SI : !
$
$ Prototype CsCl (cP2, Pm-3m, B2) or BiF3 (cF16, Fm-3m, D0_3), beta-3
$
 PHASE NI3SI_H % 2 3 1 !
 CONST NI3SI_H : NI : SI : !
$
$ Prototype Ni31Si12 (hP43, P321), gamma
$
 PHASE NI5SI2 % 2 5 2 !
 CONST NI5SI2 : NI : SI : !
$
$ Prototype Co2Si (oP12, Pnma), delta
$
 PHASE NI2SI_C37 % 2 2 1 !
 CONST NI2SI_C37 : NI : SI : !
$
$ Prototype Ni2Si (hP6, P6_322)
$ The prototype is not InNi2 (with SG P6_3mmc)
$
 PHASE NI2SI_THETA % 3 1 1 1 !
 CONST NI2SI_THETA : NI : NI% VA : SI : !
$
$ Prototype Ni3Si2 (oC80, Cmc2_1), epsilon
$
 PHASE NI3SI2 % 2 3 2 !
 CONST NI3SI2 : NI : SI : !
$
$ Prototype MnP (oP8, Pnma)
$
 PHASE NISI_B31 % 2 1 1 !
 CONST NISI_B31 : NI : SI : !
$
$ Prototype CaF2 (cF12, Fm-3m)
$
 PHASE NISI2_C1 % 2 1 2 !
 CONST NISI2_C1 : NI : SI : !
$ ------------------------------------------------------------------------------
$ Defaults
$
 DEFINE-SYSTEM-DEFAULT ELEMENT 2 !
 DEFAULT-COM DEFINE_SYSTEM_ELEMENT VA !
 DEFAULT-COM REJECT_PHASE FCC_A1 !
 TYPE-DEF % SEQ * !
 TYPE-DEF A GES AMEND_PHASE_DESCRIPTION @ MAGNETIC -3 0.28 !
 TYPE-DEF B GES AMEND_PHASE_DESCRIPTION @ MAGNETIC -1 0.4 !
 TYPE-DEF Y GES AMEND_PHASE_DESCRIPTION L12_FCC DIS_PART A1_FCC !
$TYPE-DEF Y GES AMEND_PHASE_DESCRIPTION FCC_4SL DIS_PART A1_FCC !
 FUNCTION ZERO      298.15  0;                                         6000 N !
 FUNCTION UN_ASS    298.15  0;                                         6000 N !
 FUNCTION R         298.15  +8.31451;                                  6000 N !
$ ------------------------------------------------------------------------------
$ Element data
$ ------------------------------------------------------------------------------
$ Ni
$
$ FCC_A1 and LIQUID modified in unary 5.0 (slight change in upper T interval)
$ BCT_A5 added in unary 5.0
$
 PAR  G(FCC_A1,NI:VA),,                 +GHSERNI;                3000 N 91Din !
 PAR  TC(FCC_A1,NI:VA),,                  633.00;                3000 N 91Din !
 PAR  BM(FCC_A1,NI:VA),,                    0.52;                3000 N 91Din !
 PAR  G(A1_FCC,NI:VA),,                 +GHSERNI;                3000 N 91Din !
 PAR  TC(A1_FCC,NI:VA),,                  633.00;                3000 N 91Din !
 PAR  BM(A1_FCC,NI:VA),,                    0.52;                3000 N 91Din !
 PAR  G(BCC_A2,NI:VA),,                 +GHSERNI
             +8715.084-3.556*T;                                  3000 N 91Din !
 PAR  TC(BCC_A2,NI:VA),,                  575.00;                3000 N 91Din !
 PAR  BM(BCC_A2,NI:VA),,                    0.85;                3000 N 91Din !
 PAR  G(HCP_A3,NI:VA),,                 +GHSERNI+1046+1.255*T;   3000 N 91Din !
 PAR  TC(HCP_A3,NI:VA),,                  633.00;                3000 N 91Din !
 PAR  BM(HCP_A3,NI:VA),,                    0.52;                3000 N 91Din !
$PAR  G(BCT_A5,NI),,                    +GHSERNI+10023-4.556*T;  3000 N 99Gho !
$PAR  G(CBCC_A12,NI:VA),,               +GHSERNI+3556;           3000 N 91Din !
$PAR  G(CUB_A13,NI:VA),,                +GHSERNI+2092;           3000 N 91Din !
 PAR  G(LIQUID,NI),,                    +GLIQNI;                 3000 N 91Din !
$
 FUNCTION GHSERNI   298.15  -5179.159+117.854*T-22.096*T*LN(T)-0.0048407*T**2;
      1728.00  Y  -27840.62+279.134977*T-43.1*T*LN(T)+1.12754E+31*T**(-9);
      3000.00  N !
 FUNCTION GLIQNI    298.15  +16414.686-9.397*T+GHSERNI-3.82318E-21*T**7;
      1728.00  Y  -9549.817+268.597977*T-43.1*T*LN(T);
      3000.00  N !
 FUNCTION GBCCNI    298.15  +GHSERNI+8715.084-3.556*T;                 3000 N !
$ ------------------------------------------------------------------------------
$ Si
$
 PAR  G(DIAMOND_A4,SI),,                +GHSERSI;                3600 N 91Din !
 PAR  G(FCC_A1,SI:VA),,                 +GHSERSI+51000-21.8*T;   3600 N 91Din !
 PAR  G(A1_FCC,SI:VA),,                 +GHSERSI+51000-21.8*T;   3600 N 91Din !
 PAR  G(BCC_A2,SI:VA),,                 +GHSERSI+47000-22.5*T;   3600 N 91Din !
 PAR  G(HCP_A3,SI:VA),,                 +GHSERSI+49200-20.8*T;   3600 N 91Din !
$PAR  G(CBCC_A12,SI:VA),,               +GHSERSI+50208-20.377*T; 3600 N 91Din !
$PAR  G(CUB_A13,SI:VA),,                +GHSERSI+47279-20.377*T; 3600 N 91Din !
 PAR  G(LIQUID,SI),,                    +GLIQSI;                 3600 N 91Din !
$
 FUNCTION GHSERSI   298.15  -8162.609+137.236859*T-22.8317533*T*LN(T)
       -0.001912904*T**2-3.552E-09*T**3+176667*T**(-1);
      1687.00  Y  -9457.642+167.281367*T-27.196*T*LN(T)-4.20369E+30*T**(-9);
      3600.00  N !
 FUNCTION GLIQSI    298.15  +50696.36-30.099439*T+GHSERSI+2.09307E-21*T**7;
      1687.00  Y  +40370.523+137.722298*T-27.196*T*LN(T);
      3600.00  N !
 FUNCTION GBCCSI    298.15  +GHSERSI+47000-22.5*T;               3600 N 91Din !
$ ------------------------------------------------------------------------------
$ Binary system
$
$ Y. Du, J.C. Schuster, Metall. Mater. Trans. A, 30A, 2409-18(1999).
$
$ Checked against paper, checked at 6000 K.
$
$ Modified from 96Lin.
$
$ There two! inverse miscibility gaps; one at x(Si)=0.35, T>5600 K,
$ another at x(Si)=0.92, T>2900
$
$ Misprint in paper: their L(LIQUID,NI,SI;2) is L(LIQUID,NI,SI;3)
$
$ There are up to 3 K differences in invariant equilibria involving
$ Ni2Si-theta.
$
$ The L12_FCC model cannot be converted to FCC_4SL without changing parameter
$ values. With the current parameters L10 becomes a stable phase. If the
$ parameters from 12Yua for NiSi_L10 and NiSi3_L12 are used Ni3Si_L12 is far
$ too stable. The 99Du parameters were adjusted. There is then a slight change
$ in the Ni3Si_L12 phase field.
$
 PAR  L(LIQUID,NI,SI;0),,               -205176.85+33.40446*T;,,      N 99Du !
 PAR  L(LIQUID,NI,SI;1),,               -114240.82+20.34156*T;,,      N 99Du !
 PAR  L(LIQUID,NI,SI;2),,               +ZERO;,,                      N 99Du !
 PAR  L(LIQUID,NI,SI;3),,               +116695.857-53.88609*T;,,     N 99Du !
$
 PAR  L(FCC_A1,NI,SI:VA;0),,            -204564.5+38.99204*T;,,       N 99Du !
 PAR  L(FCC_A1,NI,SI:VA;1),,            -82289.61;,,                  N 99Du !
$
 PAR  L(A1_FCC,NI,SI:VA;0),,            -204564.5+38.99204*T;,,       N 99Du !
 PAR  L(A1_FCC,NI,SI:VA;1),,            -82289.61;,,                  N 99Du !
$
 PAR  G(L12_FCC,NI:SI:VA),,             +3*UFNISI;,,                  N 99Du !
 PAR  G(L12_FCC,SI:NI:VA),,             +3*UFNISI;,,                  N 99Du !
 PAR  L(L12_FCC,NI,SI:NI:VA;0),,        +6*UFNISI;,,                  N 99Du !
 PAR  L(L12_FCC,NI,SI:SI:VA;0),,        +6*UFNISI;,,                  N 99Du !
 PAR  L(L12_FCC,NI:NI,SI:VA;0),,        +ZERO;,,                      N 99Du !
 PAR  L(L12_FCC,SI:NI,SI:VA;0),,        +ZERO;,,                      N 99Du !
 PAR  L(L12_FCC,NI,SI:NI:VA;1),,        +3*L1FNISI;,,                 N 99Du !
 PAR  L(L12_FCC,NI,SI:SI:VA;1),,        +3*L1FNISI;,,                 N 99Du !
 PAR  L(L12_FCC,NI:NI,SI:VA;1),,        +L1FNISI;,,                   N 99Du !
 PAR  L(L12_FCC,SI:NI,SI:VA;1),,        +L1FNISI;,,                   N 99Du !
$
$PAR  G(FCC_4SL,NI:NI:NI:SI:VA),,       -35712+11.07*T;,,             N 12Yua !
$PAR  G(FCC_4SL,NI:NI:NI:SI:VA),,       -28245+6*T;,,                N 17Hal13 !
$PAR  G(FCC_4SL,NI:NI:SI:SI:VA),,       +7649.4;,,                    N 12Yua !
$PAR  G(FCC_4SL,NI:SI:SI:SI:VA),,       +37790.1;,,                   N 12Yua !
$PAR  L(FCC_4SL,NI,SI:*:*:*:VA;1),,     -8886.4+3.6585*T;,,           N 12Yua !
$PAR  L(FCC_4SL,NI,SI:NI,SI:*:*:VA;0),, -25458.8;,,                   N 12Yua !
$
 PAR  G(NI3SI_M,NI:SI),,                +3*GHSERNI+GHSERSI
             -144506.1-9.63044*T;,,                                   N 99Du !
 PAR  G(NI3SI_H,NI:SI),,                +3*GHSERNI+GHSERSI
             -143815.8-10.12344*T;,,                                  N 99Du !
 PAR  G(NI5SI2,NI:SI),,                 +5*GHSERNI+2*GHSERSI
             -303488.9+2.32414*T;,,                                   N 99Du !
 PAR  G(NI2SI_C37,NI:SI),,              +2*GHSERNI+GHSERSI
             -128241.1-5.47659*T;,,                                   N 99Du !
$
 PAR  G(NI2SI_THETA,NI:NI:SI),,         +2*GHSERNI+GHSERSI
             -124473.6-7.83186*T;,,                                   N 99Du !
 PAR  G(NI2SI_THETA,NI:VA:SI),,         +GHSERNI+GHSERSI
             -77347.09+1.49818*T;,,                                   N 99Du !
 PAR  L(NI2SI_THETA,NI:NI,VA:SI;0),,    +17973.42;,,                  N 99Du !
$
 PAR  G(NI3SI2,NI:SI),,                 +3*GHSERNI+2*GHSERSI
             -217858.8+3.90115*T;,,                                   N 99Du !
 PAR  G(NISI_B31,NI:SI),,               +GHSERNI+GHSERSI
             -76423.44-1.84188*T;,,                                   N 99Du !
 PAR  G(NISI2_C1,NI:SI),,               +GHSERNI+2*GHSERSI
             -94542.19+11.29221*T;,,                                  N 99Du !
$
$ metastable
$
 PAR  L(BCC_A2,NI,SI:VA;0),,            -204564.5+38.99204*T;,,       N Same !
 PAR  L(BCC_A2,NI,SI:VA;1),,            -82289.61;,,                  N Same !
$
 PAR  L(HCP_A3,NI,SI:VA;0),,            -204564.5+38.99204*T;,,       N Same !
 PAR  L(HCP_A3,NI,SI:VA;1),,            -82289.61;,,                  N Same !
$
$ These are the functions from 99Du (only used for FCC_L12) 
 FUNCTION UFNISI    298.15  -15064.2+1.60196*T;                        6000 N !
 FUNCTION GFNISI3   298.15  +3*UFNISI;                                 6000 N !
 FUNCTION GFNI3SI   298.15  +3*UFNISI;                                 6000 N !
 FUNCTION GFNI2SI2  298.15  +4*UFNISI;                                 6000 N !
 FUNCTION L1FNISI   298.15  -8473.4+3.34671*T;                         6000 N !
$ ------------------------------------------------------------------------------
$
 ASSESSED_SYSTEM
  NI-SI(TDB -* +LIQUID +A1_FCC +L12_FCC +NISI2_C1 +NI3SI_M
  +NI3SI_H +NI2SI_C37 +DIAMOND_A4 +NI3SI2 +NI5SI2 +NISI_B31 +NI2SI_THETA
  ;G5 C_S:L12_FCC/NI:SI:VA  ;P3 TMM:300/2000 STP:.2/1000/-1) !
$
$
 LIST-OF-REFERENCE
 NUMBER  SOURCE
  Null   'Unknown source'
  Same   'Same or similar interaction as in the corresponding stable phase'
  REFLAV 'Laves phase convention: G(LAVES,X:X)=+3*GHSERXX+15000'
  91Din  'A.T. Dinsdale, Calphad, 15, 317-425(1991).'
  99Du   'Y. Du, J.C. Schuster,
          Metall. Mater. Trans. A, 30A, 2409-18(1999); Ni-Si'
  99Gho  'G. Ghosh, Metall. Mater. Trans. A, 30A, 1481-94(1999),
          SGTE unary database V.5.0, 2009; Ni'
  12Yua  'X. Yuan, L. Zhang, Y. Du, W. Xiong, Y. Tang, A. Wang, S. Liu,
          Mater. Chem. Phys., 135, 94-105(2012); Ni-Si'
  17Hal13 'B. Hallstedt, modified FCC_4SL ordering, 2017; Ni-Si'
!
