$
$ Database for Co-Cr from J.C. Pereira dos Santos et al. 2024.
$
$ J.C. Pereira dos Santos, S. Griesemer, N. Dupin, U.R. Kattner, C. Liu,
$ D. Ivanova, T. Hammerschmidt, S.G. Fries, C. Wolverton, C.E. Campbell,
$ J. Phase Equilib. Diffus., 45, 330-57(2024).
$
$ Dataset created 2023.11.20 by Bengt Hallstedt.
$
$ A 5-sl EBEF add-on model is used for sigma. Non-sigma parameters are from
$ 19Wan.
$
$ ------------------------------------------------------------------------------
 TEMP-LIM 298.15 6000.00 !
$
$ELEMENT NAME  REF. STATE               ATOMIC MASS H298-H0    S298    !
$
 ELEMENT VA   VACUUM                      0.0          0.0      0.0    ! 
 ELEMENT CO   HCP_A3                     58.9332    4765.567   30.0400 ! 
 ELEMENT CR   BCC_A2                     51.996     4050.0     23.5429 ! 
$ ------------------------------------------------------------------------------
$ Phase definitions
$
 PHASE LIQUID:L % 1 1 !
 CONST LIQUID:L : CO CR : !
$
$ Fcc (cF4, Fm-3m) and MeX (cF8, Fm-3m)
$
 PHASE FCC_A1 %A 2 1 1 !
 CONST FCC_A1 : CO% CR : VA : !
$
$ Bcc (cI2, Im-3m)
$
 PHASE BCC_A2 %B 2 1 3 !
 CONST BCC_A2 : CO CR% : VA : !
$
$ Hcp (hP2, P6_3/mmc) and Me2X (NiAs-type, hP4, P6_3/mmc, B8_1)
$
 PHASE HCP_A3 %A 2 1 0.5 !
 CONST HCP_A3 : CO% CR : VA : !
$
$ Disordered contribution to SIGMA_D8B
$
 PHASE DIS_SIG %A 1 1 !
 CONST DIS_SIG : CO CR : !
$
$ Prototype CrFe (tP30, P4_2/mnm)
$
 PHASE SIGMA_D8B %AS 5 2 4 8 8 8 !
 CONST SIGMA_D8B : CO CR : CO CR : CO CR : CO CR : CO CR : !
$ ------------------------------------------------------------------------------
$ Defaults
$
 DEFINE-SYSTEM-DEFAULT ELEMENT 2 !
 DEFAULT-COM DEFINE_SYSTEM_ELEMENT VA !
 TYPE-DEF % SEQ * !
 TYPE-DEF A GES AMEND_PHASE_DESCRIPTION @ MAGNETIC -3 0.28 !
 TYPE-DEF B GES AMEND_PHASE_DESCRIPTION @ MAGNETIC -1 0.4 !
 TYPE-DEF S GES AMEND_PHASE_DESCRIPTION SIGMA_D8B NEVER_DIS DIS_SIG !
 FUNCTION ZERO      298.15  0;                                         6000 N !
 FUNCTION UN_ASS    298.15  0;                                         6000 N !
 FUNCTION R         298.15  +8.31451;                                  6000 N !
$ ------------------------------------------------------------------------------
$ Element data
$ ------------------------------------------------------------------------------
$ Co
$
 PAR  G(HCP_A3,CO:VA),,                 +GHSERCO;,,                   N 91Din !
 PAR  TC(HCP_A3,CO:VA),,                 1396.00;,,                   N 91Din !
 PAR  BMAG(HCP_A3,CO:VA),,                  1.35;,,                   N 91Din !
 PAR  G(FCC_A1,CO:VA),,                 +GHSERCO
             +427.591-0.615248*T;,,                                   N 91Din !
 PAR  TC(FCC_A1,CO:VA),,                 1396.00;,,                   N 91Din !
 PAR  BMAG(FCC_A1,CO:VA),,                  1.35;,,                   N 91Din !
 PAR  G(BCC_A2,CO:VA),,                 +GHSERCO+2938-0.7138*T;,,     N 91Din !
 PAR  TC(BCC_A2,CO:VA),,                 1450.00;,,                   N 91Din !
 PAR  BMAG(BCC_A2,CO:VA),,                  1.35;,,                   N 91Din !
$PAR  G(CBCC_A12,CO:VA),,               +GHSERCO+4155;,,              N 91Din !
$PAR  G(CUB_A13,CO:VA),,                +GHSERCO+3155;,,              N 91Din !
 PAR  G(LIQUID,CO),,                    +GLIQCO;,,                    N 91Din !
$
 PAR  G(DIS_SIG,CO),,                   +GHSERCO+6010.18+0.5*T;,,     N 24Per !
 PAR  TC(DIS_SIG,CO),,                   1426.61;,,                   N 24Per !
 PAR  BMAG(DIS_SIG,CO),,                    1.62;,,                   N 24Per !
$
 FUNCTION GHSERCO   298.15  +310.241+133.36601*T-25.0861*T*LN(T)
       -0.002654739*T**2-1.7348E-07*T**3+72527*T**(-1);
      1768.00  Y  -17197.666+253.28374*T-40.5*T*LN(T)+9.3488E+30*T**(-9);
      6000.00  N !
 FUNCTION GLIQCO    298.15  +15085.037-8.931932*T+GHSERCO-2.19801E-21*T**7;
      1768.00  Y  -846.61+243.599944*T-40.5*T*LN(T);
      6000.00  N !
 FUNCTION GFCCCO    298.15  +GHSERCO+427.59-0.615248*T;                6000 N !
 FUNCTION GBCCCO    298.15  +GHSERCO+2938-0.7138*T;                    6000 N !
$ ------------------------------------------------------------------------------
$ Cr
$
 PAR  G(BCC_A2,CR:VA),,                 +GHSERCR;,,                   N 91Din !
 PAR  TC(BCC_A2,CR:VA),,                 -311.50;,,                   N 91Din !
 PAR  BMAG(BCC_A2,CR:VA),,                 -0.008;,,                  N 91Din !
 PAR  G(FCC_A1,CR:VA),,                 +GHSERCR+7284+0.163*T;,,      N 91Din !
 PAR  TC(FCC_A1,CR:VA),,                -1109.00;,,                   N 91Din !
 PAR  BMAG(FCC_A1,CR:VA),,                 -2.46;,,                   N 91Din !
 PAR  G(HCP_A3,CR:VA),,                 +GHSERCR+4438;,,              N 91Din !
 PAR  TC(HCP_A3,CR:VA),,                -1109.00;,,                   N 91Din !
 PAR  BMAG(HCP_A3,CR:VA),,                 -2.46;,,                   N 91Din !
$PAR  G(CBCC_A12,CR:VA),,               +GHSERCR+11087+2.7196*T;,,    N 91Din !
$PAR  G(CUB_A13,CR:VA),,                +GHSERCR+15899+0.6276*T;,,    N 91Din !
 PAR  G(LIQUID,CR),,                    +GLIQCR;,,                    N 91Din !
$
 PAR  G(DIS_SIG,CR),,                   +GHSERCR+12299.3-3*T;,,       N 24Per !
$
 FUNCTION GHSERCR   298.15  -8856.94+157.48*T-26.908*T*LN(T)
       +0.00189435*T**2-1.47721E-06*T**3+139250*T**(-1);
      2180.00  Y  -34869.344+344.18*T-50*T*LN(T)-2.88526E+32*T**(-9);
      6000.00  N !
 FUNCTION GLIQCR    298.15  +24339.955-11.420225*T+GHSERCR+2.37615E-21*T**7;
      2180.00  Y  -16459.984+335.616316*T-50*T*LN(T);
      6000.00  N !
 FUNCTION GFCCCR    298.15  +GHSERCR+7284+0.163*T;                     6000 N !
$ ------------------------------------------------------------------------------
$ Binary system
$
$ J.C. Pereira dos Santos, S. Griesemer, N. Dupin, U.R. Kattner, C. Liu,
$ D. Ivanova, T. Hammerschmidt, S.G. Fries, C. Wolverton, C.E. Campbell,
$ J. Phase Equilib. Diffus., 45, 330-57(2024).
$
$ Checked against paper and author's tdb. Checked at 6000 K.
$
$ A 5-sl EBEF add-on model is used for sigma. Non-sigma parameters are from
$ 19Wan.
$
 PAR  L(LIQUID,CO,CR;0),,               -12725.3;,,                   N 19Wan !
 PAR  L(LIQUID,CO,CR;1),,               -1458.5;,,                    N 19Wan !
$
 PAR  L(FCC_A1,CO,CR:VA;0),,            -2256.2-7.3908*T;,,           N 19Wan !
 PAR  L(FCC_A1,CO,CR:VA;1),,            -3578.5;,,                    N 19Wan !
 PAR  TC(FCC_A1,CO,CR:VA;0),,           -6860;,,                      N 19Wan !
 PAR  TC(FCC_A1,CO,CR:VA;1),,           +5216;,,                      N 19Wan !
$
 PAR  L(BCC_A2,CO,CR:VA;0),,            +12652.9-11.0201*T;,,         N 19Wan !
 PAR  L(BCC_A2,CO,CR:VA;1),,            -9092.2;,,                    N 19Wan !
$
 PAR  L(HCP_A3,CO,CR:VA;0),,            -8859.4+1.323*T;,,            N 19Wan !
 PAR  L(HCP_A3,CO,CR:VA;1),,            -4432;,,                      N 19Wan !
 PAR  TC(HCP_A3,CO,CR:VA;0),,           -6572;,,                      N 19Wan !
 PAR  TC(HCP_A3,CO,CR:VA;1),,           +5811;,,                      N 19Wan !
$
 PAR  L(DIS_SIG,CO,CR;0),,              -15000-2.95*T;,,              N 24Per !
 PAR  TC(DIS_SIG,CO,CR;0),,             -2800;,,                      N 24Per !
 PAR  BMAG(DIS_SIG,CO,CR;0),,              -3;,,                      N 24Per !
$
 PAR  G(SIGMA_D8B,CO:CR:*:*:*),,        -24874.19;,,                  N 24Per !
 PAR  G(SIGMA_D8B,CO:*:CR:*:*),,        -4756.93;,,                   N 24Per !
 PAR  G(SIGMA_D8B,CO:*:*:CR:*),,        +1305.06;,,                   N 24Per !
 PAR  G(SIGMA_D8B,CO:*:*:*:CR),,        -19347.86;,,                  N 24Per !
 PAR  G(SIGMA_D8B,*:CO:CR:*:*),,        +75635.2;,,                   N 24Per !
 PAR  G(SIGMA_D8B,*:CO:*:CR:*),,        -9765.8;,,                    N 24Per !
 PAR  G(SIGMA_D8B,*:CO:*:*:CR),,        +51513.38;,,                  N 24Per !
 PAR  G(SIGMA_D8B,*:*:CO:CR:*),,        -37065.36;,,                  N 24Per !
 PAR  G(SIGMA_D8B,*:*:CO:*:CR),,        -20426.41;,,                  N 24Per !
 PAR  G(SIGMA_D8B,*:*:*:CO:CR),,        -106162.26;,,                 N 24Per !
 PAR  G(SIGMA_D8B,CR:CO:*:*:*),,        +14204.81;,,                  N 24Per !
 PAR  G(SIGMA_D8B,CR:*:CO:*:*),,        +41367.27;,,                  N 24Per !
 PAR  G(SIGMA_D8B,CR:*:*:CO:*),,        -31589.51;,,                  N 24Per !
 PAR  G(SIGMA_D8B,CR:*:*:*:CO),,        -10004.9;,,                   N 24Per !
 PAR  G(SIGMA_D8B,*:CR:CO:*:*),,        -25216.91;,,                  N 24Per !
 PAR  G(SIGMA_D8B,*:CR:*:CO:*),,        +40944.75;,,                  N 24Per !
 PAR  G(SIGMA_D8B,*:CR:*:*:CO),,        +6990.51;,,                   N 24Per !
 PAR  G(SIGMA_D8B,*:*:CR:CO:*),,        -116084.13;,,                 N 24Per !
 PAR  G(SIGMA_D8B,*:*:CR:*:CO),,        -625.21;,,                    N 24Per !
 PAR  G(SIGMA_D8B,*:*:*:CR:CO),,        +43972.58;,,                  N 24Per !
$ ------------------------------------------------------------------------------
$
 ASSESSED_SYSTEM
  CO-CR(TDB -* +LIQ +HCP_A3 +BCC_A2 +FCC_A1 +SIGMA_D8B
  ;G5 C_S:FCC/CO:VA ;P3 TMM:300/3000 STP:.1/1100) !
$
$
 LIST-OF-REFERENCE
 NUMBER  SOURCE
  Null   'Unknown source'
  Same   'Same or similar interaction as in the corresponding stable phase'
  REFLAV 'Laves phase convention: G(LAVES,X:X)=+3*GHSERXX+15000'
  91Din  'A.T. Dinsdale, Calphad, 15, 317-425(1991).'
  19Wan  'P. Wang, M.C. Peters, U.R. Kattner, K. Choudhary, G.B. Olson,
          Intermetallics, 105, 13-20(2019); Co-Cr'
  24Per  'J.C. Pereira dos Santos, S. Griesemer, N. Dupin, U.R. Kattner, C. Liu,
          D. Ivanova, T. Hammerschmidt, S.G. Fries, C. Wolverton, C.E. Campbell,
          J. Phase Equilib. Diffus., 45, 330-57(2024); Co-Cr'
!
