$
$ Database for Ag-Yb from L.G. Zhang et al. 2008.
$
$ L.G. Zhang, F.G. Meng, H.S. Liu, L.B. Liu, Z.P. Jin,
$ J. Alloys Compd., 452, 304-6(2008).
$
$ Dataset created 2018.03.24 by Bengt Hallstedt.
$ 2020.12.20: Modified for use with GES6.
$
$ ------------------------------------------------------------------------------
 TEMP-LIM 298.15 6000.00 !
$
$ELEMENT NAME  REF. STATE               ATOMIC MASS H298-H0    S298    !
$
 ELEMENT VA   VACUUM                      0.0          0.0      0.0    ! 
 ELEMENT AG   FCC_A1                    107.8682    5745.      42.55   ! 
 ELEMENT YB   FCC_A1                    173.04      6711.136   59.8312 ! 
$ ------------------------------------------------------------------------------
$ Phase definitions
$
 PHASE LIQUID:L % 1 1 !
 CONST LIQUID:L : AG YB : !
$
$ Fcc (cF4, Fm-3m) and MeX (cF8, Fm-3m)
$
 PHASE FCC_A1 %A 2 1 1 !
 CONST FCC_A1 : AG% YB% : VA : !
$
$ Bcc (cI2, Im-3m)
$
 PHASE BCC_A2 %B 2 1 3 !
 CONST BCC_A2 : AG YB% : VA : !
$
$ Hcp (hP2, P6_3/mmc) and Me2X (NiAs-type, hP4, P6_3/mmc, B8_1)
$
 PHASE HCP_A3 %A 2 1 0.5 !
 CONST HCP_A3 : AG YB : VA : !
$
$ unknown structure
$
 PHASE AG9YB2 % 2 9 2 !
 CONST AG9YB2 : AG : YB : !
$
$ Prototype Ag7Yb2 (oC36, Cmcm)
$
 PHASE AG7YB2 % 2 7 2 !
 CONST AG7YB2 : AG : YB : !
$
$ Prototype Hg2K (oI12, Imma)
$
 PHASE AG2YB % 2 2 1 !
 CONST AG2YB : AG : YB : !
$
$ Prototype FeB (oP8, Pnma)
$
 PHASE AGYB_B27 %A 2 1 1 !
 CONST AGYB_B27 : AG : YB : !
$
$ Prototype CsCl (cP2, Pm-3m)
$
 PHASE AGYB_B2 %A 2 1 1 !
 CONST AGYB_B2 : AG : YB : !
$
$ Prototype Si2U3 (tP10, P4/mbm)
$
 PHASE AG2YB3_D5A % 2 2 3 !
 CONST AG2YB3_D5A : AG : YB : !
$
$ Prototype Cr5B3 (tI32, I4/mcm)
$
 PHASE AG3YB5_D8L % 2 3 5 !
 CONST AG3YB5_D8L : AG : YB : !
$ ------------------------------------------------------------------------------
$ Defaults
$
 DEFINE-SYSTEM-DEFAULT ELEMENT 2 !
 DEFAULT-COM DEFINE_SYSTEM_ELEMENT VA !
 TYPE-DEF % SEQ * !
 TYPE-DEF A GES AMEND_PHASE_DESCRIPTION @ MAGNETIC -3 0.28 !
 TYPE-DEF B GES AMEND_PHASE_DESCRIPTION @ MAGNETIC -1 0.4 !
 FUNCTION ZERO      298.15  0;                                         6000 N !
 FUNCTION UN_ASS    298.15  0;                                         6000 N !
 FUNCTION R         298.15  +8.31451;                                  6000 N !
$ ------------------------------------------------------------------------------
$ Element data
$ ------------------------------------------------------------------------------
$ Ag
$
$ CUB_A13 added in unary 3.0
$ CUB_A13 revised in unary 4.1
$ BCT_A5 added in unary 4.1
$
$ DHCP from 09Wan not included in unary
$
 PAR  G(FCC_A1,AG:VA),,                 +GHSERAG;                3000 N 91Din !
 PAR  G(HCP_A3,AG:VA),,                 +GHSERAG+300+0.3*T;      3000 N 91Din !
 PAR  G(BCC_A2,AG:VA),,                 +GHSERAG+3400-1.05*T;    3000 N 91Din !
$PAR  G(CUB_A13,AG:VA),,                +GHSERAG+3400-1.05*T;    3000 N 95Lim !
$PAR  G(CUB_A13,AG:VA),,                +GHSERAG
$            +3765.6-1.8826*T;                                   3000 N 96SGUN !
$PAR  G(BCT_A5,AG),,                    +GHSERAG+4184.1;         3000 N 96Oh !
$PAR  G(DHCP,AG),,                      +GHSERAG+1000;           3000 N 09Wan2 !
 PAR  G(LIQUID,AG),,                    +GLIQAG;                 3000 N 91Din !
$
 FUNCTION GHSERAG   298.15  -7209.512+118.202013*T-23.8463314*T*LN(T)
       -0.001790585*T**2-3.98587E-07*T**3-12011*T**(-1);
      1234.93  Y  -15095.252+190.266404*T-33.472*T*LN(T)+1.411773E+29*T**(-9);
      3000.00  N !
 FUNCTION GLIQAG    298.15  +11025.076-8.89102*T+GHSERAG-1.033905E-20*T**7;
      1234.93  Y  -3587.111+180.964656*T-33.472*T*LN(T);
      3000.00  N !
 FUNCTION GBCCAG    298.15  +GHSERAG+3400-1.05*T;                      6000 N !
$ ------------------------------------------------------------------------------
$ Yb
$
$ HCP_A3 added in unary 5.0
$
 PAR  G(FCC_A1,YB:VA),,                 +GHSERYB;                2000 N 91Din !
 PAR  G(BCC_A2,YB:VA),,                 +GBCCYB;                 2000 N 91Din !
 PAR  G(HCP_A3,YB:VA),,                 +GHSERYB+5000;           2000 N 06Guo !
 PAR  G(LIQUID,YB),,                    +GLIQYB;                 2000 N 91Din !
$
 FUNCTION GHSERYB   298.15  -9370.941+189.327664*T-40.0791*T*LN(T)
       +0.04227115*T**2-2.2242E-05*T**3;
       553.00  Y  -8192.154+121.065655*T-26.7591*T*LN(T)-0.00256065*T**2;
      1033.00  Y  +16034.89-89.478241*T+2.7623966*T*LN(T)
       -0.017961331*T**2+1.421719E-06*T**3-3631462*T**(-1);
      2000.00  N !
 FUNCTION GBCCYB    298.15  -965.99-21.293677*T-3.8534432*T*LN(T)
       -0.030009694*T**2+4.743871E-06*T**3-334650*T**(-1);
      1033.00  Y  -13368.113+188.313864*T-36.1079*T*LN(T);
      1097.00  Y  -3911.847+113.174165*T-25.7402233*T*LN(T)
       -0.004743348*T**2+3.63044E-07*T**3-1553668*T**(-1);
      2000.00  N !
 FUNCTION GLIQYB    298.15  +7030.788-40.615571*T-1.8061816*T*LN(T)
       -0.03250938*T**2+5.136665E-06*T**3-370554*T**(-1);
      1033.00  Y  -6445.835+186.690398*T-36.7774*T*LN(T);
      2000.00  N !
 FUNCTION GHCPYB    298.15  +GHSERYB+5000;                             2000 N !
$ ------------------------------------------------------------------------------
$ Binary system
$
$ L.G. Zhang, F.G. Meng, H.S. Liu, L.B. Liu, Z.P. Jin,
$ J. Alloys Compd., 452, 304-6(2008).
$
$ Checked against paper. Checked at 6000 K.
$
 PAR  L(LIQUID,AG,YB;0),,               -77285.337+24.999*T;,,        N 08Zha !
 PAR  L(LIQUID,AG,YB;1),,               -10774.088+2.205*T;,,         N 08Zha !
$
 PAR  L(FCC_A1,AG,YB:VA;0),,            +ZERO;,,                      N 08Zha !
 PAR  L(FCC_A1,AG,YB:VA;1),,            -29495.384;,,                 N 08Zha !
$
 PAR  L(BCC_A2,AG,YB:VA;0),,            +UN_ASS;,,                    N 08Zha !
$
 PAR  G(AG9YB2,AG:YB),,                 +9*GHSERAG+2*GHSERYB
             -143390.929+26.444*T;,,                                  N 08Zha !
 PAR  G(AG7YB2,AG:YB),,                 +7*GHSERAG+2*GHSERYB
             -120289.734+6.381*T;,,                                   N 08Zha !
 PAR  G(AG2YB,AG:YB),,                  +2*GHSERAG+GHSERYB
             -44189.868-1.5*T;,,                                      N 08Zha !
 PAR  G(AGYB_B27,AG:YB),,               +GHSERAG+GHSERYB
             -33256.962-1.2*T;,,                                      N 08Zha !
 PAR  G(AGYB_B2,AG:YB),,                +GHSERAG+GHSERYB
             -32504.514-2.232*T;,,                                    N 08Zha !
 PAR  G(AG2YB3_D5A,AG:YB),,             +2*GHSERAG+3*GHSERYB
             -92485.44+16.095*T;,,                                    N 08Zha !
 PAR  G(AG3YB5_D8L,AG:YB),,             +3*GHSERAG+5*GHSERYB
             -151951.912+37.704*T;,,                                  N 08Zha !
$
$ Metastable
$
 PAR  L(HCP_A3,AG,YB:VA;0),,            +ZERO;,,                      N Same !
 PAR  L(HCP_A3,AG,YB:VA;1),,            -29495.384;,,                 N Same !
$ ------------------------------------------------------------------------------
$
$
 LIST-OF-REFERENCE
 NUMBER  SOURCE
  Null   'Unknown source'
  Same   'Same or similar interaction as in the corresponding stable phase'
  COST   'COST 507 database'
  91Din  'A.T. Dinsdale, Calphad, 15, 317-425(1991).'
  95Lim  'S.S. Lim, P.L. Rossiter, J.W. Tibballs, Calphad, 19, 131-41(1995),
          SGTE unary database V.4.1, 1999; Ag'
  96Oh   'C.-S. Oh, J.-H. Shim, B.-J. Lee, D.N. Lee,
          J. Alloys Compounds, 238, 155-66(1996),
          SGTE unary database V.4.1, 1999; Ag'
  96SGUN 'SGTE unary database V.3.0, 1996.'
  06Guo  'C. Guo, Z. Du, J. Alloys Compd., 422, 102-8(2006),
          SGTE unary database V.5.0, 2009; Yb'
  08Zha  'L.G. Zhang, F.G. Meng, H.S. Liu, L.B. Liu, Z.P. Jin,
          J. Alloys Compd., 452, 304-6(2008); Ag-Yb'
  09Wan2 'S.L. Wang, C.P. Wang, X.J. Liu, K. Ishida,
          J. Alloys Compd., 476, 245-52(2009); Ag'
!
