$
$ Database for Hg-Mg from Y. Feng et al. 2009
$
$ Y. Feng, R.C. Wang, C.Q. Peng, H.S. Liu,
$ J. Cent. South Univ. Technol., 16, 32-37(2009).
$
$ Dataset created 2016.05.26 by Bengt Hallstedt.
$ 2021.01.17: Modified for use with GES6.
$
$ Compound compositions are changed from fractional to integer. This causes
$ shifts in some invariant temperatures by up to 3 K.
$
$ 09Fen used a different lattice stability for hcp-Hg. This causes a minimal
$ change in the Hg solubility in hcp-Mg.
$
$ There is an inverse miscibility gap with a minimum at 4706 K and x(Mg)=0.79.
$
$ ------------------------------------------------------------------------------
 TEMP-LIM 298.15 6000.00 !
$
$ELEMENT NAME  REF. STATE               ATOMIC MASS H298-H0    S298    !
$
 ELEMENT VA   VACUUM                      0.0          0.0      0.0    ! 
 ELEMENT HG   LIQUID                    200.59      9342.      75.90   ! 
 ELEMENT MG   HCP_A3                     24.305     4998.      32.671  !
$ ------------------------------------------------------------------------------
$ Phase definitions
$
 PHASE LIQUID:L % 1 1 !
 CONST LIQUID:L : HG MG : !
$
$ Fcc (cF4, Fm-3m) and MeX (cF8, Fm-3m)
$
 PHASE FCC_A1 %A 2 1 1 !
 CONST FCC_A1 : HG MG : VA : !
$
$ Bcc (cI2, Im-3m)
$
 PHASE BCC_A2 %B 2 1 3 !
 CONST BCC_A2 : MG : VA : !
$
$ Hcp (hP2, P6_3/mmc) and Me2X (NiAs-type, hP4, P6_3/mmc, B8_1)
$
 PHASE HCP_A3 %A 2 1 0.5 !
 CONST HCP_A3 : HG MG% : VA : !
$
$ Prototype Hg (hR1, R-3m)
$
 PHASE RHOMBO_A10 % 1 1 !
 CONST RHOMBO_A10 : HG : !
$
$ Prototype MoSi2 (tI6, I4/mmm)
$
 PHASE HG2MG_C11B % 2 2 1 !
 CONST HG2MG_C11B : HG : MG : !
$
$ Prototype CsCl (cP2, Pm-3m)
$
 PHASE HGMG_B2 % 2 1 1 !
 CONST HGMG_B2 : HG : MG : !
$
$ Prototype Mn5Si3 (hP16, P6_3/mcm)
$
 PHASE HG3MG5_D88 % 2 3 5 !
 CONST HG3MG5_D88 : HG : MG : !
$
$ Prototype Co2Si (oP12, Pnma)
$
 PHASE HGMG2_C37 % 2 1 2 !
 CONST HGMG2_C37 : HG : MG : !
$
$ unknown structure
$
 PHASE HG2MG5 % 2 2 5 !
 CONST HG2MG5 : HG : MG : !
$
$ Prototype HgMg3 (hR24, R32)
$
 PHASE HGMG3 % 2 1 3 !
 CONST HGMG3 : HG : MG : !
$ ------------------------------------------------------------------------------
$ Defaults
$
 DEFINE-SYSTEM-DEFAULT ELEMENT 2 !
 DEFAULT-COM DEFINE_SYSTEM_ELEMENT VA !
 TYPE-DEF % SEQ * !
 TYPE-DEF A GES AMEND_PHASE_DESCRIPTION @ MAGNETIC -3 0.28 !
 TYPE-DEF B GES AMEND_PHASE_DESCRIPTION @ MAGNETIC -1 0.4 !
 FUNCTION ZERO      298.15  0;                                         6000 N !
 FUNCTION UN_ASS    298.15  0;                                         6000 N !
 FUNCTION R         298.15  +8.31451;                                  6000 N !
$ ------------------------------------------------------------------------------
$ Element data
$ ------------------------------------------------------------------------------
$ Hg
$
$ HCP_A3 and TETRAGONAL_A6 added in unary 4.1
$ FCC_A1 added in unary 5.0
$
 PAR  G(LIQUID,HG)              200.00  +GHSERHG;                2000 N 91Din !
 PAR  G(RHOMBO_A10,HG)          200.00  +GRHOHG;                 2000 N 91Din !
 PAR  G(FCC_A1,HG:VA)           200.00  +GHSERHG+5+8.368*T;      2000 N 02Mai !
 PAR  G(HCP_A3,HG:VA)           200.00  +GRHOHG+200+0.7*T;       2000 N 95Yan !
$PAR  G(TETRAGONAL_A6,HG)       200.00  +GRHOHG
$            +208.68+1.765592*T;                                 2000 N 95Yan !
$
 FUNCTION GHSERHG   200.00  +82356.855-3348.19466*T+618.193308*T*LN(T)
       -2.0282337*T**2+0.00118398213*T**3-2366612*T**(-1);
       234.32  Y  -8961.207+135.232291*T-32.257*T*LN(T)
       +0.0097977*T**2-3.20695E-06*T**3+6670*T**(-1);
       400.00  Y  -7970.627+112.33345*T-28.414*T*LN(T)
       +0.00318535*T**2-1.077802E-06*T**3-41095*T**(-1);
       700.00  Y  -7161.338+90.797305*T-24.87*T*LN(T)
       -0.00166775*T**2+8.737E-09*T**3-27495*T**(-1);
      2000.00  N !
 FUNCTION GRHOHG    200.00  -10668.401+123.274598*T-28.847*T*LN(T)
       +0.01699705*T**2-2.4555667E-05*T**3+13330*T**(-1);
       234.32  Y  -11425.394+135.928158*T-30.2091*T*LN(T)
       +0.00107555*T**2-2.28298E-07*T**3+35545*T**(-1);
      2000.00  N !
$ ------------------------------------------------------------------------------
$ Mg
$
 PAR  G(FCC_A1,MG:VA),,                 +GHSERMG+2600-0.9*T;     3000 N 91Din !
 PAR  G(BCC_A2,MG:VA),,                 +GHSERMG+3100-2.1*T;     3000 N 91Din !
 PAR  G(HCP_A3,MG:VA),,                 +GHSERMG;                3000 N 91Din !
 PAR  G(LIQUID,MG),,                    +GLIQMG;                 3000 N 91Din !
$
 FUNCTION GHSERMG   298.15  -8367.34+143.675547*T-26.1849782*T*LN(T)
       +4.858E-04*T**2-1.393669E-06*T**3+78950*T**(-1);
       923.00  Y  -14130.185+204.716215*T-34.3088*T*LN(T)+1.038192E+28*T**(-9);
      3000.00  N !
 FUNCTION GLIQMG    298.15  +8202.243-8.83693*T+GHSERMG-8.0176E-20*T**7;
       923.00  Y  -5439.869+195.324057*T-34.3088*T*LN(T);
      3000.00  N !
$ ------------------------------------------------------------------------------
$ Binary system
$
$ Y. Feng, R.C. Wang, C.Q. Peng, H.S. Liu,
$ J. Cent. South Univ. Technol., 16, 32-37(2009).
$
$ Checked against paper. Checked at 6000 K.
$
$ Compound compositions are changed from fractional to integer. This causes
$ shifts in some invariant temperatures by up to 3 K.
$
$ 09Fen used a different lattice stability for hcp-Hg. This causes a minimal
$ change in the Hg solubility in hcp-Mg.
$
$ There is an inverse miscibility gap with a minimum at 4706 K and x(Mg)=0.79.
$
 PAR  L(LIQUID,HG,MG;0),,               -82826+25.4*T;,,              N 09Fen1 !
 PAR  L(LIQUID,HG,MG;1),,               +16815.4-11.98*T;,,           N 09Fen1 !
 PAR  L(LIQUID,HG,MG;2),,               +12147.2;,,                   N 09Fen1 !
$
 PAR  L(HCP_A3,HG,MG:VA;0),,            -44012.9+1.21*T;,,            N 09Fen1 !
$
 PAR  G(HG2MG_C11B,HG:MG),,             +2*GRHOHG+GHSERMG
             -60450.3+13.56*T;,,                                      N 09Fen1 !
 PAR  G(HGMG_B2,HG:MG),,                +GRHOHG+GHSERMG
             -56244+11.48*T;,,                                        N 09Fen1 !
 PAR  G(HG3MG5_D88,HG:MG),,             +3*GRHOHG+5*GHSERMG
             -216925.6+61.28*T;,,                                     N 09Fen1 !
 PAR  G(HGMG2_C37,HG:MG),,              +GRHOHG+2*GHSERMG
             -79340.4+24.45*T;,,                                      N 09Fen1 !
 PAR  G(HG2MG5,HG:MG),,                 +2*GRHOHG+5*GHSERMG
             -165342.1+52.43*T;,,                                     N 09Fen1 !
 PAR  G(HGMG3,HG:MG),,                  +GRHOHG+3*GHSERMG
             -82485.6+24.12*T;,,                                      N 09Fen1 !
$
$ Metastable
$
 PAR  L(FCC_A1,HG,MG:VA;0),,            -44012.9+1.21*T;,,            N Same !
 PAR  L(BCC_A2,HG,MG:VA;0),,            -44012.9+1.21*T;,,            N Same !
$ ------------------------------------------------------------------------------
$
$
 LIST-OF-REFERENCE
 NUMBER  SOURCE
  Null   'Unknown source'
  Same   'Same or similar interaction as in the corresponding stable phase'
  REFLAV 'Laves phase convention: G(LAVES,X:X)=+3*GHSERXX+15000'
  COST   'COST 507 database, 1998'
  91Din  'A.T. Dinsdale, Calphad, 15, 317-425(1991).'
  95Yan  'J. Yang, N.J. Silk, A. Watson, A.W. Bryant, T.G. Chart, B.B. Argent,
          Calphad, 19, 415-30(1995), SGTE unary database V.4.1, 1999; Cd, Hg'
  02Mai  'A. Maitre, J.M. Fiorani, M. Vilasi, J. Phase Equilib.,
          23, 329-38(2002), SGTE unary database V.5.0, 2009; Hg'
  09Fen1 'Y. Feng, R.C. Wang, C.Q. Peng, H.S. Liu,
          J. Cent. South Univ. Technol., 16, 32-37(2009); Hg-Mg'
!
