$
$ Database for Li-Sn from Z. Du et al. 2006.
$
$ Z. Du, Z. Jiang, C. Guo, Z. Metallkd., 97, 10-16(2006).
$
$ Dataset created 2023.03.04 by Bengt Hallstedt.
$
$ Huge inverse stability range of bcc starting at 1015 K, which is below the
$ melting temperature of Li7Sn2.
$
$ ------------------------------------------------------------------------------
 TEMP-LIM 298.15 6000.00 !
$
$ELEMENT NAME  REF. STATE               ATOMIC MASS H298-H0    S298    !
$
 ELEMENT VA   VACUUM                      0.0          0.0      0.0    ! 
 ELEMENT LI   BCC_A2                      6.941     4632.00    29.12   ! 
 ELEMENT SN   BCT_A5                    118.69      6323.      51.18   ! 
$ ------------------------------------------------------------------------------
$ Phase definitions
$
 PHASE LIQUID:L % 1 1 !
 CONST LIQUID:L : LI SN : !
$
$ Fcc (cF4, Fm-3m) and MeX (cF8, Fm-3m)
$
 PHASE FCC_A1 % 2 1 1 !
 CONST FCC_A1 : LI SN : VA : !
$
$ Bcc (cI2, Im-3m)
$
 PHASE BCC_A2 %B 2 1 3 !
 CONST BCC_A2 : LI% SN : VA : !
$
$ Hcp (hP2, P6_3/mmc) and Me2X (NiAs-type, hP4, P6_3/mmc, B8_1)
$
 PHASE HCP_A3 % 2 1 0.5 !
 CONST HCP_A3 : LI SN : VA: !
$
$ Prototype C (cF8, Fd-3m)
$
 PHASE DIAMOND_A4 % 1 1 !
 CONST DIAMOND_A4 : SN : !
$
$ Prototype beta-Sn (tI4, I4_1/amd)
$
 PHASE BCT_A5 % 1 1 !
 CONST BCT_A5 : SN : !
$
$ Prototype Li17Pb4 (cF420, F-43m)
$
 PHASE LI22SN5 % 2 22 5 !
 CONST LI22SN5 : LI : SN : !
$
$ Prototype Ge2Li7 (oC36, Cmmm)
$
 PHASE LI7SN2 % 2 7 2 !
 CONST LI7SN2 : LI% SN : SN : !
$
$ Unknown structure
$
 PHASE LI8SN3 % 2 8 3 !
 CONST LI8SN3 : LI : SN : !
$
$ Prototype Li13Sn5 (hP18, P-3m1)
$
 PHASE LI13SN5 % 2 13 5 !
 CONST LI13SN5 : LI : SN : !
$
$ Prototype Li5Sn2 (hR7, R-3m)
$ (prototype Mo2B5 according to LB Vol. 5)
$
 PHASE LI5SN2 % 2 5 2 !
 CONST LI5SN2 : LI : SN : !
$
$ Prototype Li7Sn3 (mP20, P2_1/m)
$
 PHASE LI7SN3 % 2 7 3 !
 CONST LI7SN3 : LI : SN : !
$
$ Prototype LiSn (mP6, P2/m)
$
 PHASE LISN % 2 1 1 !
 CONST LISN : LI : LI SN% : !
$
$ Prototype Hg5Mn2 (tP14, P4/mbm)
$
 PHASE LI2SN5 % 2 2 5 !
 CONST LI2SN5 : LI : SN : !
$ ------------------------------------------------------------------------------
$ Defaults
$
 DEFINE-SYSTEM-DEFAULT ELEMENT 2 !
 DEFAULT-COM DEFINE_SYSTEM_ELEMENT VA !
 TYPE-DEF % SEQ * !
 TYPE-DEF A GES AMEND_PHASE_DESCRIPTION @ MAGNETIC -3 0.28 !
 TYPE-DEF B GES AMEND_PHASE_DESCRIPTION @ MAGNETIC -1 0.4 !
 FUNCTION ZERO      298.15  0;                                         6000 N !
 FUNCTION UN_ASS    298.15  0;                                         6000 N !
 FUNCTION R         298.15  +8.31451;                                  6000 N !
$ ------------------------------------------------------------------------------
$ Element data
$ ------------------------------------------------------------------------------
$ Li
$
 PAR  G(BCC_A2,LI:VA)           200.00  +GHSERLI;                3000 N 91Din !
 PAR  G(FCC_A1,LI:VA)           200.00  +GHSERLI-108+1.3*T;      3000 N 91Din !
 PAR  G(HCP_A3,LI:VA)           200.00  +GHSERLI-154+2*T;        3000 N 91Din !
 PAR  G(LIQUID,LI)              200.00  +GLIQLI;                 3000 N 91Din !
$
 PAR  G(LISN,LI:LI),,                   +2*GHSERLI+6000;,,            N 06Du !
$
 FUNCTION GHSERLI   200.00  -10583.817+217.637482*T-38.940488*T*LN(T)
       +0.035466931*T**2-1.9869816E-05*T**3+159994*T**(-1);
       453.60  Y  -559579.123+10547.8799*T-1702.88865*T*LN(T)
       +2.25832944*T**2-5.71066077E-04*T**3+33885874*T**(-1);
       500.00  Y  -9062.994+179.278285*T-31.2283718*T*LN(T)
       +0.002633221*T**2-4.38058E-07*T**3-102387*T**(-1);
      3000.00  N !
 FUNCTION GLIQLI    200.00  +2700.205-5.795621*T+GHSERLI;
       250.00  Y  +12015.027-362.187078*T+61.6104424*T*LN(T)
       -0.182426463*T**2+6.3955671E-05*T**3-559968*T**(-1);
       453.60  Y  -6057.31+172.652183*T-31.2283718*T*LN(T)
       +0.002633221*T**2-4.38058E-07*T**3-102387*T**(-1);
       500.00  Y  +3005.684-6.626102*T+GHSERLI;
      3000.00  N !
$ ------------------------------------------------------------------------------
$ Sn
$
$ FCC_A1 revised in unary 3.0
$ HCP_A3 revised in unary 4.1
$ TETRAGONAL_A6 added in unary 4.1
$ CBCC_A12 and CUB_A13 added in unary 4.4
$ FCC_A1 modified in unary 5.0
$ DHCP and TET_ALPHA1_A6 added in unary 5.0
$
$ The DHCP phase is labelled D0_24 in 03Liu and alpha-prime in 92Ans. The
$ phase is present between the fcc and hcp phases in the Au-Sn and Au-In
$ systems.
$
 PAR  G(BCT_A5,SN)              100.00  +GHSERSN;                3000 N 91Din !
 PAR  G(DIAMOND_A4,SN)          100.00  +GDIASN;                 3000 N 91Din !
 PAR  G(FCC_A1,SN:VA)           100.00  +GHSERSN+5510-8.46*T;    3000 N 89Fec !
$PAR  G(FCC_A1,SN:VA)           100.00  +GHSERSN+4150-5.2*T;     3000 N 91Din !
 PAR  G(BCC_A2,SN:VA)           100.00  +GHSERSN+4400-6*T;       3000 N 91Din !
 PAR  G(HCP_A3,SN:VA)           100.00  +GHSERSN+3900-7.646*T;   3000 N Ansar !
$PAR  G(HCP_A3,SN:VA)           100.00  +GHSERSN+3900-4.4*T;     3000 N 91Din !
$PAR  G(DHCP,SN)                100.00  +GHSERSN+3803.52-3.46*T; 3000 N 03Liu !
$PAR  G(RHOMBOHEDRAL_A7,SN)     100.00  +GHSERSN+2035;           3000 N 91Din !
$PAR  G(TETRAGONAL_A6,SN)       100.00  +GHSERSN+5387-8.26212*T; 3000 N 99Ans !
$PAR  G(CBCC_A12,SN:VA)         100.00  +GHSERSN+2000;           3000 N 01Mie !
$PAR  G(CUB_A13,SN:VA)          100.00  +GHSERSN+2000;           3000 N 01Mie !
$PAR  G(TET_ALPHA1_A6,SN)       100.00  +GHSERSN+5510-8.46*T;    3000 N 99Ans !
 PAR  G(LIQUID,SN)              100.00  +GLIQSN;                 3000 N 91Din !
$
 PAR  G(LI7SN2,SN:SN),,                 +9*GHSERSN+27000;,,           N 06Du !
$
 FUNCTION GHSERSN   100.00  -7958.517+122.765451*T-25.858*T*LN(T)
       +5.1185E-04*T**2-3.192767E-06*T**3+18440*T**(-1);
       250.00  Y  -5855.135+65.443315*T-15.961*T*LN(T)
       -0.0188702*T**2+3.121167E-06*T**3-61960*T**(-1);
       505.08  Y  +2524.724+4.005269*T-8.2590486*T*LN(T)
       -0.016814429*T**2+2.623131E-06*T**3-1081244*T**(-1)-1.2307E+25*T**(-9);
       800.00  Y  -8256.959+138.99688*T-28.4512*T*LN(T)-1.2307E+25*T**(-9);
      3000.00  N !
 FUNCTION GDIASN    100.00  -9579.608+114.007785*T-22.972*T*LN(T)
       -0.00813975*T**2+2.7288E-06*T**3+25615*T**(-1);
       298.15  Y  -9063.001+104.84654*T-21.5750771*T*LN(T)
       -0.008575282*T**2+1.784447E-06*T**3-2544*T**(-1);
       800.00  Y  -10909.351+147.396535*T-28.4512*T*LN(T);
      3000.00  N !
 FUNCTION GLIQSN    100.00  +7103.092-14.087767*T+GHSERSN+1.47031E-18*T**7;
       505.08  Y  +6971.586-13.814383*T+GHSERSN+1.2307E+25*T**(-9);
       800.00  Y  -1285.372+125.182498*T-28.4512*T*LN(T);
      3000.00  N !
 FUNCTION GBCCSN    298.15  +GHSERSN+4400-6*T;                         3000 N !
$ ------------------------------------------------------------------------------
$ Binary system
$
$ Z. Du, Z. Jiang, C. Guo, Z. Metallkd., 97, 10-16(2006).
$
$ Checked against paper. Checked at 6000 K.
$
$ Huge inverse stability range of bcc starting at 1015 K, which is below the
$ melting temperature of Li7Sn2.
$
 PAR  L(LIQUID,LI,SN;0),,               -121142.2+24*T;,,             N 06Du !
 PAR  L(LIQUID,LI,SN;1),,               -87650.9+24*T;,,              N 06Du !
 PAR  L(LIQUID,LI,SN;2),,               -11383.3-8.7985*T;,,          N 06Du !
 PAR  L(LIQUID,LI,SN;3),,               +37847.8-37.6298*T;,,         N 06Du !
$
 PAR  L(BCC_A2,LI,SN:VA;0),,            -92821.4-19.3685*T;,,         N 06Du !
 PAR  L(BCC_A2,LI,SN:VA;1),,            -79522.7;,,                   N 06Du !
$
 PAR  G(LI22SN5,LI:SN),,                +22*GHSERLI+5*GHSERSN
             -1095242.7+270*T;,,                                      N 06Du !
$
 PAR  G(LI7SN2,LI:SN),,                 +7*GHSERLI+2*GHSERSN
             -383551+81*T;,,                                          N 06Du !
 PAR  L(LI7SN2,LI,SN:SN;0),,            +979887.1+9.0115*T;,,         N 06Du !
 PAR  L(LI7SN2,LI,SN:SN;1),,            -1457538.4+27.5363*T;,,       N 06Du !
$
 PAR  G(LI8SN3,LI:SN),,                 +8*GHSERLI+3*GHSERSN
             -477620.1+90*T;,,                                        N 06Du !
 PAR  G(LI13SN5,LI:SN),,                +13*GHSERLI+5*GHSERSN
             -780902.1+145*T;,,                                       N 06Du !
 PAR  G(LI5SN2,LI:SN),,                 +5*GHSERLI+2*GHSERSN
             -302420+54*T;,,                                          N 06Du !
 PAR  G(LI7SN3,LI:SN),,                 +7*GHSERLI+3*GHSERSN
             -428079+75*T;,,                                          N 06Du !
$
 PAR  G(LISN,LI:SN),,                   +GHSERLI+GHSERSN
             -73198.3+9.85*T;,,                                       N 06Du !
 PAR  L(LISN,LI:LI,SN;0),,              -45169.2;,,                   N 06Du !
 PAR  L(LISN,LI:LI,SN;1),,              +34205.5;,,                   N 06Du !
$
 PAR  G(LI2SN5,LI:SN),,                 +2*GHSERLI+5*GHSERSN
             -196683+90*T;,,                                          N 06Du !
$
$ Metastable
$
 PAR  L(FCC_A1,LI,SN:VA;0),,            -92821.4-19.3685*T;,,         N Same !
 PAR  L(FCC_A1,LI,SN:VA;1),,            -79522.7;,,                   N Same !
$
 PAR  L(HCP_A3,LI,SN:VA;0),,            -92821.4-19.3685*T;,,         N Same !
 PAR  L(HCP_A3,LI,SN:VA;1),,            -79522.7;,,                   N Same !
$ ------------------------------------------------------------------------------
$
 ASSESSED_SYSTEM
   LI-SN(TDB -* +LIQUID +BCC_A2 +BCT_A5 +DIAMOND +LI22SN5 +LI7SN2 +LI13SN5 
    +LI7SN3 +LI5SN2 +LISN +LI2SN5 +LI8SN3 ;P3 *) !
$
$
 LIST-OF-REFERENCE
 NUMBER  SOURCE
  Null   'Unknown source'
  Same   'Same or similar interaction as in the corresponding stable phase'
  COST   'COST 507 database'
  Ansar  'Himo Ansara, unpublished, SGTE unary database V.4.1, 1999; Sn'
  89Fec  'H.J. Fecht, M.X. Zhang, Y.A. Chang, J.H. Perepezko,
          Metall. Trans. A, 20A, 795-803(1989),
          SGTE unary database V.3.0, 1996; Sn'
  91Din  'A.T. Dinsdale, Calphad, 15, 317-425(1991).'
  99Ans  'I. Ansara, S.G. Fries, H.L. Lukas, unpublished, 1999,
          SGTE unary database V.5.0, 2009; In, Sn'
  01Mie  'J. Miettinen, Calphad, 25, 43-58(2001),
          SGTE unary database V.4.4, 2001; Sn, Zn'
  03Liu  'H.S. Liu, C.L. Liu, K. Ishida, Z.P. Jin, J. Electron. Mater.,
          32, 1290-96(2003), SGTE unary database V.5.0, 2009; Sn'
  06Du   'Z. Du, Z. Jiang, C. Guo, Z. Metallkd., 97, 10-16(2006); Li-Sn'
!
