$
$ Database for Cd-Hg from J. Yang et al. 1995 (included in LB vol. 2)
$
$ J. Yang, N.J. Silk, A. Watson, A.W. Bryant, T.G. Chart, B.B. Argent,
$ Calphad, 19, 415-30(1995).
$
$ Dataset created 2015.03.28 by Bengt Hallstedt.
$ 2019.12.01: Modified for use with GES6.
$
$ ------------------------------------------------------------------------------
 TEMP-LIM 298.15 6000.00 !
$
$ELEMENT NAME  REF. STATE               ATOMIC MASS H298-H0    S298    !
$
 ELEMENT VA   VACUUM                      0.0          0.0      0.0    ! 
 ELEMENT CD   HCP_A3                    112.41      6247.      51.80   ! 
 ELEMENT HG   LIQUID                    200.59      9342.      75.90   ! 
$ ------------------------------------------------------------------------------
$ Phase definitions
$
 PHASE LIQUID:L % 1 1 !
 CONST LIQUID:L : CD HG : !
$
$ Fcc (cF4, Fm-3m) and MeX (cF8, Fm-3m)
$
 PHASE FCC_A1 %A 2 1 1 !
 CONST FCC_A1 : CD HG : VA : !
$
$ Bcc (cI2, Im-3m)
$
 PHASE BCC_A2 %B 2 1 3 !
 CONST BCC_A2 : CD HG : VA : !
$
$ Hcp (hP2, P6_3/mmc) and Me2X (NiAs-type, hP4, P6_3/mmc, B8_1)
$
 PHASE HCP_A3 %A 2 1 0.5 !
 CONST HCP_A3 : CD% HG : VA : !
$
$ Prototype In (tI2, I4/mmm)
$
 PHASE TETRAGONAL_A6 % 1 1 !
 CONST TETRAGONAL_A6 : CD HG : !
$
$ Prototype Hg (hR1, R-3m)
$
 PHASE RHOMBO_A10 % 1 1 !
 CONST RHOMBO_A10 : CD HG% : !
$ ------------------------------------------------------------------------------
$ Defaults
$
 DEFINE-SYSTEM-DEFAULT ELEMENT 2 !
 DEFAULT-COM DEFINE_SYSTEM_ELEMENT VA !
 TYPE-DEF % SEQ * !
 TYPE-DEF A GES AMEND_PHASE_DESCRIPTION @ MAGNETIC -3 0.28 !
 TYPE-DEF B GES AMEND_PHASE_DESCRIPTION @ MAGNETIC -1 0.4 !
 FUNCTION ZERO      298.15  0;                                         6000 N !
 FUNCTION UN_ASS    298.15  0;                                         6000 N !
 FUNCTION R         298.15  +8.31451;                                  6000 N !
$ ------------------------------------------------------------------------------
$ Element data
$ ------------------------------------------------------------------------------
$ Cd
$
$ FCC_A1 and TETRAGONAL_A6 added in unary 3.0
$ BCT_A5 and RHOMBO_A10 added in unary 4.1
$ BCC_A2 added in unary 5.0
$
 PAR  G(HCP_A3,CD:VA),,                 +GHSERCD;                1600 N 91Din !
 PAR  G(FCC_A1,CD:VA),,                 +GHSERCD+892.3-0.92*T;   1600 N 93Zak !
 PAR  G(BCC_A2,CD:VA),,                 +GHSERCD+1000;           1600 N 04Che1 !
 PAR  G(TETRAGONAL_A6,CD),,             +GHSERCD+892.3-0.92*T;   1600 N 93Zak !
$PAR  G(BCT_A5,CD),,                    +GHSERCD+5000;           1600 N 95Yan !
 PAR  G(RHOMBO_A10,CD),,                +GHSERCD+800-0.62*T;     1600 N 95Yan !
 PAR  G(LIQUID,CD),,                    +GLIQCD;                 1600 N 91Din !
$
 FUNCTION GHSERCD   298.15  -7083.469+99.506198*T-22.0442408*T*LN(T)
       -0.006273908*T**2-6966*T**(-1);
       594.22  Y  -20064.971+256.812233*T-45.1611543*T*LN(T)
       +0.008832011*T**2-8.99604E-07*T**3+1241290*T**(-1);
      1500.00  Y  -9027.489+148.20548*T-29.7064*T*LN(T);
      1600.00  N !
 FUNCTION GLIQCD    298.15  +6128.444-10.296916*T+GHSERCD;
       400.00  Y  +21716.884-371.046869*T+53.1313898*T*LN(T)
       -0.115159917*T**2+2.8899781E-05*T**3-1271815*T**(-1);
       594.22  Y  -3252.303+138.251107*T-29.7064*T*LN(T);
      1500.00  Y  +5775.186-9.954373*T+GHSERCD;
      1600.00  N !
 FUNCTION GBCCCD    298.15  +GHSERCD+1000;                             6000 N !
$ ------------------------------------------------------------------------------
$ Hg
$
$ HCP_A3 and TETRAGONAL_A6 added in unary 4.1
$ FCC_A1 added in unary 5.0
$
 PAR  G(LIQUID,HG)              200.00  +GHSERHG;                2000 N 91Din !
 PAR  G(RHOMBO_A10,HG)          200.00  +GRHOHG;                 2000 N 91Din !
 PAR  G(FCC_A1,HG:VA)           200.00  +GHSERHG+5+8.368*T;      2000 N 02Mai !
 PAR  G(HCP_A3,HG:VA)           200.00  +GRHOHG+200+0.7*T;       2000 N 95Yan !
 PAR  G(TETRAGONAL_A6,HG)       200.00  +GRHOHG
             +208.68+1.765592*T;                                 2000 N 95Yan !
$
 FUNCTION GHSERHG   200.00  +82356.855-3348.19466*T+618.193308*T*LN(T)
       -2.0282337*T**2+0.00118398213*T**3-2366612*T**(-1);
       234.32  Y  -8961.207+135.232291*T-32.257*T*LN(T)
       +0.0097977*T**2-3.20695E-06*T**3+6670*T**(-1);
       400.00  Y  -7970.627+112.33345*T-28.414*T*LN(T)
       +0.00318535*T**2-1.077802E-06*T**3-41095*T**(-1);
       700.00  Y  -7161.338+90.797305*T-24.87*T*LN(T)
       -0.00166775*T**2+8.737E-09*T**3-27495*T**(-1);
      2000.00  N !
 FUNCTION GRHOHG    200.00  -10668.401+123.274598*T-28.847*T*LN(T)
       +0.01699705*T**2-2.4555667E-05*T**3+13330*T**(-1);
       234.32  Y  -11425.394+135.928158*T-30.2091*T*LN(T)
       +0.00107555*T**2-2.28298E-07*T**3+35545*T**(-1);
      2000.00  N !
$ ------------------------------------------------------------------------------
$ Binary system
$
$ From J. Yang et al. 1995 (included in LB vol. 2)
$
$ J. Yang, N.J. Silk, A. Watson, A.W. Bryant, T.G. Chart, B.B. Argent,
$ Calphad, 19, 415-30(1995).
$
$ Checked against LB and paper. Checked at 6000 K.
$
 PAR  L(LIQUID,CD,HG;0),,               -10651.38+4.17628*T;,,        N 95Yan !
 PAR  L(LIQUID,CD,HG;1),,               -1548.36+0.71716*T;,,         N 95Yan !
 PAR  L(LIQUID,CD,HG;2),,               +353.78;,,                    N 95Yan !
$
 PAR  L(HCP_A3,CD,HG:VA;0),,            -6062.01-5.39655*T;,,         N 95Yan !
 PAR  L(RHOMBO_A10,CD,HG;0),,           -7040.2;,,                    N 95Yan !
$
 PAR  L(TETRAGONAL_A6,CD,HG;0),,        -11896.23+1.1994*T;,,         N 95Yan !
 PAR  L(TETRAGONAL_A6,CD,HG;1),,        +6347.01-11.68573*T;,,        N 95Yan !
$
$ Metastable
$
 PAR  L(FCC_A1,CD,HG:VA;0),,            -6062.01-5.39655*T;,,         N Same !
 PAR  L(BCC_A2,CD,HG:VA;0),,            -6062.01-5.39655*T;,,         N Same !
$ ------------------------------------------------------------------------------
$
 ASSESSED_SYSTEM
  CD-HG(TDB -* +LIQ +HCP_A3 +RHOM_A10 +TETRA_A6 ;P3 TMM:200/1000 *) !
$
$
 LIST-OF-REFERENCE
 NUMBER  SOURCE
  Null   'Unknown source'
  Same   'Same or similar interaction as in the corresponding stable phase'
  COST   'COST 507 database'
  91Din  'A.T. Dinsdale, Calphad, 15, 317-425(1991).'
  93Zak  'W. Zakulski, Z. Moser, K. Rzyman, H.L. Lukas, S.G. Fries,
          M. Sukiennik, R. Kaczmarczyk, R. Castanet,
          J. Phase Equilib., 14, 184-96(1993),
          SGTE unary database V.3.0, 1996; Cd'
  95Yan  'J. Yang, N.J. Silk, A. Watson, A.W. Bryant, T.G. Chart, B.B. Argent,
          Calphad, 19, 415-30(1995),
          SGTE unary database V.4.1, 1999; Cd, Hg, Cd-Hg'
  02Mai  'A. Maitre, J.M. Fiorani, M. Vilasi, J. Phase Equilib.,
          23, 329-38(2002), SGTE unary database V.5.0, 2009; Hg'
  04Che1 'P.-Y. Chevalier, unpublished, Thermodata, 2004,
          SGTE unary database V.5.0, 2009; Cd'
!
