$
$ Database for Ta-W from C. Guo et al. 2014.
$
$ C. Guo, C. Li, S. Shang, Z. Du, Int. J. Mater. Res., 105, 1048-56(2014).
$
$ Dataset created 2023.05.18 by Bengt Hallstedt.
$
$ ------------------------------------------------------------------------------
 TEMP-LIM 298.15 6000.00 !
$
$ELEMENT NAME  REF. STATE               ATOMIC MASS H298-H0    S298    !
$
 ELEMENT VA   VACUUM                      0.0          0.0      0.0    ! 
 ELEMENT TA   BCC_A2                    180.9479    5681.872   41.4718 ! 
 ELEMENT W    BCC_A2                    183.85      4970.0     32.6176 ! 
$ ------------------------------------------------------------------------------
$ Phase definitions
$
 PHASE LIQUID:L % 1 1 !
 CONST LIQUID:L : TA W : !
$
$ Fcc (cF4, Fm-3m) and MeX (cF8, Fm-3m)
$
 PHASE FCC_A1 %A 2 1 1 !
 CONST FCC_A1 : TA W : VA : !
$
$ Bcc (cI2, Im-3m)
$
 PHASE BCC_A2 %B 2 1 3 !
 CONST BCC_A2 : TA% W% : VA : !
$
$ Hcp (hP2, P6_3/mmc) and Me2X (NiAs-type, hP4, P6_3/mmc, B8_1)
$
 PHASE HCP_A3 %A 2 1 0.5 !
 CONST HCP_A3 : TA W : VA : !
$ ------------------------------------------------------------------------------
$ Defaults
$
 DEFINE-SYSTEM-DEFAULT ELEMENT 2 !
 DEFAULT-COM DEFINE_SYSTEM_ELEMENT VA !
 TYPE-DEF % SEQ * !
 TYPE-DEF A GES AMEND_PHASE_DESCRIPTION @ MAGNETIC -3 0.28 !
 TYPE-DEF B GES AMEND_PHASE_DESCRIPTION @ MAGNETIC -1 0.4 !
 FUNCTION ZERO      298.15  0;                                         6000 N !
 FUNCTION UN_ASS    298.15  0;                                         6000 N !
 FUNCTION R         298.15  +8.31451;                                  6000 N !
$ ------------------------------------------------------------------------------
$ Element data
$ ------------------------------------------------------------------------------
$ Ta
$
 PAR  G(BCC_A2,TA:VA),,                 +GHSERTA;,,                   N 91Din !
 PAR  G(FCC_A1,TA:VA),,                 +GHSERTA+16000+1.7*T;,,       N 91Din !
 PAR  G(HCP_A3,TA:VA),,                 +GHSERTA+12000+2.4*T;,,       N 91Din !
 PAR  G(LIQUID,TA),,                    +GLIQTA;,,                    N 91Din !
$
 FUNCTION GHSERTA   298.15  -7285.889+119.139857*T-23.7592624*T*LN(T)
       -0.002623033*T**2+1.70109E-07*T**3-3293*T**(-1);
      1300.00  Y  -22389.955+243.88676*T-41.137088*T*LN(T)
       +0.006167572*T**2-6.55136E-07*T**3+2429586*T**(-1);
      2500.00  Y  +229382.886-722.59722*T+78.5244752*T*LN(T)
       -0.017983376*T**2+1.95033E-07*T**3-93813648*T**(-1);
      3290.00  Y  -1042384.01+2985.49125*T-362.159132*T*LN(T)
       +0.043117795*T**2-1.055148E-06*T**3+5.54714342E+08*T**(-1);
      6000.00  N !
 FUNCTION GLIQTA    298.15  +29160.975-7.578729*T+GHSERTA;
      1000.00  Y  +43884.339-61.981795*T+0.0279523*T*LN(T)
       -0.012330066*T**2+6.14599E-07*T**3-3523338*T**(-1);
      3290.00  Y  -6314.543+258.110873*T-41.84*T*LN(T);
      6000.00  N !
$ ------------------------------------------------------------------------------
$ W
$
 PAR  G(BCC_A2,W:VA),,                  +GHSERWW;,,                   N 91Din !
 PAR  G(FCC_A1,W:VA),,                  +GHSERWW+19300+0.63*T;,,      N 91Din !
 PAR  G(HCP_A3,W:VA),,                  +GHSERWW+14750;,,             N 91Din !
 PAR  G(LIQUID,W),,                     +GLIQWW;,,                    N 91Din !
$
 FUNCTION GHSERWW   298.15  -7646.311+130.4*T-24.1*T*LN(T)
       -0.001936*T**2+2.07E-07*T**3+44500*T**(-1)-5.33E-11*T**4;
      3695.00  Y  -82868.801+389.362335*T-54*T*LN(T)+1.528621E+33*T**(-9);
      6000.00  N !
 FUNCTION GLIQWW    298.15  +52160.584-14.10999*T+GHSERWW-2.713468E-24*T**7;
      3695.00  Y  -30436.051+375.175*T-54*T*LN(T);
      6000.00  N !
$ ------------------------------------------------------------------------------
$ Binary system
$
$ C. Guo, C. Li, S. Shang, Z. Du, Int. J. Mater. Res., 105, 1048-56(2014).
$
$ Checked against paper. Checked at 6000K.
$
 PAR  L(LIQUID,TA,W;0),,                -12711.6;,,                   N 14Guo !
 PAR  L(LIQUID,TA,W;1),,                -3504.1;,,                    N 14Guo !
$
 PAR  L(BCC_A2,TA,W:VA;0),,             -26740.7+4.701*T;,,           N 14Guo !
 PAR  L(BCC_A2,TA,W:VA;1),,             -7355+1.4538*T;,,             N 14Guo !
$
$ Metastable
$
 PAR  L(FCC_A1,TA,W:VA;0),,             -26740.7+4.701*T;,,           N Same !
 PAR  L(FCC_A1,TA,W:VA;1),,             -7355+1.4538*T;,,             N Same !
$
 PAR  L(HCP_A3,TA,W:VA;0),,             -26740.7+4.701*T;,,           N Same !
 PAR  L(HCP_A3,TA,W:VA;1),,             -7355+1.4538*T;,,             N Same !
$ ------------------------------------------------------------------------------
$
 ASSESSED_SYSTEM
   TA-W(TDB -* +LIQUID +BCC_A2 ;P3 TMM:300/4000 STP:.5/2000/2) !
$
$
 LIST-OF-REFERENCE
 NUMBER  SOURCE
  Null   'Unknown source'
  Same   'Same or similar interaction as in the corresponding stable phase'
  REFLAV 'Laves phase convention: G(LAVES,X:X)=+3*GHSERXX+15000'
  COST   'COST 507 database'
  91Din  'A.T. Dinsdale, Calphad, 15, 317-425(1991).'
  14Guo  'C. Guo, C. Li, S. Shang, Z. Du,
          Int. J. Mater. Res., 105, 1048-56(2014); Ta-W'
!
