$
$ Database for Ag-P from I. Karakaya and W.T. Thompson 1988.
$
$ I. Karakaya, W.T. Thompson, Bull. Alloy Phase Diag., 9, 232-36(1988).
$
$ Dataset created 2021.10.16 by Bengt Hallstedt.
$
$ Gas is not included, but can be easily included when needed (low boiling
$ point of P). When gas is included the calculation matches the experimental
$ data shown in the paper, but it does not match the calculation in the paper.
$
$ When gas is excluded the claculation matches the one in the paper when
$ RED_P is suspended.
$
$ ------------------------------------------------------------------------------
 TEMP-LIM 298.15 6000.00 !
$
$ELEMENT NAME  REF. STATE               ATOMIC MASS H298-H0    S298    !
$
 ELEMENT VA   VACUUM                      0.0          0.0      0.0    ! 
 ELEMENT AG   FCC_A1                    107.8682    5745.      42.55   ! 
 ELEMENT P    WHITE_P                    30.97376   5360.0     41.09   ! 
$ ------------------------------------------------------------------------------
$ Phase definitions
$
 PHASE LIQUID:L % 1 1 !
 CONST LIQUID:L : AG P : !
$
$ Fcc (cF4, Fm-3m) and MeX (cF8, Fm-3m)
$
 PHASE FCC_A1 %A 2 1 1 !
 CONST FCC_A1 : AG% P : VA : !
$
$ Bcc (cI2, Im-3m)
$
 PHASE BCC_A2 %B 2 1 3 !
 CONST BCC_A2 : AG P : VA : !
$
$ Hcp (hP2, P6_3/mmc) and Me2X (NiAs-type, hP4, P6_3/mmc, B8_1)
$
 PHASE HCP_A3 %A 2 1 0.5 !
 CONST HCP_A3 : AG : VA : !
$
$ Structure not well defined
$
 PHASE WHITE_P % 1 1 !
 CONST WHITE_P : P : !
$
$ Structure not well defined
$
 PHASE RED_P % 1 1 !
 CONST RED_P : P : !
$
$ Prototype CuP2 (mP12, P2_1/c)
$
 PHASE AGP2 % 2 1 2 !
 CONST AGP2 : AG : P : !
$
$ Prototype Ag3P11 (mC28, Cm)
$
 PHASE AG3P11 % 2 3 11 !
 CONST AG3P11 : AG : P : !
$ ------------------------------------------------------------------------------
$ Defaults
$
 DEFINE-SYSTEM-DEFAULT ELEMENT 2 !
 DEFAULT-COM DEFINE_SYSTEM_ELEMENT VA !
 TYPE-DEF % SEQ * !
 TYPE-DEF A GES AMEND_PHASE_DESCRIPTION @ MAGNETIC -3 0.28 !
 TYPE-DEF B GES AMEND_PHASE_DESCRIPTION @ MAGNETIC -1 0.4 !
 FUNCTION ZERO      298.15  0;                                         6000 N !
 FUNCTION UN_ASS    298.15  0;                                         6000 N !
 FUNCTION R         298.15  +8.31451;                                  6000 N !
$ ------------------------------------------------------------------------------
$ Element data
$ ------------------------------------------------------------------------------
$ Ag
$
$ CUB_A13 added in unary 3.0
$ CUB_A13 revised in unary 4.1
$ BCT_A5 added in unary 4.1
$
 PAR  G(FCC_A1,AG:VA),,                 +GHSERAG;                3000 N 91Din !
 PAR  G(HCP_A3,AG:VA),,                 +GHSERAG+300+0.3*T;      3000 N 91Din !
 PAR  G(BCC_A2,AG:VA),,                 +GHSERAG+3400-1.05*T;    3000 N 91Din !
$PAR  G(CUB_A13,AG:VA),,                +GHSERAG+3400-1.05*T;    3000 N 95Lim !
$PAR  G(CUB_A13,AG:VA),,                +GHSERAG
$            +3765.6-1.8826*T;                                   3000 N 96SGUN !
$PAR  G(BCT_A5,AG:VA),,                 +GHSERAG+4184.1;         3000 N 96Oh !
 PAR  G(LIQUID,AG),,                    +GLIQAG;                 3000 N 91Din !
$
 FUNCTION GHSERAG   298.15  -7209.512+118.202013*T-23.8463314*T*LN(T)
       -0.001790585*T**2-3.98587E-07*T**3-12011*T**(-1);
      1234.93  Y  -15095.252+190.266404*T-33.472*T*LN(T)+1.411773E+29*T**(-9);
      3000.00  N !
 FUNCTION GLIQAG    298.15  +11025.076-8.89102*T+GHSERAG-1.033905E-20*T**7;
      1234.93  Y  -3587.111+180.964656*T-33.472*T*LN(T);
      3000.00  N !
$ ------------------------------------------------------------------------------
$ P
$
$ RHOMBOHEDRAL_A7 added in unary 4.4
$
 PAR  G(WHITE_P,P)              250.00  +GHSERPP;                3000 N 91Din !
 PAR  G(RED_P,P)                250.00  +GREDPP;                 3000 N 91Din !
 PAR  G(FCC_A1,P:VA)            250.00  +GREDPP+36819-13.138*T;  3000 N 91Din !
 PAR  G(BCC_A2,P:VA)            250.00  +GREDPP+44768.8-13.26*T; 3000 N 91Din !
$PAR  G(RHOMBOHEDRAL_A7,P)      250.00  +GHSERPP-188+0.12527*T;  3000 N 01SGUN !
 PAR  G(LIQUID,P)               250.00  +GLIQPP;                 3000 N 91Din !
$
 FUNCTION GHSERPP   250.00  -43821.799+1026.69389*T-178.426*T*LN(T)
       +0.290708*T**2-1.04022667E-04*T**3+1632695*T**(-1);
       317.30  Y  -9587.448+152.341487*T-28.7335301*T*LN(T)
       +0.001715669*T**2-2.2829E-07*T**3+172966*T**(-1);
      1000.00  Y  -8093.075+135.876831*T-26.326*T*LN(T);
      3000.00  N !
 FUNCTION GREDPP    250.00  -25976.559+148.672002*T-25.55*T*LN(T)
       +0.0034121*T**2-2.418867E-06*T**3+160095*T**(-1);
       500.00  Y  -21723.721+77.671737*T-14.368*T*LN(T)
       -0.00957685*T**2+3.93917E-07*T**3-141375*T**(-1);
       852.35  Y  -119408.413+1026.02962*T-149.449556*T*LN(T)
       +0.067272364*T**2-6.651929E-06*T**3+12495943*T**(-1);
      1500.00  Y  -16431.044+17.96235*T+GHSERPP;
      3000.00  N !
 FUNCTION GLIQPP    250.00  -26316.111+434.930931*T-70.7440584*T*LN(T)
       -0.002898936*T**2+3.9049371E-05*T**3+1141147*T**(-1);
       317.30  Y  -7232.449+133.291873*T-26.326*T*LN(T);
      3000.00  N !
$ ------------------------------------------------------------------------------
$ Binary system
$
$ I. Karakaya, W.T. Thompson, Bull. Alloy Phase Diag., 9, 232-36(1988).
$
$ Checked against paper. Checked at 6000 K.
$
$ Gas is not included, but can be easily included when needed (low boiling
$ point of P). When gas is included the calculation matches the experimental
$ data shown in the paper, but it does not match the calculation in the paper.
$
$ When gas is excluded the claculation matches the one in the paper when
$ RED_P is suspended.
$
 PAR  L(LIQUID,AG,P;0),,                +9000;,,                      N 88Kar !
 PAR  L(LIQUID,AG,P;1),,                +6000;,,                      N 88Kar !
$
 PAR  L(FCC_A1,AG,P:VA;0),,             +50*T;,,                      N !
$
 PAR  G(AGP2,AG:P),,                    +GHSERAG+2*GHSERPP-41385
             +38.244*T-2.682*T*LN(T)+0.01565*T**2+336000*T**(-1);,,   N 88Kar !
 PAR  G(AG3P11,AG:P),,                  +3*GHSERAG+11*GHSERPP-238000
             +250.6*T-14.074*T*LN(T)+0.08218*T**2+1764000*T**(-1);,,  N 88Kar !
$ ------------------------------------------------------------------------------
$
$
 LIST-OF-REFERENCE
 NUMBER  SOURCE
  Null   'Unknown source'
  Same   'Same or similar interaction as in the corresponding stable phase'
  COST   'COST 507 database'
  88Kar  'I. Karakaya, W.T. Thompson,
          Bull. Alloy Phase Diag., 9, 232-36(1988); Ag-P'
  91Din  'A.T. Dinsdale, Calphad, 15, 317-425(1991).'
  95Lim  'S.S. Lim, P.L. Rossiter, J.W. Tibballs, Calphad, 19, 131-41(1995),
          SGTE unary database V.4.1, 1999; Ag'
  96Oh   'C.-S. Oh, J.-H. Shim, B.-J. Lee, D.N. Lee,
          J. Alloys Compounds, 238, 155-66(1996),
          SGTE unary database V.4.1, 1999; Ag'
  96SGUN 'SGTE unary database V.3.0, 1996.'
  01SGUN 'SGTE unary database V.4.4, 2001.'
!
