$
$ Database for Mn-Ti from N. Saunders 1998 (included in LB Vol. 4)
$
$ N. Saunders, COST 507, Final report round 2, 1998.
$
$ Dataset created 2010.07.04 by Bengt Hallstedt.
$ 2017.03.22: New lattice stabilities for C14_LAVES.
$ 2017.10.25: New parameters for C14_LAVES.
$ 2021.01.30: Modified for use with GES6.
$
$ REFLAV not used for G(MN2TI_C14,MN:MN).
$ -4*T term missing for G(MNTI_ALPHA,MN:TI)in the COST report.
$
$ There are two models for Mn2Ti included. MN2TI_C14 is the original from 98Sau.
$ C14_LAVES includes new end-member values and refitted interactions.
$ An incorrect value for G(C14_LAVES,TI:TI) was used in a previous version.
$ When using the correct value from 06Slu it was not possible to refit the
$ phase diagram without using excessive interaction parameters. Therefore
$ a value for G(C14_LAVES,TI:TI) was selected that produces moderate interaction
$ parameters. The interaction parameters were selected so that the invariant
$ temperatures involving the liquid change minimally. The C14_LAVES phase field
$ is more narrow and the invariant temperatures involving C14_LAVES change
$ somewhat. The minimum temperature of beta-MnTi increases by 10 K. Other
$ equilibria change less.
$
$ ------------------------------------------------------------------------------
 TEMP-LIM 298.15 6000.00 !
$
$ELEMENT NAME  REF. STATE               ATOMIC MASS H298-H0    S298    !
$
 ELEMENT VA   VACUUM                      0.0          0.0      0.0    ! 
 ELEMENT MN   CBCC_A12                   54.9380    4995.696   32.2206 ! 
 ELEMENT TI   HCP_A3                     47.88      4824.      30.72   ! 
$ ------------------------------------------------------------------------------
$ Phase definitions
$
 PHASE LIQUID:L % 1 1 !
 CONST LIQUID:L : MN TI : !
$
$ Fcc (cF4, Fm-3m) and MeX (cF8, Fm-3m)
$
 PHASE FCC_A1 %A 2 1 1 !
 CONST FCC_A1 : MN% TI : VA : !
$
$ Bcc (cI2, Im-3m)
$
 PHASE BCC_A2 %B 2 1 3 !
 CONST BCC_A2 : MN% TI% : VA : !
$
$ Hcp (hP2, P6_3/mmc) and Me2X (NiAs-type, hP4, P6_3/mmc, B8_1)
$
 PHASE HCP_A3 % 2 1 0.5 !
 CONST HCP_A3 : MN TI% : VA : !
$
$ Prototype alpha-Mn (cI58, I-43m)
$
 PHASE CBCC_A12 %A 2 1 1 !
 CONST CBCC_A12 : MN% TI : VA : !
$
$ Prototype beta-Mn (cP20, P4_132)
$
 PHASE CUB_A13 % 2 1 1 !
 CONST CUB_A13 : MN% TI : VA : !
$
$ Prototype R-(Co,Cr,Mo) (hR53, R-3)
$
 PHASE MN4TI % 2 0.815 0.185 !
 CONST MN4TI : MN : TI : !
$
$ Pearson o**
$
 PHASE MN3TI % 2 3 1 !
 CONST MN3TI : MN : TI : !
$
$ Prototype MgZn2 (hP12, P6_3/mmc)
$
 PHASE MN2TI_C14 % 2 2 1 !
 CONST MN2TI_C14 : MN% TI : MN TI% : !
$
$ Prototype MgZn2 (hP12, P6_3/mmc)
$
 PHASE C14_LAVES % 2 2 1 !
 CONST C14_LAVES : MN% TI : MN TI% : !
$
$ Prototype CrFe (tP30, P4_2/mnm)
$
 PHASE MNTI_ALPHA % 2 1 1 !
 CONST MNTI_ALPHA : MN : TI : !
$
$ Prototype Re25Zr21 (hR92, R-3c)
$
 PHASE MNTI_BETA % 2 0.515 0.485 !
 CONST MNTI_BETA : MN : TI : !
$ ------------------------------------------------------------------------------
$ Defaults
$
 DEFINE-SYSTEM-DEFAULT ELEMENT 2 !
 DEFAULT-COM DEFINE_SYSTEM_ELEMENT VA !
 DEFAULT_COM REJECT_PHASE C14_LAVES !
 TYPE-DEF % SEQ * !
 TYPE-DEF B GES AMEND_PHASE_DESCRIPTION @ MAGNETIC -1 0.4 !
 TYPE-DEF A GES AMEND_PHASE_DESCRIPTION @ MAGNETIC -3 0.28 !
 FUNCTION ZERO      298.15  0;                                         6000 N !
 FUNCTION UN_ASS    298.15  0;                                         6000 N !
 FUNCTION R         298.15  +8.31451;                                  6000 N !
$ ------------------------------------------------------------------------------
$ Element data
$ ------------------------------------------------------------------------------
$ Mn
$
 PAR  G(CBCC_A12,MN:VA),,               +GHSERMN;                2000 N 91Din !
 PAR  TC(CBCC_A12,MN:VA),,               -285.00;                2000 N 91Din !
 PAR  BM(CBCC_A12,MN:VA),,                 -0.66;                2000 N 91Din !
 PAR  G(CUB_A13,MN:VA),,                +GCUBMN;                 2000 N 91Din !
 PAR  G(FCC_A1,MN:VA),,                 +GFCCMN;                 2000 N 91Din !
 PAR  TC(FCC_A1,MN:VA),,                -1620.00;                2000 N 91Din !
 PAR  BM(FCC_A1,MN:VA),,                   -1.86;                2000 N 91Din !
 PAR  G(BCC_A2,MN:VA),,                 +GBCCMN;                 2000 N 91Din !
 PAR  TC(BCC_A2,MN:VA),,                 -580.00;                2000 N 91Din !
 PAR  BM(BCC_A2,MN:VA),,                   -0.27;                2000 N 91Din !
 PAR  G(HCP_A3,MN:VA),,                 +GHCPMN;                 2000 N 91Din !
 PAR  TC(HCP_A3,MN:VA),,                -1620.00;                2000 N 91Din !
 PAR  BM(HCP_A3,MN:VA),,                   -1.86;                2000 N 91Din !
 PAR  G(LIQUID,MN),,                    +GLIQMN;                 2000 N 91Din !
$
 PAR  G(MN2TI_C14,MN:MN),,              +3*GHSERMN+3000;,,           N 98Sau14 !
 PAR  G(C14_LAVES,MN:MN),,              +3*GHSERMN+20700;,,          N 12Liu !
$
 FUNCTION GHSERMN   298.15  -8115.28+130.059*T-23.4582*T*LN(T)
       -0.00734768*T**2+69827*T**(-1);
      1519.00  Y  -28733.41+312.2648*T-48*T*LN(T)+1.656847E+30*T**(-9);
      2000.00  N !
 FUNCTION GCUBMN    298.15  -5800.4+135.995*T-24.8785*T*LN(T)
       -0.00583359*T**2+70269*T**(-1);
      1519.00  Y  +442.65-0.9715*T+GHSERMN+2.310723E+30*T**(-9);
      2000.00  N !
 FUNCTION GFCCMN    298.15  -3439.3+131.884*T-24.5177*T*LN(T)
       -0.006*T**2+69600*T**(-1);
      1519.00  Y  +2663.31-2.5984*T+GHSERMN+2.205113E+30*T**(-9);
      2000.00  N !
 FUNCTION GBCCMN    298.15  -3235.3+127.85*T-23.7*T*LN(T)
       -0.00744271*T**2+60000*T**(-1);
      1519.00  Y  +5544.58-4.5605*T+GHSERMN-3.91695E+29*T**(-9);
      2000.00  N !
 FUNCTION GHCPMN    298.15  -4439.3+133.007*T-24.5177*T*LN(T)
       -0.006*T**2+69600*T**(-1);
      1519.00  Y  +1663.31-1.4754*T+GHSERMN+2.205113E+30*T**(-9);
      2000.00  N !
 FUNCTION GLIQMN    298.15  +17859.91-12.6208*T+GHSERMN-4.41929E-21*T**7;
      1519.00  Y  -9993.9+299.036*T-48*T*LN(T);
      2000.00  N !
$ ------------------------------------------------------------------------------
$ Ti
$
$ BCT_A5 added in unary 3.0
$
 PAR  G(HCP_A3,TI:VA),,                 +GHSERTI;                4000 N 91Din !
 PAR  G(BCC_A2,TI:VA),,                 +GBCCTI;                 4000 N 91Din !
 PAR  G(FCC_A1,TI:VA),,                 +GHSERTI+6000-0.1*T;     4000 N 91Din !
$PAR  G(DIAMOND_A4,TI),,                +GHSERTI+25000;          4000 N 91Din !
$PAR  G(BCT_A5,TI),,                    +GHSERTI+4602.2;         3000 N SGCOST !
 PAR  G(CBCC_A12,TI:VA),,               +GHSERTI+4602.2;         4000 N 91Din !
 PAR  G(CUB_A13,TI:VA),,                +GHSERTI+7531.2;         4000 N 91Din !
 PAR  G(LIQUID,TI),,                    +GLIQTI;                 4000 N 91Din !
$
 PAR  G(MN2TI_C14,TI:TI),,              +3*GHSERTI+15000;        4000 N REFLAV !
$PAR  G(C14_LAVES,TI:TI),,              +3*GHSERTI+57600;        4000 N 06Slu !
 PAR  G(C14_LAVES,TI:TI),,              +3*GHSERTI+45000;        4000 N 17Hal2 !
$
 FUNCTION GHSERTI   298.15  -8059.921+133.615208*T-23.9933*T*LN(T)
       -0.004777975*T**2+1.06716E-07*T**3+72636*T**(-1);
       900.00  Y  -7811.815+132.988068*T-23.9887*T*LN(T)
       -0.0042033*T**2-9.0876E-08*T**3+42680*T**(-1);
      1155.00  Y  +908.837+66.976538*T-14.9466*T*LN(T)
       -0.0081465*T**2+2.02715E-07*T**3-1477660*T**(-1);
      1941.00  Y  -124526.786+638.806871*T-87.2182461*T*LN(T)
       +0.008204849*T**2-3.04747E-07*T**3+36699805*T**(-1);
      4000.00  N !
 FUNCTION GBCCTI    298.15  -1272.064+134.71418*T-25.5768*T*LN(T)
       -6.63845E-04*T**2-2.78803E-07*T**3+7208*T**(-1);
      1155.00  Y  +6667.385+105.366379*T-22.3771*T*LN(T)
       +0.00121707*T**2-8.4534E-07*T**3-2002750*T**(-1);
      1941.00  Y  +26483.26-182.426471*T+19.0900905*T*LN(T)
       -0.02200832*T**2+1.228863E-06*T**3+1400501*T**(-1);
      4000.00  N !
 FUNCTION GLIQTI    298.15  +12194.415-6.980938*T+GHSERTI;
      1300.00  Y  +369519.198-2554.0225*T+342.059267*T*LN(T)
       -0.163409355*T**2+1.2457117E-05*T**3-67034516*T**(-1);
      1941.00  Y  -19887.066+298.7367*T-46.29*T*LN(T);
      4000.00  N !
 FUNCTION GFCCTI    298.15  +GHSERTI+6000-0.1*T;                       4000 N !
$ ------------------------------------------------------------------------------
$ Binary system
$
$ From N. Saunders 1998 (included in LB Vol. 4)
$
$ N. Saunders, COST 507, Final report round 2, 1998.
$
$ Checked against LB and COST report. Checked at 6000 K.
$
$ REFLAV not used for G(MN2TI_C14,MN:MN).
$ -4*T term missing for G(MNTI_ALPHA,MN:TI)in the COST report.
$
$ There are two models for Mn2Ti included. MN2TI_C14 is the original from 98Sau.
$ C14_LAVES includes new end-member values and refitted interactions.
$ An incorrect value for G(C14_LAVES,TI:TI) was used in a previous version.
$ When using the correct value from 06Slu it was not possible to refit the
$ phase diagram without using excessive interaction parameters. Therefore
$ a value for G(C14_LAVES,TI:TI) was selected that produces moderate interaction
$ parameters. The interaction parameters were selected so that the invariant
$ temperatures involving the liquid change minimally. The C14_LAVES phase field
$ is more narrow and the invariant temperatures involving C14_LAVES change
$ somewhat. The minimum temperature of beta-MnTi increases by 10 K. Other
$ equilibria change less.
$
 PAR  L(LIQUID,MN,TI;0),,               -34000+21.5*T;,,             N 98Sau14 !
 PAR  L(LIQUID,MN,TI;1),,               +1400;,,                     N 98Sau14 !
$
 PAR  L(FCC_A1,MN,TI:VA;0),,            -26200+20*T;,,               N 98Sau14 !
$
 PAR  L(BCC_A2,MN,TI:VA;0),,            -23200+20*T;,,               N 98Sau14 !
 PAR  L(BCC_A2,MN,TI:VA;1),,            -1000;,,                     N 98Sau14 !
$
 PAR  L(HCP_A3,MN,TI:VA;0),,            +22100;,,                    N 98Sau14 !
$
 PAR  L(CBCC_A12,MN,TI:VA;0),,          -29500+20*T;,,               N 98Sau14 !
 PAR  L(CBCC_A12,MN,TI:VA;1),,          -3635-5*T;,,                 N 98Sau14 !
$
 PAR  L(CUB_A13,MN,TI:VA;0),,           -34000+20*T;,,               N 98Sau14 !
$
 PAR  G(MN2TI_C14,MN:TI),,              +2*GHSERMN+GHSERTI-26400;,,  N 98Sau14 !
 PAR  G(MN2TI_C14,TI:MN),,              +GHSERMN+2*GHSERTI+3000;,,   N 98Sau14 !
 PAR  L(MN2TI_C14,MN,TI:MN;0),,         +27000;,,                    N 98Sau14 !
 PAR  L(MN2TI_C14,MN,TI:TI;0),,         +27000;,,                    N 98Sau14 !
 PAR  L(MN2TI_C14,MN:MN,TI;0),,         +15000;,,                    N 98Sau14 !
 PAR  L(MN2TI_C14,TI:MN,TI;0),,         +15000;,,                    N 98Sau14 !
$
 PAR  G(C14_LAVES,MN:TI),,              +2*GHSERMN+GHSERTI-26400;,,  N 98Sau14 !
 PAR  G(C14_LAVES,TI:MN),,              +GHSERMN+2*GHSERTI+92100;,,   N 17Hal2 !
 PAR  L(C14_LAVES,MN,TI:MN;0),,         -6500;,,                      N 17Hal2 !
 PAR  L(C14_LAVES,MN,TI:TI;0),,         -6500;,,                      N 17Hal2 !
 PAR  L(C14_LAVES,MN:MN,TI;0),,         -5500;,,                      N 17Hal2 !
 PAR  L(C14_LAVES,TI:MN,TI;0),,         -5500;,,                      N 17Hal2 !
$
 PAR  G(MN3TI,MN:TI),,                  +3*GHSERMN+GHSERTI
             -18552-9.12*T;,,                                        N 98Sau14 !
 PAR  G(MN4TI,MN:TI),,                  +0.815*GHSERMN+0.185*GHSERTI
             -2445-2.9*T;,,                                          N 98Sau14 !
 PAR  G(MNTI_ALPHA,MN:TI),,             +GHSERMN+GHSERTI
             -11478-4*T;,,                                           N 98Sau14 !
 PAR  G(MNTI_BETA,MN:TI),,              +0.515*GHSERMN+0.485*GHSERTI
             -5540-2.29*T;,,                                         N 98Sau14 !
$ ------------------------------------------------------------------------------
$
 ASSESSED_SYSTEM
  MN-TI(TDB -* +LIQUID +MNTI_ALPHA +BCC_A2 +FCC_A1 +CBCC_A12 +CUB_A13
  +MNTI_BETA +HCP_A3 +MN2TI_C14 +MN3TI +MN4TI ;P3 TMM:300/2000 STP:.3/1700) !
$
$
 LIST-OF-REFERENCE
 NUMBER  SOURCE
  Null   'Unknown source'
  REFLAV 'Laves phase convention: G(LAVES,X:X)=+3*GHSERXX+15000'
  COST   'COST 507 database'
  SGCOST 'COST 507 database, SGTE unary database V.3.0, 1996; Al, B, Nd, Ti, Zn'
  91Din  'A.T. Dinsdale, Calphad, 15, 317-425(1991).'
  98Sau14 'N. Saunders, COST 507, Final report round 2, 1998; Mn-Ti'
  06Slu  'M.H.F. Sluiter, Calphad, 30, 357-66(2006); Endmember values'
  12Liu  'S.H. Liu, B. Hallstedt, D. Music, Y. Du,
          Calphad, 38, 43-58(2012); Fe-Nb, Mn-Nb, Fe-Mn-Nb'
  17Hal2 'B. Hallstedt, New C14_LAVES parameters and Ti lattice stability,
          2017; Cr-Ti, Fe-Ti, Mn-Ti'
!
