$
$ Database for Mg-N from B. Hallstedt 2015
$
$ B. Hallstedt, unpublished, 2015.
$
$ Dataset created 2015.06.21 by Bengt Hallstedt.
$ 2021.01.24: Modified for use with GES6.
$
$ This is just a dummy until reasonable interactions have been determined.
$ Interactions should be determined from a suitable ternary system.
$
$ There is a stable nitride, Mg3N2. Its enthalpy of formation is taken from
$ LB IV/5 (Predel). No further parameters are included.
$
$ ------------------------------------------------------------------------------
 TEMP-LIM 298.15 6000.00 !
$
$ELEMENT NAME  REF. STATE               ATOMIC MASS H298-H0    S298    !
$
 ELEMENT VA   VACUUM                      0.0          0.0      0.0    ! 
 ELEMENT MG   HCP_A3                     24.305     4998.      32.671  !
 ELEMENT N    1/2_MOLE_N2(G)             14.007     4335.0     95.751  ! 
$ ------------------------------------------------------------------------------
$ Species
$
 SPECIE  MG2                                MG2 !
 SPECIE  N2                                 N2 !
 SPECIE  N3                                 N3 !
$ ------------------------------------------------------------------------------
$ Phase definitions
$
 PHASE LIQUID:L % 1 1 !
 CONST LIQUID:L : MG N : !
$
$ Fcc (cF4, Fm-3m) and MeX (cF8, Fm-3m)
$
 PHASE FCC_A1 %A 2 1 1 !
 CONST FCC_A1 : MG : N VA% : !
$
$ Bcc (cI2, Im-3m)
$
 PHASE BCC_A2 %B 2 1 3 !
 CONST BCC_A2 : MG : N VA% : !
$
$ Hcp (hP2, P6_3/mmc) and Me2X (NiAs-type, hP4, P6_3/mmc, B8_1)
$
 PHASE HCP_A3 %A 2 1 0.5 !
 CONST HCP_A3 : MG : N VA% : !
$
$ Prototype alpha-Mn2O3 (cI80, Ia-3)
$
 PHASE MG3N2_D53 % 2 3 2 !
 CONST MG3N2_D53 : MG : N : !
$
 PHASE N2GAS % 1 1 !
 CONST N2GAS : N2 : !
$
 PHASE GAS:G % 1 1 !
 CONST GAS:G : MG MG2 N N2 N3 : !
$ ------------------------------------------------------------------------------
$ Defaults
$
 DEFINE-SYSTEM-DEFAULT ELEMENT 2 !
 DEFAULT-COM DEFINE_SYSTEM_ELEMENT VA !
 DEFAULT-COM REJECT_PHASE GAS !
 TYPE-DEF % SEQ * !
 TYPE-DEF A GES AMEND_PHASE_DESCRIPTION @ MAGNETIC -3 0.28 !
 TYPE-DEF B GES AMEND_PHASE_DESCRIPTION @ MAGNETIC -1 0.4 !
 FUNCTION ZERO      298.15  0;                                         6000 N !
 FUNCTION UN_ASS    298.15  0;                                         6000 N !
 FUNCTION R         298.15  +8.31451;                                  6000 N !
 FUNCTION RTLNP     298.15  +8.31451*T*LN(1E-05*P);                    6000 N !
$ ------------------------------------------------------------------------------
$ Element data
$ ------------------------------------------------------------------------------
$ Mg
$
 PAR  G(FCC_A1,MG:VA),,                 +GHSERMG+2600-0.9*T;     3000 N 91Din !
 PAR  G(BCC_A2,MG:VA),,                 +GHSERMG+3100-2.1*T;     3000 N 91Din !
 PAR  G(HCP_A3,MG:VA),,                 +GHSERMG;                3000 N 91Din !
$PAR  G(CBCC_A12,MG:VA),,               +GHSERMG
$            +4602.4-3.011*T;                                    3000 N 91Din !
$PAR  G(CUB_A13,MG:VA),,                +GHSERMG+5000-3*T;       3000 N 91Din !
 PAR  G(LIQUID,MG),,                    +GLIQMG;                 3000 N 91Din !
$
 PAR  G(GAS,MG),,                       +F12309T+RTLNP;,,             N 97SUB !
 PAR  G(GAS,MG2),,                      +F12397T+RTLNP;,,             N 97SUB !
$
 FUNCTION GHSERMG   298.15  -8367.34+143.675547*T-26.1849782*T*LN(T)
       +4.858E-04*T**2-1.393669E-06*T**3+78950*T**(-1);
       923.00  Y  -14130.185+204.716215*T-34.3088*T*LN(T)+1.038192E+28*T**(-9);
      3000.00  N !
 FUNCTION GLIQMG    298.15  +8202.243-8.83693*T+GHSERMG-8.0176E-20*T**7;
       923.00  Y  -5439.869+195.324057*T-34.3088*T*LN(T);
      3000.00  N !
$ Mg(g)
 FUNCTION F12309T   298.15  +140825.883-8.26177982*T-20.96302*T*LN(T)
       +1.331861E-04*T**2-1.51554617E-08*T**3+5221.91*T**(-1);
      2900.00  Y  +141959.02+20.1923541*T-25.1271*T*LN(T)
       +.002179723*T**2-1.502275E-07*T**3-3744678*T**(-1);
      5400.00  Y  +458455.469-794.05688*T+70.54811*T*LN(T)
       -.010649025*T**2+1.716475E-07*T**3-1.996814E+08*T**(-1);
      9200.00  Y  -315972.848+423.179252*T-63.73726*T*LN(T)
       -2.847232E-04*T**2+2.15099667E-08*T**3+6.39436E+08*T**(-1);
     10000.00  N !
$ Mg2(g)
 FUNCTION F12397T   298.15  +281408.793-104.38489*T-20.63169*T*LN(T)
       -6.14869E-05*T**2+4.25457833E-09*T**3-156733.25*T**(-1);
      3000.00  N !
$ ------------------------------------------------------------------------------
$ N
$
$ There is a small change in G(GAS,N) from SGSUB 1992 to 1994
$ G(GAS,N2) has a competely different expression in SGSUB 1994 and 1997
$ compared to the unary database.
$ G(GAS,N3) is considerably changed from SGSUB 1992 to 1994.
$
 PAR  G(N2GAS,N2),,                     +2*GHSERNN+RTLNP;,,           N 91Din !
 PAR  G(LIQUID,N),,                     +GHSERNN+29950+59.02*T;,,     N 91Din !
$
 PAR  G(GAS,N),,                        +F12658T+RTLNP;,,             N 97SUB !
 PAR  G(GAS,N2),,                       +2*GHSERNN+RTLNP;,,           N 91Din !
 PAR  G(GAS,N3),,                       +F12909T+RTLNP;,,             N 97SUB !
$
 FUNCTION GHSERNN   298.15  -3750.675-9.45425*T-12.7819*T*LN(T)
       -0.00176686*T**2+2.681E-09*T**3-32374*T**(-1);
       950.00  Y  -7358.85+17.2003*T-16.3699*T*LN(T)
       -6.5107E-04*T**2+3.0097E-08*T**3+563070*T**(-1);
      3350.00  Y  -16392.8+50.26*T-20.4695*T*LN(T)
       +2.39754E-04*T**2-8.333E-09*T**3+4596375*T**(-1);
      6000.00  N !
$ N(g)
 FUNCTION F12658T   298.15  +466446.153-13.3752574*T-20.89393*T*LN(T)
       +8.45521E-05*T**2-1.0018685E-08*T**3+2788.7865*T**(-1);
      2950.00  Y  +481259.035-52.5441353*T-16.37613*T*LN(T)
       -2.283738E-04*T**2-2.78997167E-08*T**3-7559105*T**(-1);
      6000.00  N !
$ N2(g) from SGSUB 1997
 FUNCTION F12845T   298.15  -8000.12556-8.81620364*T-27.22332*T*LN(T)
       -0.0012599175*T**2-5.39381E-07*T**3-38326.695*T**(-1);
       800.00  Y  -10569.6463+2.77534156*T-28.42384*T*LN(T)
       -0.003189275*T**2+2.06638E-07*T**3+416969.05*T**(-1);
      2200.00  Y  -22468.6305+71.8176271*T-37.55014*T*LN(T)
       -6.158995E-06*T**2-4.22547E-09*T**3+3427512*T**(-1);
      6000.00  N !
$ N3(g)
 FUNCTION F12909T   298.15  +426260.222-44.8788468*T-24.40177*T*LN(T)
       -0.02510581*T**2+3.41313667E-06*T**3+61652.95*T**(-1);
       800.00  Y  +409926.892+144.323862*T-52.34995*T*LN(T)
       -0.0035522355*T**2+2.39819667E-07*T**3+1869491.5*T**(-1);
      2200.00  Y  +398090.062+216.588607*T-61.96494*T*LN(T)
       -5.55378E-05*T**2+1.47712917E-09*T**3+4654831*T**(-1);
      6000.00  N !
$ ------------------------------------------------------------------------------
$ Binary system
$
$ B. Hallstedt, unpublished, 2015.
$
$ Checked at 6000K.
$
$ This is just a dummy until reasonable interactions have been determined.
$ Interactions should be determined from a suitable ternary system.
$
$ There is a stable nitride, Mg3N2. Its enthalpy of formation is taken from
$ LB IV/5 (Predel). No further parameters are included.
$
 PAR  L(LIQUID,MG,N;0),,                +ZERO;,,                      N 15Hal !
$
 PAR  L(HCP_A3,MG:N;0),,                +ZERO;,,                      N 15Hal !
$
 PAR  G(MG3N2_D53,MG:N),,               +3*GHSERMG+2*GHSERNN
             -461000;,,                                               N 15Hal !
$ ------------------------------------------------------------------------------
$
$
 LIST-OF-REFERENCE
 NUMBER  SOURCE
  Null   'Unknown source'
  Same   'Same or similar interaction as in the corresponding stable phase'
  REFLAV 'Laves phase convention: G(LAVES,X:X)=+3*GHSERXX+15000'
  COST   'COST 507 database'
  91Din  'A.T. Dinsdale, Calphad, 15, 317-425(1991).'
  97SUB  'SGTE substance database, version 1997'
  15Hal  'B. Hallstedt, unpublished, 2015; Mg-N'
!
