$
$ Database for Hg-Zn from S.C. Hansen 1998 (Included in LB Vol. 5)
$
$ S.C. Hansen, Calphad, 22, 359-73(1998).
$
$ Dataset created 2016.02.16 by Bengt Hallstedt.
$ 2021.01.17: Modified for use with GES6.
$
$ ------------------------------------------------------------------------------
 TEMP-LIM 298.15 6000.00 !
$
$ELEMENT NAME  REF. STATE               ATOMIC MASS H298-H0    S298    !
$
 ELEMENT VA   VACUUM                      0.0          0.0      0.0    ! 
 ELEMENT HG   LIQUID                    200.59      9342.      75.90   ! 
 ELEMENT ZN   HCP_A3                     65.38      5657.0     41.63   ! 
$ ------------------------------------------------------------------------------
$ Phase definitions
$
 PHASE LIQUID:L % 1 1 !
 CONST LIQUID:L : HG ZN : !
$
$ Fcc (cF4, Fm-3m) and MeX (cF8, Fm-3m)
$
 PHASE FCC_A1 %A 2 1 1 !
 CONST FCC_A1 : HG ZN : VA : !
$
$ Bcc (cI2, Im-3m)
$
 PHASE BCC_A2 %B 2 1 3 !
 CONST BCC_A2 : ZN : VA : !
$
$ Hcp (hP2, P6_3/mmc) and Me2X (NiAs-type, hP4, P6_3/mmc, B8_1)
$
 PHASE HCP_A3 %A 2 1 0.5 !
 CONST HCP_A3 : HG ZN% : VA: !
$
$ Prototype Hg (hR1, R-3m)
$
 PHASE RHOMBO_A10 % 1 1 !
 CONST RHOMBO_A10 : HG% ZN : !
$
$ Unknown structure
$
 PHASE HG3ZN % 2 3 1 !
 CONST HG3ZN : HG : ZN : !
$
$ Unknown structure
$
 PHASE HGZN2 % 2 1 2 !
 CONST HGZN2 : HG : ZN : !
$
$ Prototype Cu3Ti (oC4, Cmcm)
$
 PHASE HGZN3 % 2 1 3 !
 CONST HGZN3 : HG : ZN : !
$ ------------------------------------------------------------------------------
$ Defaults
$
 DEFINE-SYSTEM-DEFAULT ELEMENT 2 !
 DEFAULT-COM DEFINE_SYSTEM_ELEMENT VA !
 TYPE-DEFINITION % SEQ * !
 TYPE_DEF A GES AMEND_PHASE_DESCRIPTION @ MAGNETIC -3 0.28 !
 TYPE_DEF B GES AMEND_PHASE_DESCRIPTION @ MAGNETIC -1 0.4 !
 FUNCTION ZERO      298.15  0;                                         6000 N !
 FUNCTION UN_ASS    298.15  0;                                         6000 N !
 FUNCTION R         298.15  +8.31451;                                  6000 N !
$ ------------------------------------------------------------------------------
$ Element data
$ ------------------------------------------------------------------------------
$ Hg
$
$ HCP_A3 and TETRAGONAL_A6 added in unary 4.1
$ FCC_A1 added in unary 5.0
$
$ FCC_A1, BCC_A2 and HCP_A3 from 06Gie are not included in unary
$ The value for HCP_A3 from 06Gie is not acceptable
$
 PAR  G(LIQUID,HG)              200.00  +GHSERHG;                2000 N 91Din !
 PAR  G(RHOMBO_A10,HG)          200.00  +GRHOHG;                 2000 N 91Din !
 PAR  G(FCC_A1,HG:VA)           200.00  +GHSERHG+5+8.368*T;      2000 N 02Mai !
 PAR  G(HCP_A3,HG:VA)           200.00  +GRHOHG+200+0.7*T;       2000 N 95Yan !
$PAR  G(TETRAGONAL_A6,HG)       200.00  +GRHOHG
$            +208.68+1.765592*T;                                 2000 N 95Yan !
$
 FUNCTION GHSERHG   200.00  +82356.855-3348.19466*T+618.193308*T*LN(T)
       -2.0282337*T**2+0.00118398213*T**3-2366612*T**(-1);
       234.32  Y  -8961.207+135.232291*T-32.257*T*LN(T)
       +0.0097977*T**2-3.20695E-06*T**3+6670*T**(-1);
       400.00  Y  -7970.627+112.33345*T-28.414*T*LN(T)
       +0.00318535*T**2-1.077802E-06*T**3-41095*T**(-1);
       700.00  Y  -7161.338+90.797305*T-24.87*T*LN(T)
       -0.00166775*T**2+8.737E-09*T**3-27495*T**(-1);
      2000.00  N !
 FUNCTION GRHOHG    200.00  -10668.401+123.274598*T-28.847*T*LN(T)
       +0.01699705*T**2-2.4555667E-05*T**3+13330*T**(-1);
       234.32  Y  -11425.394+135.928158*T-30.2091*T*LN(T)
       +0.00107555*T**2-2.28298E-07*T**3+35545*T**(-1);
      2000.00  N !
$ ------------------------------------------------------------------------------
$ Zn
$
$ BCT_A5 and DIAMOND_A4 added in unary 3.0
$ HCP_A3 revised in unary 4.1 (due to introduction of HCP_ZN)
$ RHOMBOHEDRAL_A7 and TETRAGONAL_A6 added in unary 4.1
$ TETRAGONAL_A6 revised in unary 4.4
$ CBCC_A12 and CUB_A13 added in unary 4.4
$ HCP_A3 and LIQUID modified in unary 5.0 (melting T and coefficients adjusted)
$ RHOMBO_A10 added in unary 5.0
$
$ Pure Zn restored as HCP_A3
$
 PAR  G(HCP_A3,ZN:VA),,                 +GHSERZN;                1700 N 91Din !
$PAR  G(HCP_A3,ZN:VA),,                 +GHSERZN
$            +2969.82-1.56968*T;                                 1700 N 93Kow !
 PAR  G(FCC_A1,ZN:VA),,                 +GHSERZN
             +2969.82-1.56968*T;                                 1700 N 91Din !
 PAR  G(BCC_A2,ZN:VA),,                 +GHSERZN
             +2886.96-2.5104*T;                                  1700 N 91Din !
$PAR  G(DIAMOND_A4,ZN),,                +GHSERZN+30*T;           1700 N SGCOST !
$PAR  G(BCT_A5,ZN),,                    +GHSERZN
$            +2886.96-2.5104*T;                                  1700 N SGCOST !
$PAR  G(TETRAGONAL_A6,ZN),,             +GHSERZN+4184;           1700 N 96Lee !
$PAR  G(TETRAGONAL_A6,ZN),,             +GHSERZN
$            +2886.96-2.5104*T;                                  1700 N 99SGUN !
$PAR  G(RHOMBOHEDRAL_A7,ZN),,           +GHSERZN+2300+11.5*T;    1700 N 99SGUN !
 PAR  G(RHOMBO_A10,ZN),,                +GLIQZN-2000+10*T;       1700 N 98Han !
$PAR  G(CBCC_A12,ZN:VA),,               +GHSERZN+2000;           1700 N 01Mie !
$PAR  G(CUB_A13,ZN:VA),,                +GHSERZN+2000;           1700 N 01Mie !
 PAR  G(LIQUID,ZN),,                    +GLIQZN;                 1700 N 91Din !
$
 FUNCTION GHSERZN   298.15  -7285.787+118.470069*T-23.701314*T*LN(T)
       -0.001712034*T**2-1.264963E-06*T**3;
       692.677 Y  -11070.546+172.345644*T-31.38*T*LN(T)+4.7047E+26*T**(-9);
      1700.00  N !
 FUNCTION GLIQZN    298.15  +7157.222-10.29305*T+GHSERZN-3.58949E-19*T**7;
       692.677 Y  -3620.385+161.60854*T-31.38*T*LN(T);
      1700.00  N !
 FUNCTION GBCCZN    298.15  +GHSERZN+2886.96-2.5104*T;                 6000 N !
$ ------------------------------------------------------------------------------
$ Binary system
$
$ From S.C. Hansen 1998 (Included in LB Vol. 5)
$
$ S.C. Hansen, Calphad, 22, 359-73(1998).
$
$ Checked against LB and paper. Checked at 6000K.
$
 PAR  L(LIQUID,HG,ZN;0),,               +1695.7+2.16634*T;,,          N 98Han !
 PAR  L(LIQUID,HG,ZN;1),,               +772.3-1.3785*T;,,            N 98Han !
 PAR  L(LIQUID,HG,ZN;2),,               +1195.2-1.5978*T;,,           N 98Han !
$
 PAR  L(HCP_A3,HG,ZN:VA;0),,            +10036.5-2.68727*T;,,         N 98Han !
 PAR  L(RHOMBO_A10,HG,ZN;0),,           +10000;,,                     N 98Han !
$
 PAR  G(HG3ZN,HG:ZN),,                  +3*GHSERHG+GLIQZN
             -12176.4+25.63548*T;,,                                   N 98Han !
 PAR  G(HGZN2,HG:ZN),,                  +GHSERHG+2*GLIQZN
             -18679.2+33.72933*T;,,                                   N 98Han !
 PAR  G(HGZN3,HG:ZN),,                  +GHSERHG+3*GLIQZN
             -26889.2+46.93576*T;,,                                   N 98Han !
$
$ Metastable
$
 PAR  L(FCC_A1,HG,ZN:VA;0),,            +10036.5-2.68727*T;,,         N Same !
$ ------------------------------------------------------------------------------
$
 ASSESSED_SYSTEM
  HG-ZN(TDB -* +LIQUID +HCP_ZN +RHOMBO_A10 +HG3ZN +HGZN2 +HGZN3 
    ;P3 TMM:200/700 *) !
$
$
 LIST-OF-REFERENCE
 NUMBER  SOURCE
  Null   'Unknown source'
  Same   'Same or similar interaction as in the corresponding stable phase'
  REFLAV 'Laves phase convention: G(LAVES,X:X)=+3*GHSERXX+15000'
  COST   'COST 507 database'
  SGCOST 'COST 507 database, SGTE unary database V.3.0, 1996; Al, B, Nd, Ti, Zn'
  91Din  'A.T. Dinsdale, Calphad, 15, 317-425(1991).'
  93Kow  'M. Kowalski, P.J. Spencer, J. Phase Equilib., 14, 432-38 (1993),
          SGTE unary database V.4.1, 1999; Zn'
  95Yan  'J. Yang, N.J. Silk, A. Watson, A.W. Bryant, T.G. Chart, B.B. Argent,
          Calphad, 19, 415-30(1995), SGTE unary database V.4.1, 1999; Cd, Hg'
  96Lee  'B.-J. Lee, Calphad, 20, 471-80(1996)
          SGTE unary database V.4.4, 2001; Zn'
  98Han  'S.C. Hansen, Calphad, 22, 359-73(1998),
          SGTE unary database V.5.0, 2009; Zn, Hg-Zn'
  99SGUN 'SGTE unary database V.4.1, 1999.'
  01Mie  'J. Miettinen, Calphad, 25, 43-58(2001),
          SGTE unary database V.4.4, 2001; Sn, Zn'
  02Mai  'A. Maitre, J.M. Fiorani, M. Vilasi, J. Phase Equilib.,
          23, 329-38(2002), SGTE unary database V.5.0, 2009; Hg'
!
