$
$ Database for Sn-Zr from P. Lafaye et al. 2019.
$
$ P. Lafaye, C. Toffolon-Masclet, J.-C. Crivello, J.-M. Joubert,
$ Calphad, 64, 43-54(2019).
$
$ Dataset created 2020.10.13 by Bengt Hallstedt.
$ 2024.06.27: Changed phase name from SN4ZR5_ETA to SN3ZR5_ETA
$
$ Based on 08Jer using more DFT calculations. The enthalpies of formation are
$ considerably less negative.
$
$ Sn3Zr5 and Sn4Zr5 are modelled as a single phase with a miscibilty gap up to
$ 1340 K. The crystal structures are compatible. The name Sn3Zr5 is kept,
$ because this is the name previously used for the phase.
$
$ The Laves phases are not stable in this system, but the parameters are
$ included in the paper.
$
$ The bcc interaction has a large temperature dependence.
$
$ ------------------------------------------------------------------------------
 TEMP-LIM 298.15 6000.00 !
$
$ELEMENT NAME  REF. STATE               ATOMIC MASS H298-H0    S298    !
$
 ELEMENT VA   VACUUM                      0.0          0.0      0.0    ! 
 ELEMENT SN   BCT_A5                    118.69      6323.      51.18   ! 
 ELEMENT ZR   HCP_A3                     91.22      5566.27    39.1809 ! 
$ ------------------------------------------------------------------------------
$ Phase definitions
$
 PHASE LIQUID:L % 1 1 !
 CONST LIQUID:L : SN ZR : !
$
$ Fcc (cF4, Fm-3m) and MeX (cF8, Fm-3m)
$
 PHASE FCC_A1 %A 2 1 1 !
 CONST FCC_A1 : SN ZR : VA : !
$
$ Bcc (cI2, Im-3m)
$
 PHASE BCC_A2 %B 2 1 3 !
 CONST BCC_A2 : SN ZR% : VA : !
$
$ Hcp (hP2, P6_3/mmc) and Me2X (NiAs-type, hP4, P6_3/mmc, B8_1)
$
 PHASE HCP_A3 %A 2 1 0.5 !
 CONST HCP_A3 : SN ZR% : VA: !
$
$ Prototype C (cF8, Fd-3m)
$
 PHASE DIAMOND_A4 % 1 1 !
 CONST DIAMOND_A4 : SN : !
$
$ Prototype beta-Sn (tI4, I4_1/amd)
$
 PHASE BCT_A5 % 1 1 !
 CONST BCT_A5 : SN : !
$
$ Prototype Si2Ti (oF24, Fddd)
$
 PHASE SN2ZR_C54 %  2 2 1 !
 CONST SN2ZR_C54 : SN : ZR : !
$
$ Prototype Ga4Ti5 (hP18, P6_3/mcm), Sn4Zr5
$ and prototype Mn5Si3 (hP16, P6_3/mcm), D8_8, Sn3Zr5
$
 PHASE SN3ZR5_ETA %  3 3 5 1 !
 CONST SN3ZR5_ETA : SN : ZR : SN VA : !
$
$ Prototype Cr3Si (cP8, Pm-3n)
$
 PHASE SNZR4_A15 %  2 1 3 !
 CONST SNZR4_A15 : SN ZR : SN ZR : !
$
$ Prototype MgZn2 (hP12, P6_3/mmc)
$
 PHASE C14_LAVES % 3 4 2 6 !
 CONST C14_LAVES : SN ZR : SN ZR : SN ZR : !
$
$ Prototype Cu2Mg (cF24, Fd-3m)
$
 PHASE C15_LAVES % 2 2 1 !
 CONST C15_LAVES : SN ZR : SN ZR : !
$
$ Prototype MgNi2 (hP24, P6_3/mmc)
$
 PHASE C36_LAVES % 3 4 4 16 !
 CONST C36_LAVES : SN ZR : SN ZR : SN ZR : !
$ ------------------------------------------------------------------------------
$ Defaults
$
 DEFINE-SYSTEM-DEFAULT ELEMENT 2 !
 DEFAULT-COM DEFINE_SYSTEM_ELEMENT VA !
 TYPE-DEF % SEQ * !
 TYPE-DEF A GES AMEND_PHASE_DESCRIPTION @ MAGNETIC -3 0.28 !
 TYPE-DEF B GES AMEND_PHASE_DESCRIPTION @ MAGNETIC -1 0.4 !
 FUNCTION ZERO      298.15  0;                                         6000 N !
 FUNCTION UN_ASS    298.15  0;                                         6000 N !
 FUNCTION R         298.15  +8.31451;                                  6000 N !
$ ------------------------------------------------------------------------------
$ Element data
$ ------------------------------------------------------------------------------
$ Sn
$
$ FCC_A1 revised in unary 3.0
$ HCP_A3 revised in unary 4.1
$ TETRAGONAL_A6 added in unary 4.1
$ CBCC_A12 and CUB_A13 added in unary 4.4
$ FCC_A1 modified in unary 5.0
$ DHCP and TET_ALPHA1_A6 added in unary 5.0
$
$ The DHCP phase is labelled D0_24 in 03Liu and alpha-prime in 92Ans. The
$ phase is present between the fcc and hcp phases in the Au-Sn and Au-In
$ systems.
$
 PAR  G(BCT_A5,SN)              100.00  +GHSERSN;                3000 N 91Din !
 PAR  G(DIAMOND_A4,SN)          100.00  +GDIASN;                 3000 N 91Din !
 PAR  G(FCC_A1,SN:VA)           100.00  +GHSERSN+5510-8.46*T;    3000 N 89Fec !
$PAR  G(FCC_A1,SN:VA)           100.00  +GHSERSN+4150-5.2*T;     3000 N 91Din !
 PAR  G(BCC_A2,SN:VA)           100.00  +GHSERSN+4400-6*T;       3000 N 91Din !
 PAR  G(HCP_A3,SN:VA)           100.00  +GHSERSN+3900-7.646*T;   3000 N Ansar !
$PAR  G(HCP_A3,SN:VA)           100.00  +GHSERSN+3900-4.4*T;     3000 N 91Din !
$PAR  G(DHCP,SN)                100.00  +GHSERSN+3803.52-3.46*T; 3000 N 03Liu !
$PAR  G(RHOMBOHEDRAL_A7,SN)     100.00  +GHSERSN+2035;           3000 N 91Din !
$PAR  G(TETRAGONAL_A6,SN)       100.00  +GHSERSN+5387-8.26212*T; 3000 N 99Ans !
$PAR  G(CBCC_A12,SN:VA)         100.00  +GHSERSN+2000;           3000 N 01Mie !
$PAR  G(CUB_A13,SN:VA)          100.00  +GHSERSN+2000;           3000 N 01Mie !
$PAR  G(TET_ALPHA1_A6,SN)       100.00  +GHSERSN+5510-8.46*T;    3000 N 99Ans !
 PAR  G(LIQUID,SN)              100.00  +GLIQSN;                 3000 N 91Din !
$
 PAR  G(C14_LAVES,SN:SN:SN),,           +12*GHSERSN+136760;,,         N 19Laf !
 PAR  G(C15_LAVES,SN:SN),,              +3*GHSERSN+41313;,,           N 19Laf !
 PAR  G(C36_LAVES,SN:SN:SN),,           +24*GHSERSN+297926;,,         N 19Laf !
 PAR  G(SNZR4_A15,SN:SN),,              +4*GHSERSN+30031+19.45*T;,,   N 17Laf !
$
 FUNCTION GHSERSN   100.00  -7958.517+122.765451*T-25.858*T*LN(T)
       +5.1185E-04*T**2-3.192767E-06*T**3+18440*T**(-1);
       250.00  Y  -5855.135+65.443315*T-15.961*T*LN(T)
       -0.0188702*T**2+3.121167E-06*T**3-61960*T**(-1);
       505.08  Y  +2524.724+4.005269*T-8.2590486*T*LN(T)
       -0.016814429*T**2+2.623131E-06*T**3-1081244*T**(-1)-1.2307E+25*T**(-9);
       800.00  Y  -8256.959+138.99688*T-28.4512*T*LN(T)-1.2307E+25*T**(-9);
      3000.00  N !
 FUNCTION GDIASN    100.00  -9579.608+114.007785*T-22.972*T*LN(T)
       -0.00813975*T**2+2.7288E-06*T**3+25615*T**(-1);
       298.15  Y  -9063.001+104.84654*T-21.5750771*T*LN(T)
       -0.008575282*T**2+1.784447E-06*T**3-2544*T**(-1);
       800.00  Y  -10909.351+147.396535*T-28.4512*T*LN(T);
      3000.00  N !
 FUNCTION GLIQSN    100.00  +7103.092-14.087767*T+GHSERSN+1.47031E-18*T**7;
       505.08  Y  +6971.586-13.814383*T+GHSERSN+1.2307E+25*T**(-9);
       800.00  Y  -1285.372+125.182498*T-28.4512*T*LN(T);
      3000.00  N !
 FUNCTION GBCCSN    298.15  +GHSERSN+4400-6*T;                         3000 N !
$ ------------------------------------------------------------------------------
$ Zr
$
$ CUB_A13, CBCC_A12, ORTHORHOMBIC_A20 and TETRAGONAL_U added in unary 4.1
$
 PAR  G(HCP_A3,ZR:VA)           130.00  +GHSERZR;,,                   N 91Din !
 PAR  G(BCC_A2,ZR:VA)           130.00  +GBCCZR;,,                    N 91Din !
$PAR  G(OMEGA,ZR)               130.00  +GOMEZR;,,                    N 91Din !
 PAR  G(FCC_A1,ZR:VA)           130.00  +GHSERZR+7600-0.9*T;,,        N 91Din !
$PAR  G(CBCC_A12,ZR:VA)         130.00  +GHSERZR+4602.2;,,            N 99SGUN !
$PAR  G(CUB_A13,ZR:VA)          130.00  +GHSERZR+7531.2;,,            N 99SGUN !
$PAR  G(ORTHORHOMBIC_A20,ZR)    130.00  +GBCCZR+5000;,,               N 99SGUN !
$PAR  G(TETRAGONAL_U,ZR)        130.00  +GBCCZR+5000;,,               N 99SGUN !
 PAR  G(LIQUID,ZR)              130.00  +GLIQZR;,,                    N 91Din !
$
 PAR  G(C14_LAVES,ZR:ZR:ZR),,           +12*GHSERZR+282926;,,         N 19Laf !
 PAR  G(C15_LAVES,ZR:ZR),,              +3*GHSERZR+88549;,,           N 19Laf !
 PAR  G(C36_LAVES,ZR:ZR:ZR),,           +24*GHSERZR+618997;,,         N 19Laf !
 PAR  G(SNZR4_A15,ZR:ZR),,              +4*GHSERZR+83500;,,           N 19Laf !
$
 FUNCTION GHSERZR   130.00  -7827.595+125.64905*T-24.1618*T*LN(T)
       -0.00437791*T**2+34971*T**(-1);
      2128.00  Y  -26085.921+262.724183*T-42.144*T*LN(T)-1.342896E+31*T**(-9);
      6000.00  N !
 FUNCTION GBCCZR    130.00  -525.539+124.9457*T-25.607406*T*LN(T)
       -3.40084E-04*T**2-9.729E-09*T**3+25233*T**(-1)-7.6143E-11*T**4;
      2128.00  Y  -4620.034+1.55998*T+GHSERZR+1.4103476E+32*T**(-9);
      6000.00  N !
 FUNCTION GOMEZR    130.00  -8878.082+144.432234*T-26.8556*T*LN(T)
       -0.002799446*T**2+38376*T**(-1);
      2128.00  Y  -3414.603+2.566675*T+GHSERZR+8.517346E+31*T**(-9);
      6000.00  N !
 FUNCTION GLIQZR    130.00  +18147.69-9.080812*T+GHSERZR+1.6275E-22*T**7;
      2128.00  Y  -8281.26+253.812609*T-42.144*T*LN(T);
      6000.00  N !
$ ------------------------------------------------------------------------------
$ Binary system
$
$ P. Lafaye, C. Toffolon-Masclet, J.-C. Crivello, J.-M. Joubert,
$ Calphad, 64, 43-54(2019).
$
$ Checked against paper and author's tdb. Checked at 6000 K.
$
$ Based on 08Jer using more DFT calculations. The enthalpies of formation are
$ considerably less negative.
$
$ Sn3Zr5 and Sn4Zr5 are modelled as a single phase with a miscibilty gap up to
$ 1340 K. The crystal structures are compatible. The name Sn3Zr5 is kept,
$ because this is the name previously used for the phase.
$
$ The bcc interaction has a large temperature dependence.
$
 PAR  L(LIQUID,SN,ZR;0),,               -104316-19.31*T;,,            N 19Laf !
 PAR  L(LIQUID,SN,ZR;1),,               +12554;,,                     N 19Laf !
$
 PAR  L(BCC_A2,SN,ZR:VA;0),,            -69691-38.34*T;,,             N 19Laf !
 PAR  L(BCC_A2,SN,ZR:VA;1),,            +66851-30.51*T;,,             N 19Laf !
$
 PAR  L(HCP_A3,SN,ZR:VA;0),,            -94598+1.12*T;,,              N 19Laf !
 PAR  L(HCP_A3,SN,ZR:VA;1),,            +58224;,,                     N 19Laf !
$
 PAR  G(SN2ZR_C54,SN:ZR),,              +2*GHSERSN+GHSERZR
             -131061-0.36*T;,,                                        N 19Laf !
$
 PAR  G(SN3ZR5_ETA,SN:ZR:SN),,          +4*GHSERSN+5*GHSERZR
             -523880-7.56*T;,,                                        N 19Laf !
 PAR  G(SN3ZR5_ETA,SN:ZR:VA),,          +3*GHSERSN+5*GHSERZR
             -446501-7.56*T;,,                                        N 19Laf !
 PAR  L(SN3ZR5_ETA,SN:ZR:SN,VA;0),,     +273.2;,,                     N 19Laf !
 PAR  L(SN3ZR5_ETA,SN:ZR:SN,VA;1),,     -23534;,,                     N 19Laf !
$
 PAR  G(SNZR4_A15,SN:ZR),,              +GHSERSN+3*GHSERZR
             -142326-4.44*T;,,                                        N 19Laf !
 PAR  G(SNZR4_A15,ZR:SN),,              +GHSERZR+3*GHSERSN
             +201296;,,                                               N 19Laf !
 PAR  L(SNZR4_A15,SN,ZR:ZR;0),,         -139383;,,                    N 19Laf !
$
$ Metastable
$
 PAR  L(FCC_A1,SN,ZR:VA;0),,            -70201;,,                     N 19Laf !
 PAR  L(FCC_A1,SN,ZR:VA;1),,            -87785;,,                     N 19Laf !
$
 PAR  G(C14_LAVES,SN:SN:ZR),,           +6*GHSERSN+6*GHSERZR
             -180800;,,                                               N 19Laf !
 PAR  G(C14_LAVES,SN:ZR:SN),,           +10*GHSERSN+2*GHSERZR
             -7803;,,                                                 N 19Laf !
 PAR  G(C14_LAVES,SN:ZR:ZR),,           +4*GHSERSN+8*GHSERZR
             +65760;,,                                                N 19Laf !
 PAR  G(C14_LAVES,ZR:SN:SN),,           +8*GHSERSN+4*GHSERZR
             +218147;,,                                               N 19Laf !
 PAR  G(C14_LAVES,ZR:SN:ZR),,           +2*GHSERSN+10*GHSERZR
             -97891;,,                                                N 19Laf !
 PAR  G(C14_LAVES,ZR:ZR:SN),,           +6*GHSERSN+6*GHSERZR
             -229854;,,                                               N 19Laf !
$
 PAR  G(C15_LAVES,SN:ZR),,              +2*GHSERSN+GHSERZR
             +73306;,,                                                N 19Laf !
 PAR  G(C15_LAVES,ZR:SN),,              +2*GHSERZR+GHSERSN
             +11556;,,                                                N 19Laf !
$
 PAR  G(C36_LAVES,SN:SN:ZR),,           +8*GHSERSN+16*GHSERZR
             +101940;,,                                               N 19Laf !
 PAR  G(C36_LAVES,SN:ZR:SN),,           +20*GHSERSN+4*GHSERZR
             +415645;,,                                               N 19Laf !
 PAR  G(C36_LAVES,SN:ZR:ZR),,           +4*GHSERSN+20*GHSERZR
             +259599;,,                                               N 19Laf !
 PAR  G(C36_LAVES,ZR:SN:SN),,           +20*GHSERSN+4*GHSERZR
             +416498;,,                                               N 19Laf !
 PAR  G(C36_LAVES,ZR:SN:ZR),,           +4*GHSERSN+20*GHSERZR
             +289212;,,                                               N 19Laf !
 PAR  G(C36_LAVES,ZR:ZR:SN),,           +16*GHSERSN+8*GHSERZR
             +474299;,,                                               N 19Laf !
$ ------------------------------------------------------------------------------
$
 ASSESSED_SYSTEM
  SN-ZR(TDB -* +LIQUID +BCT_A5 +BCC_A2 +HCP_A3 +SN2ZR_C54 +SN3ZR5_ETA
  +SNZR4_A15 ;P3 TMM:300/2300 STP:.3/1500/-2) !
$
$
 LIST-OF-REFERENCE
 NUMBER  SOURCE
  Null   'Unknown source'
  Same   'Same or similar interaction as in the corresponding stable phase'
  Ansar  'Himo Ansara, unpublished, SGTE unary database V.4.1, 1999; Sn'
  89Fec  'H.J. Fecht, M.X. Zhang, Y.A. Chang, J.H. Perepezko,
          Metall. Trans. A, 20A, 795-803(1989),
          SGTE unary database V.3.0, 1996; Sn'
  91Din  'A.T. Dinsdale, Calphad, 15, 317-425(1991).'
  99Ans  'I. Ansara, S.G. Fries, H.L. Lukas, unpublished, 1999,
          SGTE unary database V.5.0, 2009; In, Sn'
  99SGUN 'SGTE unary database V.4.1, 1999.'
  01Mie  'J. Miettinen, Calphad, 25, 43-58(2001),
          SGTE unary database V.4.4, 2001; Sn, Zn'
  03Liu  'H.S. Liu, C.L. Liu, K. Ishida, Z.P. Jin, J. Electron. Mater.,
          32, 1290-96(2003), SGTE unary database V.5.0, 2009; Sn'
  17Laf  'P. Lafaye, C. Toffolon-Masclet, J.-C. Crivello, J.-M. Joubert,
          Calphad, 57, 37-45(2017); Nb-Sn'
  19Laf  'P. Lafaye, C. Toffolon-Masclet, J.-C. Crivello, J.-M. Joubert,
          Calphad, 64, 43-54(2019); Sn-Zr'
!
