$
$ Database for Au-Cu from B. Sundman et al 1998 (Included in LB Vol. 1)
$
$ B. Sundman, S.G. Fries, A. Oates, Calphad, 22, 335-54(1998).
$
$ Dataset created 2009.10.03 by Bengt Hallstedt.
$ 2020.12.22: Modified for use with GES6.
$
$ Including a 4-SL ordering model for fcc.
$
$ ------------------------------------------------------------------------------
 TEMP-LIM 298.15 6000.00 !
$
$ELEMENT NAME  REF. STATE               ATOMIC MASS H298-H0    S298    !
$
 ELEMENT VA   VACUUM                      0.0          0.0      0.0    ! 
 ELEMENT AU   FCC_A1                    196.9665    6016.592   47.4884 ! 
 ELEMENT CU   FCC_A1                     63.546     5004.      33.15   !
$ ------------------------------------------------------------------------------
$ Phase definitions
$
 PHASE LIQUID:L % 1 1 !
 CONST LIQUID:L : AU CU : !
$
$ Fcc (cF4) and MeX (cF8)
$
 PHASE FCC_A1 %A 2 1 1 !
 CONST FCC_A1 : AU% CU% : VA : !
$
$ Disordered part of FCC_4SL, identical to FCC_A1
$
 PHASE A1_FCC %A 2 1 1 !
 CONST A1_FCC : AU CU : VA : !
$
$ Prototype AuCu (L1_0, tP4, P4/mmm) and AuCu3 (L1_2, cP4, Pm-3m)
$
 PHASE FCC_4SL %AY 5 0.25 0.25 0.25 0.25 1 !
 CONST FCC_4SL : AU CU : AU CU : AU CU : AU CU : VA :  !
$
$ Bcc (cI2, Im-3m)
$
 PHASE BCC_A2 %B 2 1 3 !
 CONST BCC_A2 : AU CU : VA : !
$
$ Hcp (hP2, P6_3/mmc) and Me2X (NiAs-type, hP4, P6_3/mmc, B8_1)
$
 PHASE HCP_A3 %A 2 1 0.5 !
 CONST HCP_A3 : AU CU : VA : !
$ ------------------------------------------------------------------------------
$ Defaults
$
 DEFINE-SYSTEM-DEFAULT ELEMENT 2 !
 DEFAULT-COM DEFINE_SYSTEM_ELEMENT VA !
 TYPE-DEF % SEQ * !
 TYPE-DEF A GES AMEND_PHASE_DESCRIPTION @ MAGNETIC -3 0.28 !
 TYPE-DEF B GES AMEND_PHASE_DESCRIPTION @ MAGNETIC -1 0.4 !
 TYPE-DEF Y GES AMEND_PHASE_DESCRIPTION FCC_4SL DIS_PART A1_FCC !
 DEFAULT-COM REJECT_PHASE FCC_A1 !
 FUNCTION ZERO      298.15  0;                                         6000 N !
 FUNCTION UN_ASS    298.15  0;                                         6000 N !
 FUNCTION R         298.15  +8.31451;                                  6000 N !
$ ------------------------------------------------------------------------------
$ Element data
$ ------------------------------------------------------------------------------
$ Au
$
$ DHCP added in unary 5.0
$
$ DHCP replaced by the value from 92Ans in SGSOL 5.0
$
$ The DHCP phase is labelled D0_24 in 03Liu and alpha-prime in 92Ans. The
$ phase is present between the fcc and hcp phases in the Au-Sn and Au-In
$ systems. The value for DHCP from 92Ans was used to model these systems,
$ thus this value must be included in the unary database and not the 04Du
$ value.
$
 PAR  G(FCC_A1,AU:VA),,                 +GHSERAU;                3200 N 91Din !
 PAR  G(A1_FCC,AU:VA),,                 +GHSERAU;                3200 N 91Din !
 PAR  G(HCP_A3,AU:VA),,                 +GHSERAU+240.75+1.6*T;   3200 N 91Din !
 PAR  G(BCC_A2,AU:VA),,                 +GHSERAU+4250-1.1*T;     3200 N 91Din !
$PAR  G(DHCP,AU),,                      +GHSERAU+125+0.79*T;     3200 N 92Ans !
$PAR  G(DHCP,AU),,                      +GHSERAU+5000;           3200 N 04Du !
 PAR  G(LIQUID,AU),,                    +GHSERAU
             +12552-9.385866*T;                                  3200 N 91Din !
$
 FUNCTION GHSERAU   298.15  -6938.856+106.830098*T-22.75455*T*LN(T)
       -0.00385924*T**2+3.79625E-07*T**3-25097*T**(-1);
       929.40  Y  -93586.481+1021.69543*T-155.706745*T*LN(T)
       +0.08756015*T**2-1.1518713E-05*T**3+10637210*T**(-1);
      1337.33  Y  +314067.829-2016.37825*T+263.252259*T*LN(T)
       -0.118216828*T**2+8.923844E-06*T**3-67999832*T**(-1);
      1735.80  Y  -12133.783+165.272524*T-30.9616*T*LN(T);
      3200.00  N !
$ ------------------------------------------------------------------------------
$ Cu
$
 PAR  G(FCC_A1,CU:VA),,                 +GHSERCU;                3200 N 91Din !
 PAR  G(A1_FCC,CU:VA),,                 +GHSERCU;                3200 N 91Din !
 PAR  G(BCC_A2,CU:VA),,                 +GHSERCU+4017-1.255*T;   3200 N 91Din !
 PAR  G(HCP_A3,CU:VA),,                 +GHSERCU+600+0.2*T;      3200 N 91Din !
 PAR  G(LIQUID,CU),,                    +GLIQCU;                 3200 N 91Din !
$
 FUNCTION GHSERCU   298.15  -7770.458+130.485235*T-24.112392*T*LN(T)
       -0.00265684*T**2+1.29223E-07*T**3+52478*T**(-1);
      1357.77  Y  -13542.026+183.803828*T-31.38*T*LN(T)+3.64167E+29*T**(-9);
      3200.00  N !
 FUNCTION GLIQCU    298.15  +12964.735-9.511904*T+GHSERCU-5.8489E-21*T**7;
      1357.77  Y  -46.545+173.881484*T-31.38*T*LN(T);
      3200.00  N !
$ ------------------------------------------------------------------------------
$ Binary system
$
$ From B. Sundman et al. 1998 (Included in LB Vol. 1)
$
$ B. Sundman, S.G. Fries, A. Oates, Calphad, 22, 335-54(1998).
$
$ Checked against paper and LB. Checked at 6000 K.
$
$ Including a 4-SL ordering model for fcc.
$
 PAR  L(LIQUID,AU,CU;0),,               -27900-T;,,                   N 98Sun !
 PAR  L(LIQUID,AU,CU;1),,               +4730;,,                      N 98Sun !
 PAR  L(LIQUID,AU,CU;2),,               +3500+3.5*T;,,                N 98Sun !
$
 PAR  L(FCC_A1,AU,CU:VA;0),,            +4*ALAN+0.75*LAUAU
             +1.5*LAUCU+0.75*LCUCU+0.25*AUCUG1;,,                     N 98Sun !
 PAR  L(FCC_A1,AU,CU:VA;1),,            +1.5*LAUAU-1.5*LCUCU
             +0.25*AUCUG2;,,                                          N 98Sun !
 PAR  L(FCC_A1,AU,CU:VA;2),,            -3*LAUCU+0.25*AUCUG3;,,       N 98Sun !
 PAR  L(FCC_A1,AU,CU:VA;3),,            -1.5*LAUAU+1.5*LCUCU;,,       N 98Sun !
 PAR  L(FCC_A1,AU,CU:VA;4),,            -0.75*LAUAU+1.5*LAUCU
             -0.75*LCUCU;,,                                           N 98Sun !
$
 PAR  L(A1_FCC,AU,CU:VA;0),,            +4*ALAN+0.75*LAUAU
             +1.5*LAUCU+0.75*LCUCU+0.25*AUCUG1;,,                     N 98Sun !
 PAR  L(A1_FCC,AU,CU:VA;1),,            +1.5*LAUAU-1.5*LCUCU
             +0.25*AUCUG2;,,                                          N 98Sun !
 PAR  L(A1_FCC,AU,CU:VA;2),,            -3*LAUCU+0.25*AUCUG3;,,       N 98Sun !
 PAR  L(A1_FCC,AU,CU:VA;3),,            -1.5*LAUAU+1.5*LCUCU;,,       N 98Sun !
 PAR  L(A1_FCC,AU,CU:VA;4),,            -0.75*LAUAU+1.5*LAUCU
             -0.75*LCUCU;,,                                           N 98Sun !
$
 PAR  G(FCC_4SL,CU:AU:AU:AU:VA),,       +RAU3CU1;,,                   N 98Sun !
 PAR  G(FCC_4SL,AU:CU:AU:AU:VA),,       +RAU3CU1;,,                   N 98Sun !
 PAR  G(FCC_4SL,CU:CU:AU:AU:VA),,       +RAU2CU2;,,                   N 98Sun !
 PAR  G(FCC_4SL,AU:AU:CU:AU:VA),,       +RAU3CU1;,,                   N 98Sun !
 PAR  G(FCC_4SL,CU:AU:CU:AU:VA),,       +RAU2CU2;,,                   N 98Sun !
 PAR  G(FCC_4SL,AU:CU:CU:AU:VA),,       +RAU2CU2;,,                   N 98Sun !
 PAR  G(FCC_4SL,CU:CU:CU:AU:VA),,       +RAU1CU3;,,                   N 98Sun !
 PAR  G(FCC_4SL,AU:AU:AU:CU:VA),,       +RAU3CU1;,,                   N 98Sun !
 PAR  G(FCC_4SL,CU:AU:AU:CU:VA),,       +RAU2CU2;,,                   N 98Sun !
 PAR  G(FCC_4SL,AU:CU:AU:CU:VA),,       +RAU2CU2;,,                   N 98Sun !
 PAR  G(FCC_4SL,CU:CU:AU:CU:VA),,       +RAU1CU3;,,                   N 98Sun !
 PAR  G(FCC_4SL,AU:AU:CU:CU:VA),,       +RAU2CU2;,,                   N 98Sun !
 PAR  G(FCC_4SL,CU:AU:CU:CU:VA),,       +RAU1CU3;,,                   N 98Sun !
 PAR  G(FCC_4SL,AU:CU:CU:CU:VA),,       +RAU1CU3;,,                   N 98Sun !
 PAR  L(FCC_4SL,CU:CU:AU,CU:AU,CU:VA;0),,   -3975;,,                  N 98Sun !
 PAR  L(FCC_4SL,CU:AU,CU:CU:AU,CU:VA;0),,   -3975;,,                  N 98Sun !
 PAR  L(FCC_4SL,AU,CU:CU:CU:AU,CU:VA;0),,   -3975;,,                  N 98Sun !
 PAR  L(FCC_4SL,CU:AU,CU:AU,CU:CU:VA;0),,   -3975;,,                  N 98Sun !
 PAR  L(FCC_4SL,AU,CU:CU:AU,CU:CU:VA;0),,   -3975;,,                  N 98Sun !
 PAR  L(FCC_4SL,AU,CU:AU,CU:CU:CU:VA;0),,   -3975;,,                  N 98Sun !
 PAR  L(FCC_4SL,AU,CU:AU,CU:*:*:VA;0),,   -4.5*T;,,                   N 98Sun !
 PAR  L(FCC_4SL,AU,CU:*:AU,CU:*:VA;0),,   -4.5*T;,,                   N 98Sun !
 PAR  L(FCC_4SL,AU,CU:*:*:AU,CU:VA;0),,   -4.5*T;,,                   N 98Sun !
 PAR  L(FCC_4SL,*:AU,CU:AU,CU:*:VA;0),,   -4.5*T;,,                   N 98Sun !
 PAR  L(FCC_4SL,*:AU,CU:*:AU,CU:VA;0),,   -4.5*T;,,                   N 98Sun !
 PAR  L(FCC_4SL,*:*:AU,CU:AU,CU:VA;0),,   -4.5*T;,,                   N 98Sun !
$
 FUNCTION LAUAU     298.15  -2.25*T;                                   6000 N !
 FUNCTION LAUCU     298.15  -2.25*T;                                   6000 N !
 FUNCTION LCUCU     298.15  -1987.5-2.25*T;                            6000 N !
 FUNCTION GAU3CU1   298.15  -34590-4.695*T*LN(T);                      6000 N !
 FUNCTION GAU2CU2   298.15  -54120+1.2*T-6.26*T*LN(T);                 6000 N !
 FUNCTION GAU1CU3   298.15  -41520-4.695*T*LN(T);                      6000 N !
 FUNCTION AUCUG1    298.15  +GAU3CU1+1.5*GAU2CU2+GAU1CU3;              6000 N !
 FUNCTION AUCUG2    298.15  +2*GAU3CU1-2*GAU1CU3;                      6000 N !
 FUNCTION AUCUG3    298.15  +GAU3CU1-1.5*GAU2CU2+GAU1CU3;              6000 N !
 FUNCTION ALAN      298.15  +3940+10.32*T;                             6000 N !
 FUNCTION RAU3CU1   298.15  +0.25*GAU3CU1;                             6000 N !
 FUNCTION RAU2CU2   298.15  +0.25*GAU2CU2;                             6000 N !
 FUNCTION RAU1CU3   298.15  +0.25*GAU1CU3;                             6000 N !
$ ------------------------------------------------------------------------------
$
 ASSESSED_SYSTEM
  AU-CU(TDB -* +LIQ +FCC_4SL ;P3 TMM:300/2000
  STP:.3/400/-1 STP:.7/400/1 STP:0.2/1500/-2 STP:.8/1500/-2) !
$
$
 LIST-OF-REFERENCE
 NUMBER  SOURCE
  Null   'Unknown source'
  COST   'COST 507 database'
  91Din  'A.T. Dinsdale, Calphad, 15, 317-425(1991).'
  92Ans  'I. Ansara, J.-Ph. Nabot, Calphad, 16, 13-18(1992); Au'
  98Sun  'B. Sundman, S.G. Fries, A. Oates, Calphad, 22, 335-54(1998); Au-Cu'
  04Du   'Z. Du, C. Guo, D. Lu, J. Alloys Compd., 364, 117-20(2004),
          SGTE unary database V.5.0, 2009; Au'
!
