$
$ Database for B-C from A. Saengdeejing et al. 2012.
$
$ A. Saengdeejing, J.E. Saal, V.R. Manga, Z.-K. Liu,
$ Acta Mater., 60, 7207-15(2012).
$
$ Dataset created 2019.10.06 by Bengt Hallstedt.
$ 2024.04.11: Changed L(BETA_RHOMBO_B,B:B,C;0) back to the value in the paper
$
$ Very complex model for B4C.
$
$ There is one incorrect parameter for the B4C phase in the paper, which was
$ possibly used to make calculations in the paper.
$
$ The L=B4C+Gra eutectic is 12 K higher than in the paper. The temperature
$ of the L+B4C=B peritectic matches the table of invariants, but not the
$ plotted phase diagram.
$
$ ------------------------------------------------------------------------------
 TEMP-LIM 298.15 6000.00 !
$
$ELEMENT NAME  REF. STATE               ATOMIC MASS H298-H0    S298    !
$
 ELEMENT VA   VACUUM                      0.0          0.0      0.0    ! 
 ELEMENT B    BETA_RHOMBO_B              10.81      1222.0      5.9    ! 
 ELEMENT C    GRAPHITE                   12.011     1054.0      5.7423 ! 
$ ------------------------------------------------------------------------------
$ Phase definitions
$
 PHASE LIQUID:L % 1 1 !
 CONST LIQUID:L : B C : !
$
$ Prototype beta-B (hR105, R-3m)
$
 PHASE BETA_RHOMBO_B % 2 101 4 !
 CONST BETA_RHOMBO_B : B : B C : !
$
$ Prototype C (cF8, Fd-3m)
$
 PHASE DIAMOND_A4 % 1 1 !
 CONST DIAMOND_A4 : C : !
$
$ Prototype C (hP4, P6_3/mmc)
$
 PHASE GRAPHITE_A9 % 1 1 !
 CONST GRAPHITE_A9 : B C% : !
$
$ Prototype B13C2 (hR15, R-3m)
$
 PHASE B4C_D1G % 5 11 1 1 1 1 !
 CONST B4C_D1G : B : B C : B C VA : B VA : B C VA : !
$ ------------------------------------------------------------------------------
$ Defaults
$
 DEFINE-SYSTEM-DEFAULT ELEMENT 2 !
 DEFAULT-COM DEFINE_SYSTEM_ELEMENT VA !
 TYPE-DEF % SEQ * !
 TYPE-DEF A GES AMEND_PHASE_DESCRIPTION @ MAGNETIC -3 0.28 !
 TYPE-DEF B GES AMEND_PHASE_DESCRIPTION @ MAGNETIC -1 0.4 !
 FUNCTION ZERO      298.15  0;                                         6000 N !
 FUNCTION UN_ASS    298.15  0;                                         6000 N !
 FUNCTION R         298.15  +8.31451;                                  6000 N !
$ ------------------------------------------------------------------------------
$ Element data
$ ------------------------------------------------------------------------------
$ B
$
$ FCC_A1, HCP_A3, DIAMOND_A4 and GRAPHITE added in unary 3.0
$ BCC_A2 added in unary 4.1
$ GRAPHITE revised in unary 4.4 (using the value from COST 507)
$ FCC_A1, BCC_A2 and HCP_A3 removed in unary 5.0
$ ALPHA_RHOMBO_B added in unary 5.0
$
$ FCC_A1, BCC_A2 and HCP_A3 still in SGSOL 5.0
$ The value for FCC_A1 in COST (and SGTE) is possibly incorrect.
$
$PAR  G(BETA_RHOMBO_B,B),,              +GHSERBB;,,                   N 91Din !
 PAR  G(BETA_RHOMBO_B,B:B),,            +105*GHSERBB;,,               N 91Din !
$PAR  G(ALPHA_RHOMBO_B,B),,             +GALPBB;,,                    N 09SGUN !
$PAR  G(FCC_A1,B:VA),,                  +GHSERBB+43514-12.217*T;,,    N SGCOST !
$PAR  G(FCC_A1,B:VA),,                  +GHSERBB+50208-13.472*T;,,    N 94Hal !
$PAR  G(BCC_A2,B:VA),,                  +GHSERBB+43514-12.217*T;,,    N 94Hal !
$PAR  G(HCP_A3,B:VA),,                  +GHSERBB+50208-9.706*T;,,     N SGCOST !
 PAR  G(GRAPHITE_A9,B),,                +GHSERBB+10000-2*T;,,         N SGCOST !
$PAR  G(GRAPHITE_A9,B),,                +GHSERBB+5000;,,              N 96SGUN !
$PAR  G(DIAMOND_A4,B),,                 +GHSERBB+10;,,                N 99SGUN !
$PAR  G(DIAMOND_A4,B),,                 +GHSERBB+20;,,                N COST !
$PAR  G(DIAMOND_A4,B),,                 +GHSERBB;,,                   N 96SGUN !
 PAR  G(LIQUID,B),,                     +GLIQBB;,,                    N 91Din !
$
 PAR  G(B4C_D1G,B:B:B:B:B),,            +15*GHSERBB
             +265910-15.119*T;,,                                      N 12Sae !
 PAR  G(B4C_D1G,B:B:B:B:VA),,           +14*GHSERBB
             +257344-14.111*T;,,                                      N 12Sae !
 PAR  G(B4C_D1G,B:B:B:VA:B),,           +14*GHSERBB
             +140063-6.969*T;,,                                       N 12Sae !
 PAR  G(B4C_D1G,B:B:B:VA:VA),,          +13*GHSERBB
             +244469+7.345*T;,,                                       N 12Sae !
 PAR  G(B4C_D1G,B:B:VA:B:B),,           +14*GHSERBB
             +257344-14.111*T;,,                                      N 12Sae !
 PAR  G(B4C_D1G,B:B:VA:B:VA),,          +13*GHSERBB
             +527223-69.534*T;,,                                      N 12Sae !
 PAR  G(B4C_D1G,B:B:VA:VA:B),,          +13*GHSERBB
             +244469+7.345*T;,,                                       N 12Sae !
 PAR  G(B4C_D1G,B:B:VA:VA:VA),,         +12*GHSERBB;,,                N 12Sae !
$
 FUNCTION GHSERBB   298.15  -7735.284+107.111864*T-15.6641*T*LN(T)
       -0.006864515*T**2+6.18878E-07*T**3+370843*T**(-1);
      1100.00  Y  -16649.474+184.801744*T-26.6047*T*LN(T)
       -7.9809E-04*T**2-2.556E-08*T**3+1748270*T**(-1);
      2348.00  Y  -36667.582+231.336244*T-31.5957527*T*LN(T)
       -0.00159488*T**2+1.34719E-07*T**3+11205883*T**(-1);
      3000.00  Y  -21530.653+222.396264*T-31.4*T*LN(T);
      6000.00  N !
 FUNCTION GALPBB    298.15  -6076.24+86.648762*T-12.942464*T*LN(T)
       -7.089468E-3*T**2+0.659896E-6*T**3-45*T**(-1);
      1400.00  Y  +28477.506-106.789208*T+12.1072478*T*LN(T)
       -13.316875E-3*T**2+0.706895E-6*T**3-8002403*T**(-1);
      3000.00  Y  -25699.64+225.127135*T-31.4*T*LN(T);
      6000.00  N !
 FUNCTION GLIQBB    298.15  +48458.559-20.268025*T+GHSERBB;
       500.00  Y  +41119.703+82.101722*T-14.9827763*T*LN(T)
       -0.007095669*T**2+5.07347E-07*T**3+335484*T**(-1);
      2348.00  Y  +28842.012+200.94731*T-31.4*T*LN(T);
      3000.00  Y  +50372.665-21.448954*T+GHSERBB;
      6000.00  N !
 FUNCTION GFCCBB    298.15  +GHSERBB+43514-12.217*T;                   6000 N !
 FUNCTION GBCCBB    298.15  +GHSERBB+43514-12.217*T;                   6000 N !
$ ------------------------------------------------------------------------------
$ C
$
 PAR  G(GRAPHITE_A9,C),,                +GHSERCC;,,                   N 91Din !
 PAR  G(DIAMOND_A4,C),,                 +GDIACC;,,                    N 91Din !
 PAR  G(LIQUID,C),,                     +GHSERCC+117369-24.63*T;,,    N 91Din !
$
 FUNCTION GHSERCC   298.15  -17368.441+170.73*T-24.3*T*LN(T)
       -4.723E-04*T**2+2562600*T**(-1)-2.643E+08*T**(-2)+1.2E+10*T**(-3);
      6000.00  N !
 FUNCTION GDIACC    298.15  -16359.441+175.61*T-24.31*T*LN(T)
       -4.723E-04*T**2+2698000*T**(-1)-2.61E+08*T**(-2)+1.11E+10*T**(-3);
      6000.00  N !
$ ------------------------------------------------------------------------------
$ Binary system
$
$ A. Saengdeejing, J.E. Saal, V.R. Manga, Z.-K. Liu,
$ Acta Mater., 60, 7207-15(2012).
$
$ Checked against paper. Checked at 6000 K.
$
$ Very complex model for B4C.
$
$ There is one incorrect parameter for the B4C phase in the paper, which was
$ possibly used to make calculations in the paper.
$
$ The L=B4C+Gra eutectic is 12 K higher than in the paper. The temperature
$ of the L+B4C=B peritectic matches the table of invariants, but not the
$ plotted phase diagram.
$
 PAR  L(LIQUID,B,C;0),,                 -57102+1.181*T;,,             N 12Sae !
 PAR  L(LIQUID,B,C;1),,                 -21188-0.718*T;,,             N 12Sae !
$
 PAR  L(GRAPHITE_A9,B,C;0),,            +12344+18.185*T;,,            N 12Sae !
$
 PAR  G(BETA_RHOMBO_B,B:C),,            +101*GHSERBB+4*GHSERCC
             -135340-11.84*T;,,                                       N 12Sae !
$ Original parameter in paper below
 PAR  L(BETA_RHOMBO_B,B:B,C;0),,        -48353-406.69*T;,,            N 12Sae !
$ Parameter below to match the phase diagram in the paper
$PAR  L(BETA_RHOMBO_B,B:B,C;0),,        -48353-206.69*T;,,            N 12Sae !
$
 PAR  G(B4C_D1G,B:B:B:B:C),,            +14*GHSERBB+GHSERCC
             -12237-6.419*T;,,                                        N 12Sae !
 PAR  G(B4C_D1G,B:B:B:VA:C),,           +13*GHSERBB+GHSERCC
             +60140-2.728*T;,,                                        N 12Sae !
 PAR  G(B4C_D1G,B:B:C:B:B),,            +14*GHSERBB+GHSERCC
             -12237-6.419*T;,,                                        N 12Sae !
 PAR  G(B4C_D1G,B:B:C:B:C),,            +13*GHSERBB+2*GHSERCC
             -147927+2.371*T;,,                                       N 12Sae !
 PAR  G(B4C_D1G,B:B:C:B:VA),,           +13*GHSERBB+GHSERCC
             +58121+6.167*T;,,                                        N 12Sae !
 PAR  G(B4C_D1G,B:B:C:VA:B),,           +13*GHSERBB+GHSERCC
             +60140-2.728*T;,,                                        N 12Sae !
 PAR  G(B4C_D1G,B:B:C:VA:C),,           +12*GHSERBB+2*GHSERCC
             -74481+0.888*T;,,                                        N 12Sae !
 PAR  G(B4C_D1G,B:B:C:VA:VA),,          +12*GHSERBB+GHSERCC
             +69297-14.854*T;,,                                       N 12Sae !
 PAR  G(B4C_D1G,B:B:VA:B:C),,           +13*GHSERBB+GHSERCC
             +58121+6.167*T;,,                                        N 12Sae !
 PAR  G(B4C_D1G,B:B:VA:VA:C),,          +12*GHSERBB+GHSERCC
             +69297-14.854*T;,,                                       N 12Sae !
 PAR  G(B4C_D1G,B:C:B:B:B),,            +14*GHSERBB+GHSERCC
             +233739-5.932*T;,,                                       N 12Sae !
 PAR  G(B4C_D1G,B:C:B:B:C),,            +13*GHSERBB+2*GHSERCC
             +50656+0.041*T;,,                                        N 12Sae !
 PAR  G(B4C_D1G,B:C:B:B:VA),,           +13*GHSERBB+GHSERCC
             +131253-4.182*T;,,                                       N 12Sae !
 PAR  G(B4C_D1G,B:C:B:VA:B),,           +13*GHSERBB+GHSERCC
             +131247-4.197*T;,,                                       N 12Sae !
 PAR  G(B4C_D1G,B:C:B:VA:C),,           +12*GHSERBB+2*GHSERCC
             +56858+0.097*T;,,                                        N 12Sae !
 PAR  G(B4C_D1G,B:C:B:VA:VA),,          +12*GHSERBB+GHSERCC
             +237615-24.937*T;,,                                      N 12Sae !
 PAR  G(B4C_D1G,B:C:C:B:B),,            +13*GHSERBB+2*GHSERCC
             +50656+0.041*T;,,                                        N 12Sae !
 PAR  G(B4C_D1G,B:C:C:B:C),,            +12*GHSERBB+3*GHSERCC
             -187507+8.824*T;,,                                       N 12Sae !
 PAR  G(B4C_D1G,B:C:C:B:VA),,           +12*GHSERBB+2*GHSERCC
             +43261-5.808*T;,,                                        N 12Sae !
 PAR  G(B4C_D1G,B:C:C:VA:B),,           +12*GHSERBB+2*GHSERCC
             +56858+0.097*T;,,                                        N 12Sae !
 PAR  G(B4C_D1G,B:C:C:VA:C),,           +11*GHSERBB+3*GHSERCC
             -39106-4.027*T;,,                                        N 12Sae !
 PAR  G(B4C_D1G,B:C:C:VA:VA),,          +11*GHSERBB+2*GHSERCC
             +155584-13.199*T;,,                                      N 12Sae !
 PAR  G(B4C_D1G,B:C:VA:B:B),,           +13*GHSERBB+GHSERCC
             +131253-4.182*T;,,                                       N 12Sae !
 PAR  G(B4C_D1G,B:C:VA:B:C),,           +12*GHSERBB+2*GHSERCC
             +43261-5.808*T;,,                                        N 12Sae !
 PAR  G(B4C_D1G,B:C:VA:B:VA),,          +12*GHSERBB+GHSERCC
             +237587-25.015*T;,,                                      N 12Sae !
 PAR  G(B4C_D1G,B:C:VA:VA:B),,          +12*GHSERBB+GHSERCC
             +237615-24.937*T;,,                                      N 12Sae !
$ Incorrect parameter in paper below
$PAR  G(B4C_D1G,B:C:VA:VA:C),,          +11*GHSERBB+GHSERCC
$            +155584-13.199*T;,,                                      N 12Sae !
$ Correct parameter below
 PAR  G(B4C_D1G,B:C:VA:VA:C),,          +11*GHSERBB+2*GHSERCC
             +155584-13.199*T;,,                                      N 12Sae !
 PAR  G(B4C_D1G,B:C:VA:VA:VA),,         +11*GHSERBB+GHSERCC
             +122155-5.778*T;,,                                       N 12Sae !
 PAR  L(B4C_D1G,B:B:B,C:B:C;0),,        -517218+18.533*T;,,           N 12Sae !
 PAR  L(B4C_D1G,B:B:C:B:B,C;0),,        -517218+18.533*T;,,           N 12Sae !
 PAR  L(B4C_D1G,B:B,C:C:B:C;0),,        -413746+11.887*T;,,           N 12Sae !
 PAR  L(B4C_D1G,B:B,C:C:B:C;1),,        +114798;,,                    N 12Sae !
 PAR  L(B4C_D1G,B:C:C:B,VA:C;0),,       -510458-0.53*T;,,             N 12Sae !
 PAR  L(B4C_D1G,B:C:C:B,VA:C;1),,       +84694+21.902*T;,,            N 12Sae !
 PAR  L(B4C_D1G,B:B,C:C:B,VA:C;0),,     +331138;,,                    N 12Sae !
$ ------------------------------------------------------------------------------
$
$
 ASSESSED_SYSTEM
  B-C(TDB -* +LIQ +B4C_D1G +BETA_RHO +GRAPH ;P3 TMM:300/4500 STP:.2/2900) !
$
$
 LIST-OF-REFERENCE
 NUMBER  SOURCE
  Null   'Unknown source'
  Same   'Same or similar interaction as in the corresponding stable phase'
  REFLAV 'Laves phase convention: G(LAVES,X:X)=+3*GHSERXX+15000'
  COST   'COST 507 database'
  SGCOST 'COST 507 database, SGTE unary database V.3.0, 1996; Al, B, Nd, Ti, Zn'
  91Din  'A.T. Dinsdale, Calphad, 15, 317-425(1991).'
  94Hal  'B. Hallemans, P. Wollants, J.R. Roos,
          Z. Metallkd., 85, 676-82(1994), SGTE unary database V.4.1, 1999; B'
  96SGUN 'SGTE unary database V.3.0, 1996.'
  99SGUN 'SGTE unary database V.4.1, 1999.'
  09SGUN 'SGTE unary database V.5.0, 2009.'
  12Sae  'A. Saengdeejing, J.E. Saal, V.R. Manga, Z.-K. Liu,
          Acta Mater., 60, 7207-15(2012); B-C'
!
