$
$ Database for Cu-Yb from L.G. Zhang et al. 2007
$
$ L.G. Zhang, L.B. Liu, H.S. Liu, Z.P. Jin, Calphad, 31, 264-68(2007).
$
$ Dataset created 2017.12.03 by Bengt Hallstedt.
$ 2020.12.26: Modified for use with GES6.
$
$ Invariant temperatures differ by up to 5 K. This is possibly caused by a
$ different set of parameters used for the calculations in the paper
$ from those printed in the paper. The differences are not caused by the
$ change from fractional to integar compositions for the compounds. The
$ calculated results are very similar to those with a nims dataset using
$ fractional coompositions. There is only a very small shift of the
$ L+Cu9Yb2-->Cu5Yb equilibrium (since Cu9Yb2 and Cu5Yb are very close
$ in composition and four decimals in the compositions is then not quite
$ sufficient).
$
$ ------------------------------------------------------------------------------
 TEMP-LIM 298.15 6000.00 !
$
$ELEMENT NAME  REF. STATE               ATOMIC MASS H298-H0    S298    !
$
 ELEMENT VA   VACUUM                      0.0          0.0      0.0    ! 
 ELEMENT CU   FCC_A1                     63.546     5004.      33.15   !
 ELEMENT YB   FCC_A1                    173.04      6711.136   59.8312 ! 
$ ------------------------------------------------------------------------------
$ Phase definitions
$
 PHASE LIQUID:L % 1 1 !
 CONST LIQUID:L : CU YB : !
$
$ Fcc (cF4, Fm-3m) and MeX (cF8, Fm-3m)
$
 PHASE FCC_A1 %A 2 1 1 !
 CONST FCC_A1 : CU% YB% : VA : !
$
$ Bcc (cI2, Im-3m)
$
 PHASE BCC_A2 %B 2 1 3 !
 CONST BCC_A2 : CU YB% : VA : !
$
$ Hcp (hP2, P6_3/mmc) and Me2X (NiAs-type, hP4, P6_3/mmc, B8_1)
$
 PHASE HCP_A3 %A 2 1 0.5 !
 CONST HCP_A3 : CU YB : VA : !
$
$ Prototype CaCu5 (hP6, P6/mmm)
$
 PHASE CU5YB_D2D % 2 5 1 !
 CONST CU5YB_D2D : CU : YB : !
$
$ Prototype Cu9Yb2 (mC7448, C2)
$
 PHASE CU9YB2 % 2 9 2 !
 CONST CU9YB2 : CU : YB : !
$
$ Unknown structure
$
 PHASE CU7YB2 % 2 7 2 !
 CONST CU7YB2 : CU : YB : !
$
$ Prototype Hg2K (oI12, Imma), prototype CeCu2 in paper
$
 PHASE CU2YB % 2 2 1 !
 CONST CU2YB : CU : YB : !
$
$ Prototype FeB (oP8, Pnma)
$
 PHASE CUYB_B27 % 2 1 1 !
 CONST CUYB_B27 : CU : YB : !
$ ------------------------------------------------------------------------------
$ Defaults
$
 DEFINE-SYSTEM-DEFAULT ELEMENT 2 !
 DEFAULT-COM DEFINE_SYSTEM_ELEMENT VA !
 TYPE-DEF % SEQ * !
 TYPE-DEF A GES AMEND_PHASE_DESCRIPTION @ MAGNETIC -3 0.28 !
 TYPE-DEF B GES AMEND_PHASE_DESCRIPTION @ MAGNETIC -1 0.4 !
 FUNCTION ZERO      298.15  0;                                         6000 N !
 FUNCTION UN_ASS    298.15  0;                                         6000 N !
 FUNCTION R         298.15  +8.31451;                                  6000 N !
$ ------------------------------------------------------------------------------
$ Element data
$ ------------------------------------------------------------------------------
$ Cu
$
 PAR  G(FCC_A1,CU:VA),,                 +GHSERCU;                3200 N 91Din !
 PAR  G(BCC_A2,CU:VA),,                 +GHSERCU+4017-1.255*T;   3200 N 91Din !
 PAR  G(HCP_A3,CU:VA),,                 +GHSERCU+600+0.2*T;      3200 N 91Din !
 PAR  G(LIQUID,CU),,                    +GLIQCU;                 3200 N 91Din !
$
 FUNCTION GHSERCU   298.15  -7770.458+130.485235*T-24.112392*T*LN(T)
       -0.00265684*T**2+1.29223E-07*T**3+52478*T**(-1);
      1357.77  Y  -13542.026+183.803828*T-31.38*T*LN(T)+3.64167E+29*T**(-9);
      3200.00  N !
 FUNCTION GLIQCU    298.15  +12964.735-9.511904*T+GHSERCU-5.8489E-21*T**7;
      1357.77  Y  -46.545+173.881484*T-31.38*T*LN(T);
      3200.00  N !
$ ------------------------------------------------------------------------------
$ Yb
$
$ HCP_A3 added in unary 5.0
$
 PAR  G(FCC_A1,YB:VA),,                 +GHSERYB;                2000 N 91Din !
 PAR  G(BCC_A2,YB:VA),,                 +GBCCYB;                 2000 N 91Din !
 PAR  G(HCP_A3,YB:VA),,                 +GHSERYB+5000;           2000 N 06Guo !
 PAR  G(LIQUID,YB),,                    +GLIQYB;                 2000 N 91Din !
$
 FUNCTION GHSERYB   298.15  -9370.941+189.327664*T-40.0791*T*LN(T)
       +0.04227115*T**2-2.2242E-05*T**3;
       553.00  Y  -8192.154+121.065655*T-26.7591*T*LN(T)-0.00256065*T**2;
      1033.00  Y  +16034.89-89.478241*T+2.7623966*T*LN(T)
       -0.017961331*T**2+1.421719E-06*T**3-3631462*T**(-1);
      2000.00  N !
 FUNCTION GBCCYB    298.15  -965.99-21.293677*T-3.8534432*T*LN(T)
       -0.030009694*T**2+4.743871E-06*T**3-334650*T**(-1);
      1033.00  Y  -13368.113+188.313864*T-36.1079*T*LN(T);
      1097.00  Y  -3911.847+113.174165*T-25.7402233*T*LN(T)
       -0.004743348*T**2+3.63044E-07*T**3-1553668*T**(-1);
      2000.00  N !
 FUNCTION GLIQYB    298.15  +7030.788-40.615571*T-1.8061816*T*LN(T)
       -0.03250938*T**2+5.136665E-06*T**3-370554*T**(-1);
      1033.00  Y  -6445.835+186.690398*T-36.7774*T*LN(T);
      2000.00  N !
 FUNCTION GHCPYB    298.15  +GHSERYB+5000;                             2000 N !
$ ------------------------------------------------------------------------------
$ Binary system
$
$ L.G. Zhang, L.B. Liu, H.S. Liu, Z.P. Jin, Calphad, 31, 264-68(2007).
$
$ Checked against paper. Checked at 6000 K.
$
$ Invariant temperatures differ by up to 5 K. This is possibly caused by a
$ different set of parameters used for the calculations in the paper
$ from those printed in the paper. The differences are not caused by the
$ change from fractional to integar compositions for the compounds. The
$ calculated results are very similar to those with a nims dataset using
$ fractional coompositions. There is only a very small shift of the
$ L+Cu9Yb2-->Cu5Yb equilibrium (since Cu9Yb2 and Cu5Yb are very close
$ in composition and four decimals in the compositions is then not quite
$ sufficient).
$
 PAR  L(LIQUID,CU,YB;0),,               -41356.325+33.75*T
             -7.201*T*LN(T);,,                                        N 07Zha !
 PAR  L(LIQUID,CU,YB;1),,               -30258.324+15.025*T;,,        N 07Zha !
$
 PAR  L(FCC_A1,CU,YB:VA;0),,            +10000;,,                     N 07Zha !
 PAR  L(FCC_A1,CU,YB:VA;1),,            -10000;,,                     N 07Zha !
$
 PAR  L(BCC_A2,CU,YB:VA;0),,            +ZERO;,,                      N 07Zha !
$
 PAR  G(CU5YB_D2D,CU:YB),,              +5*GHSERCU+GHSERYB
             -92036.91+13.215*T;,,                                    N 07Zha !
 PAR  G(CU9YB2,CU:YB),,                 +9*GHSERCU+2*GHSERYB
             -178738.087+22.066*T;,,                                  N 07Zha !
 PAR  G(CU7YB2,CU:YB),,                 +7*GHSERCU+2*GHSERYB
             -151577.865+13.2525*T;,,                                 N 07Zha !
 PAR  G(CU2YB,CU:YB),,                  +2*GHSERCU+GHSERYB
             -53377.23+1.73103*T;,,                                   N 07Zha !
 PAR  G(CUYB_B27,CU:YB),,               +GHSERCU+GHSERYB
             -29592.44-2.8618*T;,,                                    N 07Zha !
$ ------------------------------------------------------------------------------
$
$
 LIST-OF-REFERENCE
 NUMBER  SOURCE
  Null   'Unknown source'
  COST   'COST 507 database'
  91Din  'A.T. Dinsdale, Calphad, 15, 317-425(1991).'
  06Guo  'C. Guo, Z. Du, J. Alloys Compd., 422, 102-8(2006),
          SGTE unary database V.5.0, 2009; Yb'
  07Zha  'L.G. Zhang, L.B. Liu, H.S. Liu, Z.P. Jin,
          Calphad, 31, 264-68(2007); Cu-Yb'
!
