$
$ Database for Cu-H from H. Magnusson and K. Frisk 2014
$
$ H. Magnusson, K. Frisk, Calphad, 47, 148-60(2014).
$
$ Dataset created 2016.05.27 by Bengt Hallstedt.
$ 2020.12.26: Modified for use with GES6.
$
$ With the present set of parameters solid CuH does not become stable,
$ even if the gas phase is excluded. Liquid H is more stable. This is
$ possibly not correct.
$
$ ------------------------------------------------------------------------------
 TEMP-LIM 298.15 6000.00 !
$
$ELEMENT NAME  REF. STATE               ATOMIC MASS H298-H0    S298    !
$
 ELEMENT VA   VACUUM                      0.0          0.0      0.0    ! 
 ELEMENT CU   FCC_A1                     63.546     5004.      33.15   !
 ELEMENT H    1/2_MOLE_H2(G)              1.0079    4234.      65.285  ! 
$ ------------------------------------------------------------------------------
$ Species
$
 SPECIE  CU2                                CU2 !
 SPECIE  CUH                                CU1H1 !
 SPECIE  H2                                 H2 !
$ ------------------------------------------------------------------------------
$ Phase definitions
$
 PHASE LIQUID:L % 1 1 !
 CONST LIQUID:L : CU H : !
$
$ Fcc (cF4, Fm-3m) and MeX (cF8, Fm-3m)
$
 PHASE FCC_A1 %A 2 1 1 !
 CONST FCC_A1 : CU% : H VA% : !
$
$ Bcc (cI2, Im-3m)
$
 PHASE BCC_A2 %B 2 1 3 !
 CONST BCC_A2 : CU : VA : !
$
$ Hcp (hP2, P6_3/mmc) and Me2X (NiAs-type, hP4, P6_3/mmc, B8_1)
$
 PHASE HCP_A3 %A 2 1 0.5 !
 CONST HCP_A3 : CU : VA : !
$
$ Prototype ZnS (cF8, F-43m)
$
 PHASE CUH_B3 % 2 1 1 !
 CONST CUH_B3 : CU : H : !
$
$ Prototype ZnS 2H (hP4, P6_3mc), adamantine
$
 PHASE CUH_B4 % 2 1 1 !
 CONST CUH_B4 : CU : H : !
$
 PHASE GAS:G % 1 1 !
 CONST GAS:G : CU CU2 CUH H H2 : !
$ ------------------------------------------------------------------------------
$ Defaults
$
 DEFINE-SYSTEM-DEFAULT ELEMENT 2 !
 DEFAULT-COM DEFINE_SYSTEM_ELEMENT VA !
 TYPE-DEF % SEQ * !
 TYPE-DEF A GES AMEND_PHASE_DESCRIPTION @ MAGNETIC -3 0.28 !
 TYPE-DEF B GES AMEND_PHASE_DESCRIPTION @ MAGNETIC -1 0.4 !
 FUNCTION ZERO      298.15  0;                                         6000 N !
 FUNCTION UN_ASS    298.15  0;                                         6000 N !
 FUNCTION R         298.15  +8.31451;                                  6000 N !
 FUNCTION RTLNP     298.15  +8.31451*T*LN(1E-05*P);                    6000 N !
$ ------------------------------------------------------------------------------
$ Element data
$ ------------------------------------------------------------------------------
$ Cu
$
 PAR  G(FCC_A1,CU:VA),,                 +GHSERCU;                3200 N 91Din !
 PAR  G(BCC_A2,CU:VA),,                 +GHSERCU+4017-1.255*T;   3200 N 91Din !
 PAR  G(HCP_A3,CU:VA),,                 +GHSERCU+600+0.2*T;      3200 N 91Din !
 PAR  G(LIQUID,CU),,                    +GLIQCU;                 3200 N 91Din !
$
 PAR  G(GAS,CU),,                       +F8005T+RTLNP;,,              N 97SUB !
 PAR  G(GAS,CU2),,                      +F8130T+RTLNP;,,              N 97SUB !
$
 FUNCTION GHSERCU   298.15  -7770.458+130.485235*T-24.112392*T*LN(T)
       -0.00265684*T**2+1.29223E-07*T**3+52478*T**(-1);
      1357.77  Y  -13542.026+183.803828*T-31.38*T*LN(T)+3.64167E+29*T**(-9);
      3200.00  N !
 FUNCTION GLIQCU    298.15  +12964.735-9.511904*T+GHSERCU-5.8489E-21*T**7;
      1357.77  Y  -46.545+173.881484*T-31.38*T*LN(T);
      3200.00  N !
$ Cu(g)
 FUNCTION F8005T    298.15  +331712.276-25.4355932*T-21.044*T*LN(T)
       +2.776E-04*T**2-4.9305E-08*T**3+5295*T**(-1);
      1600.00  Y  +336105.82-35.4351873*T-20.115*T*LN(T)
       +0.00118285*T**2-2.18138333E-07*T**3-1572935*T**(-1);
      3000.00  Y  +390707.537-303.006732*T+14.175*T*LN(T)
       -0.0079804*T**2+2.27558333E-07*T**3-16772955*T**(-1);
      5300.00  Y  +110975.664+452.828908*T-75.18201*T*LN(T)
       +0.004605*T**2-1.02516667E-07*T**3+1.4589055E+08*T**(-1);
      8400.00  Y  +918206.507-898.334069*T+75.05701*T*LN(T)
       -0.0078504*T**2+9.14616667E-08*T**3-6.694665E+08*T**(-1);
     10000.00  N !
$ Cu2(g)
 FUNCTION F8130T    298.15  +462958.167+11.147823*T-37.642*T*LN(T)
       -1.1515E-04*T**2-6.7015E-08*T**3+51145*T**(-1);
      3500.00  Y  +692156.122-643.599383*T+40.105*T*LN(T)
       -0.01109485*T**2+1.90893333E-07*T**3-1.2151985E+08*T**(-1);
      5500.00  Y  +1198333.43-1966.90368*T+195.893*T*LN(T)
       -0.03229355*T**2+7.29055E-07*T**3-4.2822925E+08*T**(-1);
      6000.00  N !
$ ------------------------------------------------------------------------------
$ H
$
$ H is not included in unary
$
 PAR  G(LIQUID,H),,                     +0.5*GHSERH2
             +8035+25*T+2*T*LN(T);,,                                  N 06Qiu !
$
 PAR  G(GAS,H),,                        +F10383T+RTLNP;,,             N 97SUB !
 PAR  G(GAS,H2),,                       +GHSERH2+RTLNP;,,             N 97SUB !
$
$ H(g)
 FUNCTION F10383T   298.15  +211801.621+24.4989821*T-20.78611*T*LN(T);
      6000.00  N !
$ H2(g)
 FUNCTION GHSERH2   298.15  -9522.9741+78.5273879*T-31.35707*T*LN(T)
       +0.0027589925*T**2-7.46390667E-07*T**3+56582.3*T**(-1);
      1000.00  Y  +180.108664-15.6128256*T-17.84857*T*LN(T)
       -0.00584168*T**2+3.14618667E-07*T**3-1280036*T**(-1);
      2100.00  Y  -18840.1663+92.3120255*T-32.05082*T*LN(T)
       -0.0010728235*T**2+1.14281783E-08*T**3+3561002.5*T**(-1);
      6000.00  N !
$ ------------------------------------------------------------------------------
$ Binary system
$
$ H. Magnusson, K. Frisk, Calphad, 47, 148-60(2014).
$
$ Checked against paper. Checked at 6000 K.
$
$ With the present set of parameters solid CuH does not become stable,
$ even if the gas phase is excluded. Liquid H is more stable. This is
$ possibly not correct.
$
 PAR  L(LIQUID,CU,H;0),,                +45068-11*T;,,                N 14Mag !
$
 PAR  G(FCC_A1,CU:H),,                  +GHSERCU+0.5*GHSERH2
             +60880+36.9*T;,,                                         N 14Mag !
 PAR  L(FCC_A1,CU:H,VA;0),,             -5377;,,                      N 14Mag !
$
 PAR  G(CUH_B3,CU:H),,                  +GHSERCU+0.5*GHSERH2
             +37950+47.62*T;,,                                        N 14Mag !
 PAR  G(CUH_B4,CU:H),,                  +GHSERCU+0.5*GHSERH2
             +36700+47.62*T;,,                                        N 14Mag !
$
 PAR  G(GAS,CUH),,                      +F8055T+RTLNP;,,              N 97SUB !
$
$ CuH(g)
 FUNCTION F8055T    298.15  +282448.368-40.929522*T-22.666*T*LN(T)
       -0.00821845*T**2+8.24498333E-07*T**3-94230*T**(-1);
      1200.00  Y  +274612.991+36.1358396*T-33.715*T*LN(T)
       -0.0013628*T**2+3.3515E-08*T**3+934815*T**(-1);
      4700.00  Y  +193168.762+307.125305*T-66.622*T*LN(T)
       +0.0043808*T**2-1.5039E-07*T**3+37290055*T**(-1);
      6000.00  N !
$ ------------------------------------------------------------------------------
$
$
 LIST-OF-REFERENCE
 NUMBER  SOURCE
  Null   'Unknown source'
  Same   'Same or similar interaction as in the corresponding stable phase'
  COST   'COST 507 database'
  91Din  'A.T. Dinsdale, Calphad, 15, 317-425(1991).'
  97SUB  'SGTE substance database, version 1997'
  06Qiu  'C. Qiu, S.M. Opalka, G.B. Olson, D.L. Anton,
          Int. J. Mater. Res., 97, 845-53(2006); H, Na-H'
  14Mag  'H. Magnusson, K. Frisk, Calphad, 47, 148-60(2014); Cu-H'
!
