$
$ Database for Sb-Te from C. Guo et al. 2014.
$
$ C. Guo, C. Li, Z. Du, J. Electron. Mater., 43, 4082-89(2014).
$
$ Dataset created 2022.10.29 by Bengt Hallstedt.
$
$ The paper includes both ionic and associate models for the liquid. The
$ results are similar, but not identical. Both models are included here, but
$ the associate liquid is rejected by default.
$
$ Note! The associate is called Sb2Te3, but has the stoichiometry Sb0.4Te0.6.
$
$ ------------------------------------------------------------------------------
 TEMP-LIM 298.15 6000.00 !
$
$ELEMENT NAME  REF. STATE               ATOMIC MASS H298-H0    S298    !
$
 ELEMENT /-   ELECTRON_GAS                0.0          0.0      0.0    ! 
 ELEMENT VA   VACUUM                      0.0          0.0      0.0    ! 
 ELEMENT SB   RHOMBOHEDRAL_A7           121.75      5870.152   45.5219 ! 
 ELEMENT TE   HEXAGONAL_A8              127.60      6080.      49.221  ! 
$ ------------------------------------------------------------------------------
$ Species
$
 SPECIE  SB+3                               SB1/+3 !
 SPECIE  SB2TE3                             SB0.4TE0.6 !
 SPECIE  TE-2                               TE1/-2 !
$ ------------------------------------------------------------------------------
$ Phase definitions
$
 PHASE ION:Y % 2 1 1 !
 CONST ION:Y : SB+3 : TE-2 VA TE : !
$
 PHASE LIQUID:L % 1 1 !
 CONST LIQUID:L : SB SB2TE3 TE : !
$
$ Fcc (cF4, Fm-3m) and MeX (cF8, Fm-3m)
$
 PHASE FCC_A1 % 2 1 1 !
 CONST FCC_A1 : SB : VA : !
$
$ Bcc (cI2, Im-3m)
$
 PHASE BCC_A2 % 2 1 3 !
 CONST BCC_A2 : SB : VA : !
$
$ Hcp (hP2, P6_3/mmc) and Me2X (NiAs-type, hP4, P6_3/mmc, B8_1)
$
 PHASE HCP_A3 % 2 1 0.5 !
 CONST HCP_A3 : SB : VA: !
$
$ Prototype alpha-As (hR2, R-3m)
$
 PHASE RHOMBOHEDRAL_A7 % 1 1 !
 CONST RHOMBOHEDRAL_A7 : SB% TE : !
$
$ Prototype gamma-Se (hP3, P3_121)
$ The phase is named HEXAGONAL_A8 in the SGTE unary database and
$ TRIGONAL_A8 in LB.
$
 PHASE HEXAGONAL_A8 % 1 1 !
 CONST HEXAGONAL_A8 : SB TE% : !
$
$ Prototype Sb2Te (hP9, P-3m1)
$
 PHASE SB2TE_DELTA % 2 2 3 !
 CONST SB2TE_DELTA : SB : SB TE : !
$
$ Prototype BiSe (hP12, P-3m1)
$
 PHASE SBTE_GAMMA % 2 2 3 !
 CONST SBTE_GAMMA : SB : SB TE : !
$
$ Prototype Bi2Te3 (hR5, R-3m)
$
 PHASE SB2TE3_C33 % 2 2 3 !
 CONST SB2TE3_C33 : SB : TE : !
$ ------------------------------------------------------------------------------
$ Defaults
$
 DEFINE-SYSTEM-DEFAULT ELEMENT 2 !
 DEFAULT-COM DEFINE_SYSTEM_ELEMENT VA /- !
 DEFAULT-COM REJECT_PHASE LIQUID !
 TYPE-DEF % SEQ * !
 FUNCTION ZERO      298.15  0;                                         6000 N !
 FUNCTION UN_ASS    298.15  0;                                         6000 N !
 FUNCTION R         298.15  +8.31451;                                  6000 N !
$ ------------------------------------------------------------------------------
$ Element data
$ ------------------------------------------------------------------------------
$ Sb
$
$ BCT_A5 revised in unary 3.0
$
$ HEXAGONAL_A8 from 14Guo not included in unary
$
 PAR  G(RHOMBOHEDRAL_A7,SB),,           +GHSERSB;                2000 N 91Din !
 PAR  G(FCC_A1,SB:VA),,                 +GHSERSB+19874-13.7*T;   2000 N 91Din !
 PAR  G(BCC_A2,SB:VA),,                 +GHSERSB+19874-15.1*T;   2000 N 91Din !
 PAR  G(HCP_A3,SB:VA),,                 +GHSERSB+19874-13*T;     2000 N 91Din !
$PAR  G(BCT_A5,SB),,                    +GHSERSB+13000-8*T;      2000 N 96SGUN !
$PAR  G(BCT_A5,SB),,                    +GHSERSB+1000;           2000 N 91Din !
 PAR  G(HEXAGONAL_A8,SB),,              +GHSERSB+5000;           2000 N 14Guo !
 PAR  G(LIQUID,SB),,                    +GLIQSB;                 2000 N 91Din !
$
 PAR  G(ION,SB+3:VA),,                  +GLIQSB;                 2000 N 91Din !
$
 PAR  G(SB2TE_DELTA,SB:SB),,            +5*GHSERSB+5350-1.8*T;   1200 N 89Gho !
 PAR  G(SBTE_GAMMA,SB:SB),,             +5*GHSERSB+7300-2.45*T;  1200 N 89Gho !
$
 FUNCTION GHSERSB   298.15  -9242.858+156.154689*T-30.5130752*T*LN(T)
       +0.007748768*T**2-3.003415E-06*T**3+100625*T**(-1);
       903.78  Y  -11738.83+169.485872*T-31.38*T*LN(T)+1.616849E+27*T**(-9);
      2000.00  N !
 FUNCTION GLIQSB    298.15  +19822.328-21.923164*T+GHSERSB-1.74847E-20*T**7;
       903.78  Y  +8175.359+147.455986*T-31.38*T*LN(T);
      2000.00  N !
$ ------------------------------------------------------------------------------
$ Te
$
$ HEXAGONAL_A8 and LIQUID revised in unary 3.0
$
$ RHOMBOHEDRAL_A7 from 89Gho and 14Guo not included in unary
$
 PAR  G(HEXAGONAL_A8,TE),,              +GHSERTE;                1600 N 95Dav !
$PAR  G(RHOMBOHEDRAL_A7,TE),,           +GHSERTE+15*T;           1600 N 89Gho !
 PAR  G(RHOMBOHEDRAL_A7,TE),,           +GHSERTE+5000;           1600 N 14Guo !
 PAR  G(LIQUID,TE),,                    +GLIQTE;                 1600 N 95Dav !
$
 PAR  G(ION,TE),,                       +GLIQTE;                 1600 N 95Dav !
$
 FUNCTION GHSERTE   298.15  -10544.679+183.372894*T-35.6687*T*LN(T)
       +0.01583435*T**2-5.240417E-06*T**3+155015*T**(-1);
       722.66  Y  +9160.595-129.265373*T+13.004*T*LN(T)
       -0.0362361*T**2+5.006367E-06*T**3-1286810*T**(-1);
      1150.00  Y  -12781.349+174.901226*T-32.5596*T*LN(T);
      1600.00  N !
 FUNCTION GLIQTE    298.15  -17554.731+685.877639*T-126.318*T*LN(T)
       +0.2219435*T**2-9.42075E-05*T**3+827930*T**(-1);
       626.49  Y  -3165763.48+46756.357*T-7196.41*T*LN(T)
       +7.09775*T**2-0.00130692833*T**3+2.58051E+08*T**(-1);
       722.66  Y  +180326.959-1500.57909*T+202.743*T*LN(T)
       -0.142016*T**2+1.6129733E-05*T**3-24238450*T**(-1);
      1150.00  Y  +19110.036-26.1929273*T+GHSERTE;
      1600.00  N !
$ ------------------------------------------------------------------------------
$ Binary system
$
$ C. Guo, C. Li, Z. Du, J. Electron. Mater., 43, 4082-89(2014).
$
$ Checked against paper. Checked at 6000 K.
$
$ The paper includes both ionic and associate models for the liquid. The
$ results are similar, but not identical. Both models are included here, but
$ the associate liquid is rejected by default.
$
$ Note! The associate is called Sb2Te3, but has the stoichiometry Sb0.4Te0.6.
$
 PAR  G(ION,SB+3:TE-2),,                +2*GLIQSB+3*GLIQTE
             -102785+78.2515*T;,,                                     N 14Guo !
 PAR  L(ION,SB+3:TE-2,VA;0),,           +25311.1-28.9116*T;,,         N 14Guo !
 PAR  L(ION,SB+3:TE-2,VA;1),,           -24462.5+17.9377*T;,,         N 14Guo !
 PAR  L(ION,SB+3:TE-2,TE;0),,           +51856.4-54.2642*T;,,         N 14Guo !
 PAR  L(ION,SB+3:TE-2,TE;1),,           +13427.7-24.3722*T;,,         N 14Guo !
$
 PAR  G(LIQUID,SB2TE3),,                +0.4*GLIQSB+0.6*GLIQTE
             -20557+15.6503*T;,,                                      N 14Guo !
 PAR  L(LIQUID,SB,SB2TE3;0),,           +8559.3-3.6932*T;,,           N 14Guo !
 PAR  L(LIQUID,SB,SB2TE3;1),,           -4703.8+9.8773*T;,,           N 14Guo !
 PAR  L(LIQUID,SB2TE3,TE;0),,           +8348.8-1.8429*T;,,           N 14Guo !
 PAR  L(LIQUID,SB2TE3,TE;1),,           +1179.4-3.5931*T;,,           N 14Guo !
$
 PAR  L(RHOMBOHEDRAL_A7,SB,TE;0),,      -4000;,,                      N 14Guo !
$
 PAR  G(SB2TE_DELTA,SB:TE),,            +5*GSB2TE3+7357;         1000 N 14Guo !
 PAR  L(SB2TE_DELTA,SB:SB,TE;0),,       -31974.5+60.8795*T;,,         N 14Guo !
 PAR  L(SB2TE_DELTA,SB:SB,TE;1),,       +7125+4.5315*T;,,             N 14Guo !
 PAR  L(SB2TE_DELTA,SB:SB,TE;2),,       -11216;,,                     N 14Guo !
$
 PAR  G(SBTE_GAMMA,SB:TE),,             +5*GSB2TE3+4361;         1000 N 14Guo !
 PAR  L(SBTE_GAMMA,SB:SB,TE;0),,        -14178+46.608*T;,,            N 14Guo !
 PAR  L(SBTE_GAMMA,SB:SB,TE;1),,        +52967.5-50.7125*T;,,         N 14Guo !
$
 PAR  G(SB2TE3_C33,SB:TE),,             +5*GSB2TE3;              1000 N 14Guo !
$
 FUNCTION GSB2TE3     0.01  -17961.5602-3.27284441*T+0.029415593*T**2
       -0.00185310048*T**3+7.92008333E-06*T**4;
        60.00  Y  -19376.6+106.2655*T-22.5753*T*LN(T)
       -0.00487264934*T**2+3.62456157E-07*T**3+12931.1094*T**(-1);
      1000.00  N !
$ ------------------------------------------------------------------------------
$
$
 LIST-OF-REFERENCE
 NUMBER  SOURCE
  Null   'Unknown source'
  Same   'Same or similar interaction as in the corresponding stable phase'
  COST   'COST 507 database'
  89Che  'P.-Y. Chevalier, Thermochim. Acta, 155, 227-40 (1989); Ge-Sb'
  89Gho  'G. Ghosh, H.L. Lukas, L. Delaey,
          Z. Metallkd., 80, 731-36 (1989); Sb-Te'
  91Din  'A.T. Dinsdale, Calphad, 15, 317-425(1991).'
  95Dav  'A.V. Davydov, M.H. Rand, B.B. Argent, Calphad, 19, 375-87(1995),
          SGTE unary database V.3.0, 1996; Te'
  96SGUN 'SGTE unary database V.3.0, 1996.'
  01Din  'A.T. Dinsdale, unpublished, 2001; Ge, Sb'
  14Guo  'C. Guo, C. Li, Z. Du,
          J. Electron. Mater., 43, 4082-89(2014); Sb, Te, Sb-Te'
!
