$
$ Database for V-O from Y. Yang et al. 2015
$
$ Y. Yang, H. Mao, M. Selleby, Calphad, 51, 144-60(2015).
$
$ Dataset created 2017.01.08 by Bengt Hallstedt.
$ 2021.02.05: Modified for use with GES6.
$
$ This is their version 2 with a complex model for CORUNDUM_D51 (V2O3).
$
$ Functions for the oxides are taken from the SGTE substance database.
$
$ The phases V4O7, V5O9, V6O11, V7O13, V8O15 (Magneli phases), V3O7 and V6O13
$ have discontinuous H and S functions.
$
$ ------------------------------------------------------------------------------
 TEMP-LIM 298.15 6000.00 !
$
$ELEMENT NAME  REF. STATE               ATOMIC MASS H298-H0    S298    !
$
 ELEMENT /-   ELECTRON_GAS                0.0          0.0      0.0    ! 
 ELEMENT VA   VACUUM                      0.0          0.0      0.0    ! 
 ELEMENT O    1/2_MOLE_O2(G)             15.999     4341.0    102.52   ! 
 ELEMENT V    BCC_A2                     50.9415    4507.0     30.89   ! 
$ ------------------------------------------------------------------------------
$ Species
$
 SPECIE  O-2                                O/-2 !
 SPECIE  O2                                 O2 !
 SPECIE  O3                                 O3 !
 SPECIE  V+2                                V/+2 !
 SPECIE  V+3                                V/+3 !
 SPECIE  V+4                                V/+4 !
 SPECIE  V+5                                V/+5 !
 SPECIE  VO1.5                              V1O1.5 !
 SPECIE  VO2                                V1O2 !
 SPECIE  VO2.5                              V1O2.5 !
$ ------------------------------------------------------------------------------
$ Phase definitions
$
 PHASE ION:Y % 2 1 1 !
 CONST ION:Y : V+2 : O-2 VA VO1.5 VO2 VO2.5 : !
$
 PHASE LIQUID:L % 1 1 !
 CONST LIQUID:L : V : !
$
$ Fcc (cF4, Fm-3m) and MeX (cF8, Fm-3m)
$
 PHASE FCC_A1 %A 2 1 1 !
 CONST FCC_A1 : V : O VA% : !
$
$ Bcc (cI2, Im-3m)
$
 PHASE BCC_A2 %B 2 1 3 !
 CONST BCC_A2 : V : O VA% : !
$
$ Hcp (hP2, P6_3/mmc) and Me2X (NiAs-type, hP4, P6_3/mmc, B8_1)
$
 PHASE HCP_A3 %A 2 1 0.5 !
 CONST HCP_A3 : V : O VA : !
$
$ Prototype CoO (tI4, I4/mmm)
$
 PHASE VO_BETA %A 2 1 1 !
 CONST VO_BETA : V : O VA : !
$
$ V7O3 (mC20, C2/m), gamma
$
 PHASE V2O %A 2 1 0.5 !
 CONST V2O : V : O VA : !
$
$ Prototype NaCl (cF8, Fm-3m), delta
$
 PHASE HALITE_B1:I % 2 1 1 !
 CONST HALITE_B1:I : V V+2% V+3 VA : O-2% VA : !
$
$ Prototype V13O16 (tI116, I4_1/amd)
$
 PHASE V52O64 % 2 52 64 !
 CONST V52O64 : V : O : !
$
$ Prototype alpha-Al2O3 (hR10, R-3c)
$
 PHASE CORUNDUM_D51:I %A 3 2 3 1 !
 CONST CORUNDUM_D51:I : V+2 V+3% V+4 VA : O-2 : VA% O-2 : !
$
$ Prototype V3O5-lt (mP32, P2/c)
$
 PHASE V3O5_LT:I % 3 2 1 5 !
 CONST V3O5_LT:I : V+3 : V+4 : O-2 : !
$
$ Prototype V3O5-ht (mC32, C2/c)
$
 PHASE V3O5_HT:I % 3 2 1 5 !
 CONST V3O5_HT:I : V+3 : V+4 : O-2 : !
$
$ Prototype Ti4O7 (aP22, P-1)
$
 PHASE V4O7:I % 3 2 2 7 !
 CONST V4O7:I : V+3 : V+4 : O-2 : !
$
$ Prototype Ti5O9 (aP28, P-1)
$
 PHASE V5O9:I % 3 2 3 9 !
 CONST V5O9:I : V+3 : V+4 : O-2 : !
$
$ Prototype Ti6O11 (aP34, P-1)
$
 PHASE V6O11:I % 3 2 4 11 !
 CONST V6O11:I : V+3 : V+4 : O-2 : !
$
$ Prototype Ti7O13 (aP40, P-1)
$
 PHASE V7O13:I % 3 2 5 13 !
 CONST V7O13:I : V+3 : V+4 : O-2 : !
$
$ Prototype Ti8O15 (aP46, P-1)
$
 PHASE V8O15:I % 3 2 6 15 !
 CONST V8O15:I : V+3 : V+4 : O-2 : !
$
$ Prototype VO2 (mP12, P2_1/c
$
 PHASE VO2_LT:I % 2 1 2 !
 CONST VO2_LT:I : V+4 : O-2 : !
$
$ Prototype TiO2 (tP6, P4_2/mnm)
$
 PHASE RUTILE_C4:I % 2 1 2 !
 CONST RUTILE_C4:I : V+4 : O-2 : !
$
$ Prototype V3O7 (mC120, C2/c)
$
 PHASE V3O7:I % 3 2 1 7 !
 CONST V3O7:I : V+5 : V+4 : O-2 : !
$
$ Prototype V6O13 (mC38, C2/m)
$
 PHASE V6O13:I % 3 2 4 13 !
 CONST V6O13:I : V+5 : V+4 : O-2 : !
$
$ Prototype V2O5 (oP14, Pmmn)
$
 PHASE V2O5:I % 2 2 5 !
 CONST V2O5:I : V+5 : O-2 : !
$
 PHASE O2GAS % 1 1 !
 CONST O2GAS : O2 : !
$ ------------------------------------------------------------------------------
$ Defaults
$
 DEFINE-SYSTEM-DEFAULT ELEMENT 2 !
 DEFAULT-COM DEFINE_SYSTEM_ELEMENT VA /- !
 DEFAULT-COM REJECT_PHASE LIQUID !
 TYPE-DEF % SEQ * !
 TYPE-DEF A GES AMEND_PHASE_DESCRIPTION @ MAGNETIC -3 0.28 !
 TYPE-DEF B GES AMEND_PHASE_DESCRIPTION @ MAGNETIC -1 0.4 !
 FUNCTION ZERO      298.15  0;                                         6000 N !
 FUNCTION UN_ASS    298.15  0;                                         6000 N !
 FUNCTION R         298.15  +8.31451;                                  6000 N !
 FUNCTION RTLNP     298.15  +8.31451*T*LN(1E-05*P);                    6000 N !
$ ------------------------------------------------------------------------------
$ Element data
$ ------------------------------------------------------------------------------
$ O
$
 PAR  G(O2GAS,O2),,                     +2*GHSEROO+RTLNP;,,           N 91Din !
$
 PAR  G(GAS,O),,                        +O1G+RTLNP;,,                 N 00SUB !
 PAR  G(GAS,O2),,                       +2*GHSEROO+RTLNP;,,           N 91Din !
 PAR  G(GAS,O3),,                       +O3G+RTLNP;,,                 N 00SUB !
$
 PAR  G(HALITE_B1,VA:O-2),,             +ZERO;,,                      N 91Sun !
 PAR  G(CORUNDUM_D51,VA:O-2:O-2),,      +2*GV1O2_LT+466.95-3835.11
             -GV2O3;,,                                                N 15Yan !
 PAR  G(CORUNDUM_D51,VA:O-2:VA),,       +ZERO;,,                      N 15Yan !
$
 FUNCTION GSOLOO    298.15  +GHSEROO+65*T;                             6000 N !
$ 1/2 O2(g)
 FUNCTION GHSEROO   298.15  -3480.87-25.503038*T-11.1355*T*LN(T)
       -0.005098875*T**2+6.61845833E-07*T**3-38365*T**(-1);
      1000.00  Y  -6568.763+12.659879*T-16.8138*T*LN(T)
       -5.957975E-04*T**2+6.781E-09*T**3+262905*T**(-1);
      3300.00  Y  -13986.728+31.259624*T-18.9536*T*LN(T)
       -4.25243E-04*T**2+1.0721E-08*T**3+4383200*T**(-1);
      6000.00  N !
$ O(g)
 FUNCTION O1G       298.15  +243206.494-20.8612587*T-21.01555*T*LN(T)
       +1.2687055E-04*T**2-1.23131283E-08*T**3-42897.09*T**(-1);
      2950.00  Y  +252301.423-52.0847285*T-17.21188*T*LN(T)
       -5.413565E-04*T**2+7.64520667E-09*T**3-3973170.5*T**(-1);
      6000.00  N !
$ O3(g)
 FUNCTION O3G       298.15  +130696.944-37.9096651*T-27.58118*T*LN(T)
     -0.02763076*T**2+4.60539333E-06*T**3+99530.45*T**(-1);
     700.00  Y  +114760.623+176.626736*T-60.10286*T*LN(T)
     +0.00206456*T**2-5.17486667E-07*T**3+1572175*T**(-1);
    1300.00  Y  +49468.3958+710.094819*T-134.3696*T*LN(T)
     +0.039707355*T**2-4.10457667E-06*T**3+12362250*T**(-1);
    2100.00  Y  +866367.075-3566.80563*T+421.2001*T*LN(T)
     -0.1284109*T**2+5.44768833E-06*T**3-2.1304835E+08*T**(-1);
    2800.00  Y  +409416.384-1950.70834*T+223.4437*T*LN(T)
     -0.0922361*T**2+4.306855E-06*T**3-21589870*T**(-1);
    3500.00  Y  -1866338.6+6101.13383*T-764.8435*T*LN(T)
     +0.09852775*T**2-2.59784667E-06*T**3+9.610855E+08*T**(-1);
    4900.00  Y  +97590.0432+890.79836*T-149.9608*T*LN(T)
     +0.01283575*T**2-3.555105E-07*T**3-2.1699975E+08*T**(-1);
    6000.00  N !
$ ------------------------------------------------------------------------------
$ V
$
 PAR  G(BCC_A2,V:VA),,                  +GHSERVV;                4000 N 91Din !
 PAR  G(FCC_A1,V:VA),,                  +GHSERVV+7500+1.7*T;     4000 N 91Din !
 PAR  G(HCP_A3,V:VA),,                  +GHSERVV+4000+2.4*T;     4000 N 91Din !
$PAR  G(CBCC_A12,V:VA),,                +GHSERVV+9000;           4000 N 91Din !
$PAR  G(CUB_A13,V:VA),,                 +GHSERVV+10000;          4000 N 91Din !
 PAR  G(LIQUID,V),,                     +GLIQVV;                 4000 N 91Din !
$
 PAR  G(ION,V+2:VA),,                   +GLIQVV;                 4000 N 91Din !
$
 PAR  G(VO_BETA,V:VA),,                 +GHSERVV+1540-0.512*T;,,      N 15Yan !
 PAR  G(V2O,V:VA),,                     +GHCPVV;,,                    N 15Yan !
 PAR  G(HALITE_B1,V:VA),,               +GFCCVV;,,                    N 91Din !
 PAR  G(HALITE_B1,V+2:VA),,             +GV1O1+30*T;,,                N 15Yan !
 PAR  G(HALITE_B1,V+3:VA),,             +0.5*GV2O3+10956+30*T;,,      N 15Yan !
$
 FUNCTION GHSERVV   298.15  -7930.43+133.346053*T-24.134*T*LN(T)
       -0.003098*T**2+1.2175E-07*T**3+69460*T**(-1);
       790.00  Y  -7967.842+143.291093*T-25.9*T*LN(T)
       +6.25E-05*T**2-6.8E-07*T**3;
      2183.00  Y  -41689.864+321.140783*T-47.43*T*LN(T)+6.44389E+31*T**(-9);
      4000.00  N !
 FUNCTION GLIQVV    298.15  +20764.117-9.455552*T+GHSERVV-5.19136E-22*T**7;
      2183.00  Y  -19617.51+311.055983*T-47.43*T*LN(T);
      4000.00  N !
 FUNCTION GFCCVV    298.15  +GHSERVV+7500+1.7*T;                       4000 N !
 FUNCTION GHCPVV    298.15  +GHSERVV+4000+2.4*T;                       4000 N !
$ ------------------------------------------------------------------------------
$ Va
$
 PAR  G(HALITE_B1,VA:VA),,              +30*T;,,                      N 15Yan !
$ ------------------------------------------------------------------------------
$ Binary system
$
$ Y. Yang, H. Mao, M. Selleby, Calphad, 51, 144-60(2015).
$
$ This is their version 2 with a complex model for CORUNDUM_D51 (V2O3).
$
$ Checked against paper and author's tdb. Checked at 6000 K.
$
$ Functions for the oxides are taken from the SGTE substance database.
$
$ The phases V4O7, V5O9, V6O11, V7O13, V8O15 (Magneli phases), V3O7 and V6O13
$ have discontinuous H and S functions.
$
 PAR  G(ION,V+2:O-2),,                  +2*GV1O1
             +189708-93.06*T;,,                                       N 15Yan !
 PAR  G(ION,VO1.5),,                    +0.5*GV2O3LIQ;,,              N 15Yan !
 PAR  G(ION,VO2),,                      +GV1O2LIQ+3308.6;,,           N 15Yan !
 PAR  G(ION,VO2.5),,                    +0.5*GV2O5LIQ;,,              N 15Yan !
 PAR  L(ION,V+2:O-2,VA;0),,             -98900;,,                     N 15Yan !
 PAR  L(ION,V+2:O-2,VA;1),,             +51034;,,                     N 15Yan !
 PAR  L(ION,V+2:O-2,VO1.5;0),,          +61786-78.47*T;,,             N 15Yan !
$
 PAR  G(BCC_A2,V:O),,                   +GHSERVV+3*GHSEROO
             -515378+186.93*T;,,                                      N 15Yan !
 PAR  L(BCC_A2,V:O,VA;0),,              -513376;,,                    N 15Yan !
 PAR  L(BCC_A2,V:O,VA;1),,              +274677;,,                    N 15Yan !
$
 PAR  G(VO_BETA,V:O),,                  +GV1O1+54381-9.329*T;,,       N 15Yan !
 PAR  L(VO_BETA,V:O,VA;0),,             -101228;,,                    N 15Yan !
$
 PAR  G(V2O,V:O),,                      +GHCPVV+0.5*GHSEROO
             -220054+33.54*T;,,                                       N 15Yan !
 PAR  L(V2O,V:O,VA;0),,                 -14949;,,                     N 15Yan !
$
 PAR  G(HALITE_B1,V:O-2),,              +GFCCVV-30*T;,,               N 15Yan !
 PAR  G(HALITE_B1,V+2:O-2),,            +GV1O1;,,                     N 15Yan !
 PAR  G(HALITE_B1,V+3:O-2),,            +0.5*GV2O3+10956;,,           N 15Yan !
 PAR  L(HALITE_B1,V,V+2:O-2,VA;0),,     +37205.229;,,                 N 15Yan !
 PAR  L(HALITE_B1,V+2,V+3:O-2;0),,      -7958.4;,,                    N 15Yan !
 PAR  L(HALITE_B1,V+3:O-2,VA;0),,       +38002;,,                     N 15Yan !
$
 PAR  G(V52O64,V:O),,                   +64*GV1O1-12*GFCCVV
             +345671-25*T;,,                                          N 15Yan !
$
 PAR  G(CORUNDUM_D51,V+2:O-2:O-2),,     +2*GV1O2_LT+466.95-3835.11
             +637.92;,,                                               N 15Yan !
 PAR  G(CORUNDUM_D51,V+3:O-2:O-2),,     +2*GV1O2_LT+466.95;,,         N 15Yan !
 PAR  G(CORUNDUM_D51,V+4:O-2:O-2),,     +2*GV1O2_LT+466.95-3835.11
             +4927.13;,,                                              N 15Yan !
 PAR  G(CORUNDUM_D51,V+2:O-2:VA),,      +GV2O3+637.92;,,              N 15Yan !
 PAR  G(CORUNDUM_D51,V+3:O-2:VA),,      +GV2O3+3835.11;,,             N 15Yan !
 PAR  G(CORUNDUM_D51,V+4:O-2:VA),,      +GV2O3+4927.13;,,             N 15Yan !
$
 PAR  G(V3O5_LT,V+3:V+4:O-2),,          +GV3O5_LT;,,                  N 15Yan !
 PAR  G(V3O5_HT,V+3:V+4:O-2),,          +GV3O5_HT;,,                  N 15Yan !
 PAR  G(V4O7,V+3:V+4:O-2),,             +GV4O7;,,                     N 15Yan !
 PAR  G(V5O9,V+3:V+4:O-2),,             +GV5O9;,,                     N 15Yan !
 PAR  G(V6O11,V+3:V+4:O-2),,            +GV6O11;,,                    N 15Yan !
 PAR  G(V7O13,V+3:V+4:O-2),,            +GV7O13;,,                    N 15Yan !
 PAR  G(V8O15,V+3:V+4:O-2),,            +GV8O15;,,                    N 15Yan !
 PAR  G(VO2_LT,V+4:O-2),,               +GV1O2_LT;,,                  N 15Yan !
 PAR  G(RUTILE_C4,V+4:O-2),,            +GV1O2_HT;,,                  N 15Yan !
 PAR  G(V3O7,V+5:V+4:O-2),,             +GV3O7;,,                     N 15Yan !
 PAR  G(V6O13,V+5:V+4:O-2),,            +GV6O13;,,                    N 15Yan !
 PAR  G(V2O5,V+5:O-2),,                 +GV2O5;,,                     N 15Yan !
$
$ metastable
$
 PAR  G(FCC_A1,V:O),,                   +UN_ASS;,,                    N !
 PAR  L(FCC_A1,V:O,VA;0),,              +UN_ASS;,,                    N !
$
 PAR  G(HCP_A3,V:O),,                   +UN_ASS;,,                    N !
 PAR  L(HCP_A3,V:O,VA;0),,              +UN_ASS;,,                    N !
$
 FUNCTION GV1O1     298.15  -452649.127+334.032868*T-52.91877*T*LN(T)
       -0.00655714*T**2+5.33969167E-11*T**3+818200*T**(-1);
      2063.00  Y  -459188.444+454.230294*T-70*T*LN(T);
      5000.00  N !
 FUNCTION GV2O3     298.15  -1270647.05+886.334178*T-144.3096*T*LN(T)
       +0.00933134*T**2-1.81532333E-06*T**3+1722474*T**(-1);
      2230.00  Y  -1310233.34+1037.18289*T-160*T*LN(T);
      5000.00  N !
 FUNCTION GV2O3LIQ  298.15  +GV2O3+140000-62.7802691*T;                6000 N !
 FUNCTION GV1O2LIQ  298.15  +GV1O2_LT+60532-44.0507157*T;              6000 N !
 FUNCTION GV2O5LIQ  298.15  +GV2O5+64000-67.0859539*T;                 6000 N !
 FUNCTION GV3O5_LT  298.15  +GV2O3+GV1O2_LT-21229;                     6000 N !
 FUNCTION GV3O5_HT  298.15  +GV3O5_LT+12584.8-29.54*T;                 6000 N !
 FUNCTION GV4O7     298.15  +GV3O5_LT+GV1O2_LT-9994+3.13*T;
       341.00  Y  +GV3O5_LT+GV1O2_HT-9994+3.13*T;
       428.00  Y  +GV3O5_HT+GV1O2_HT-9994+3.13*T;
      6000.00  N !
 FUNCTION GV5O9     298.15  +GV3O5_LT+2*GV1O2_LT-16921+6.29*T;
       341.00  Y  +GV3O5_LT+2*GV1O2_HT-16921+6.29*T;
       428.00  Y  +GV3O5_HT+2*GV1O2_HT-16921+6.29*T;
      6000.00  N !
 FUNCTION GV6O11    298.15  +GV3O5_LT+3*GV1O2_LT-23149.8+9.56*T;
       341.00  Y  +GV3O5_LT+3*GV1O2_HT-23149.8+9.56*T;
       428.00  Y  +GV3O5_HT+3*GV1O2_HT-23149.8+9.56*T;
      6000.00  N !
 FUNCTION GV7O13    298.15  +GV3O5_LT+4*GV1O2_LT-24037+10.172*T;
       341.00  Y  +GV3O5_LT+4*GV1O2_HT-24037+10.172*T;
       428.00  Y  +GV3O5_HT+4*GV1O2_HT-24037+10.172*T;
      6000.00  N !
 FUNCTION GV8O15    298.15  +GV3O5_LT+5*GV1O2_LT-24401.8+10.447*T;
      341.00  Y  +GV3O5_LT+5*GV1O2_HT-24401.8+10.447*T;
      428.00  Y  +GV3O5_HT+5*GV1O2_HT-24401.8+10.447*T;
     6000.00  N !
 FUNCTION GV1O2_LT  298.15  -726575.928+148.606432*T-23.84754*T*LN(T)
       -0.0754984*T**2+1.68293667E-05*T**3+9742.025*T**(-1);
       340.00  Y  -739295.718+426.904639*T-69.68954*T*LN(T)
       -0.00841982*T**2+9.50542E-07*T**3+628472.5*T**(-1);
       700.00  Y  -741248.919+454.468286*T-73.9568*T*LN(T)
       -0.0037019825*T**2-1.03988433E-07*T**3+822530.5*T**(-1);
      1400.00  Y  -736944.045+422.824699*T-69.61465*T*LN(T)
       -0.00572185*T**2+8.000575E-08*T**3;
      1818.00  Y  -786400.707+718.174453*T-106.692*T*LN(T);
      3000.00  N !
 FUNCTION GV1O2_HT  298.15  +GV1O2_LT+4497.8-13.2288235*T;             6000 N !
 FUNCTION GV3O7     298.15  +GV2O5+GV1O2_LT-26767+27.28*T;
       341.00  Y  +GV2O5+GV1O2_HT-26767+27.28*T;
      6000.00  N !
 FUNCTION GV6O13    298.15  +GV2O5+4*GV1O2_LT-27412+25.57*T;
       341.00  Y  +GV2O5+4*GV1O2_HT-27412+25.57*T;
      6000.00  N !
 FUNCTION GV2O5     298.15  -1617720.68+1146.46372*T-190.8802*T*LN(T)
       +0.04639246*T**2-1.58726633E-05*T**3+1951745.5*T**(-1);
       954.00  Y  -1627448.88+1182.57918*T-190*T*LN(T);
      5000.00  N !
$ ------------------------------------------------------------------------------
$
$
 LIST-OF-REFERENCE
 NUMBER  SOURCE
  Null   'Unknown source'
  Same   'Same or similar interaction as in the corresponding stable phase'
  REFLAV 'Laves phase convention: G(LAVES,X:X)=+3*GHSERXX+15000'
  91Din  'A.T. Dinsdale, Calphad, 15, 317-425(1991).'
  91Sun  'B. Sundman, J. Phase Equilib., 12, 127-40(1991); Fe-O'
  00SUB  'SGTE substance database, version 2000'
  15Yan  'Y. Yang, H. Mao, M. Selleby, Calphad, 51, 144-60(2015); V-O'
!
