$
$ Database for Sm-Sn from X.J. Liu et al., 2014.
$
$ X.J. Liu, M.H. Chen, Y. Lu, Y.X. Huang, D. Wang, Q. He, D.L. Zhao, C.P. Wang,
$ Calphad, 47, 129-35(2014).
$
$ Dataset created 2018.01.28 by Bengt Hallstedt.
$ 2021.02.05: Modified for use with GES6.
$
$ SM11SN10 has almost disappeared. Other invariant equilibria differ by
$ up to 2 K because of rounding errors when changing from fractional to
$ integar compositions.
$
$ There is a closed miscibility gap between about 5100 K and 6200 K.
$
$ ------------------------------------------------------------------------------
 TEMP-LIM 298.15 6000.00 !
$
$ELEMENT NAME  REF. STATE               ATOMIC MASS H298-H0    S298    !
$
 ELEMENT VA   VACUUM                      0.0          0.0      0.0    ! 
 ELEMENT SM   RHOMB_C19                 150.36      7573.04    69.4962 ! 
 ELEMENT SN   BCT_A5                    118.69      6323.      51.18   ! 
$ ------------------------------------------------------------------------------
$ Phase definitions
$
 PHASE LIQUID:L % 1 1 !
 CONST LIQUID:L : SM SN : !
$
$ Fcc (cF4, Fm-3m) and MeX (cF8, Fm-3m)
$
 PHASE FCC_A1 %A 2 1 1 !
 CONST FCC_A1 : SN : VA : !
$
$ Bcc (cI2, Im-3m)
$
 PHASE BCC_A2 %B 2 1 3 !
 CONST BCC_A2 : SM% SN : VA : !
$
$ Hcp (hP2, P6_3/mmc) and Me2X (NiAs-type, hP4, P6_3/mmc, B8_1)
$
 PHASE HCP_A3 %A 2 1 0.5 !
 CONST HCP_A3 : SM% SN : VA : !
$
$ Prototype C (cF8, Fd-3m)
$
 PHASE DIAMOND_A4 % 1 1 !
 CONST DIAMOND_A4 : SN : !
$
$ Prototype beta-Sn (tI4, I4_1/amd)
$
 PHASE BCT_A5 % 1 1 !
 CONST BCT_A5 : SN : !
$
$ Prototype alpha-Sm (hR9, R-3m)
$
 PHASE RHOMB_C19 % 1 1 !
 CONST RHOMB_C19 : SM : !
$
$ Prototype Mn5Si3 (hP16, P6_3/mcm) 
$
 PHASE SM5SN3_D88 % 2 5 3 !
 CONST SM5SN3_D88 : SM : SN : !
$
$ Prototype Th3P4 (cI28, I-43d) 
$
 PHASE SM4SN3_D73 % 2 4 3 !
 CONST SM4SN3_D73 : SM : SN : !
$
$ Prototype Ge4Sm5 (oP36, Pnma)
$
 PHASE SM5SN4 % 2 5 4 !
 CONST SM5SN4 : SM : SN : !
$
$ Prototype Ge10Ho11 (tI84, I4/mmm)
$
 PHASE SM11SN10 % 2 11 10 !
 CONST SM11SN10 : SM : SN : !
$
$ Prototype Nd2Sn3 (aP20, P-1)
$
 PHASE SM2SN3 % 2 2 3 !
 CONST SM2SN3 : SM : SN : !
$
$ Prototype Ga2Zr (oC12, Cmmm)
$
 PHASE SMSN2 % 2 1 2 !
 CONST SMSN2 : SM : SN : !
$
$ Prototype AuCu3 (cP4, Pm-3m)
$
 PHASE SMSN3_L12 % 2 1 3 !
 CONST SMSN3_L12 : SM : SN : !
$ ------------------------------------------------------------------------------
$ Defaults
$
 DEFINE-SYSTEM-DEFAULT ELEMENT 2 !
 DEFAULT-COM DEFINE_SYSTEM_ELEMENT VA !
 TYPE-DEF % SEQ * !
 TYPE-DEF A GES AMEND_PHASE_DESCRIPTION @ MAGNETIC -3 0.28 !
 TYPE-DEF B GES AMEND_PHASE_DESCRIPTION @ MAGNETIC -1 0.4 !
 FUNCTION ZERO      298.15  0;                                         6000 N !
 FUNCTION UN_ASS    298.15  0;                                         6000 N !
 FUNCTION R         298.15  +8.31451;                                  6000 N !
$ ------------------------------------------------------------------------------
$ Element data
$ ------------------------------------------------------------------------------
$ Sm
$
$ HCP_A3 added in unary 4.4
$ HCP_A3 modified in unary 5.0
$
$ FCC_A1 from 00Du1 (used in SGSOL 5.0; this value is absurd)
$ not included in unary
$ FCC_A1 from 02Zin not included in unary
$ FCC_A1, CBCC_A12, CUB_A13 from 09Wan1 not included in unary
$
 PAR  G(RHOMB_C19,SM),,                 +GHSERSM;                2100 N 91Din !
 PAR  G(BCC_A2,SM:VA),,                 +GBCCSM;                 2100 N 91Din !
$PAR  G(FCC_A1,SM:VA),,                 +GHSERSM+180946;         2100 N 00Du1 !
$PAR  G(FCC_A1,SM:VA),,                 +GHSERSM+5000;           2100 N 98Su1 !
$PAR  G(FCC_A1,SM:VA),,                 +GHSERSM+1000;           2100 N 09Wan1 !
 PAR  G(HCP_A3,SM:VA),,                 +GHSERSM
             +69.977-0.069491*T;                                 2100 N 98Su2 !
$PAR  G(CBCC_A12,SM:VA),,               +GHSERSM+1000;           2100 N 09Wan1 !
$PAR  G(CUB_A13,SM:VA),,                +GHSERSM+5000;           2100 N 09Wan1 !
 PAR  G(LIQUID,SM),,                    +GLIQSM;                 2100 N 91Din !
$
 FUNCTION GHSERSM   298.15  -3872.013-32.10748*T-1.6485*T*LN(T)
       -0.050254*T**2+1.010345E-05*T**3-82168*T**(-1);
       700.00  Y  -50078.215+627.869894*T-102.665*T*LN(T)
       +0.0474522*T**2-7.538383E-06*T**3+3861770*T**(-1);
      1190.00  Y  +289719.819-2744.50976*T+381.41982*T*LN(T)
       -0.254986338*T**2+2.7512152E-05*T**3-40102102*T**(-1);
      1345.00  Y  -23056.079+282.194375*T-50.208*T*LN(T);
      2100.00  N !
 FUNCTION GBCCSM    298.15  -4368.72+55.972523*T-16.9298494*T*LN(T)
       -0.025446016*T**2+3.579527E-06*T**3+94209*T**(-1);
      1190.00  Y  -15957.862+253.121044*T-46.9445*T*LN(T);
      1345.00  Y  +111191.653-624.680805*T+71.6856914*T*LN(T)
       -0.047314968*T**2+3.329865E-06*T**3-24870276*T**(-1);
      2100.00  N !
 FUNCTION GLIQSM    298.15  +3468.783+20.117456*T-11.6968284*T*LN(T)
       -0.032418177*T**2+4.544272E-06*T**3+23528*T**(-1);
      1190.00  Y  -11728.229+273.487076*T-50.208*T*LN(T);
      2100.00  N !
$ ------------------------------------------------------------------------------
$ Sn
$
$ FCC_A1 revised in unary 3.0
$ HCP_A3 revised in unary 4.1
$ TETRAGONAL_A6 added in unary 4.1
$ CBCC_A12 and CUB_A13 added in unary 4.4
$ FCC_A1 modified in unary 5.0
$ DHCP and TET_ALPHA1_A6 added in unary 5.0
$
$ The DHCP phase is labelled D0_24 in 03Liu and alpha-prime in 92Ans. The
$ phase is present between the fcc and hcp phases in the Au-Sn and Au-In
$ systems.
$
 PAR  G(BCT_A5,SN)              100.00  +GHSERSN;                3000 N 91Din !
 PAR  G(DIAMOND_A4,SN)          100.00  +GDIASN;                 3000 N 91Din !
 PAR  G(FCC_A1,SN:VA)           100.00  +GHSERSN+5510-8.46*T;    3000 N 89Fec !
$PAR  G(FCC_A1,SN:VA)           100.00  +GHSERSN+4150-5.2*T;     3000 N 91Din !
 PAR  G(BCC_A2,SN:VA)           100.00  +GHSERSN+4400-6*T;       3000 N 91Din !
 PAR  G(HCP_A3,SN:VA)           100.00  +GHSERSN+3900-7.646*T;   3000 N Ansar !
$PAR  G(HCP_A3,SN:VA)           100.00  +GHSERSN+3900-4.4*T;     3000 N 91Din !
$PAR  G(DHCP,SN)                100.00  +GHSERSN+3803.52-3.46*T; 3000 N 03Liu !
$PAR  G(RHOMBOHEDRAL_A7,SN)     100.00  +GHSERSN+2035;           3000 N 91Din !
$PAR  G(TETRAGONAL_A6,SN)       100.00  +GHSERSN+5387-8.26212*T; 3000 N 99Ans !
$PAR  G(CBCC_A12,SN:VA)         100.00  +GHSERSN+2000;           3000 N 01Mie !
$PAR  G(CUB_A13,SN:VA)          100.00  +GHSERSN+2000;           3000 N 01Mie !
$PAR  G(TET_ALPHA1_A6,SN)       100.00  +GHSERSN+5510-8.46*T;    3000 N 99Ans !
 PAR  G(LIQUID,SN)              100.00  +GLIQSN;                 3000 N 91Din !
$
 FUNCTION GHSERSN   100.00  -7958.517+122.765451*T-25.858*T*LN(T)
       +5.1185E-04*T**2-3.192767E-06*T**3+18440*T**(-1);
       250.00  Y  -5855.135+65.443315*T-15.961*T*LN(T)
       -0.0188702*T**2+3.121167E-06*T**3-61960*T**(-1);
       505.08  Y  +2524.724+4.005269*T-8.2590486*T*LN(T)
       -0.016814429*T**2+2.623131E-06*T**3-1081244*T**(-1)-1.2307E+25*T**(-9);
       800.00  Y  -8256.959+138.99688*T-28.4512*T*LN(T)-1.2307E+25*T**(-9);
      3000.00  N !
 FUNCTION GDIASN    100.00  -9579.608+114.007785*T-22.972*T*LN(T)
       -0.00813975*T**2+2.7288E-06*T**3+25615*T**(-1);
       298.15  Y  -9063.001+104.84654*T-21.5750771*T*LN(T)
       -0.008575282*T**2+1.784447E-06*T**3-2544*T**(-1);
       800.00  Y  -10909.351+147.396535*T-28.4512*T*LN(T);
      3000.00  N !
 FUNCTION GLIQSN    100.00  +7103.092-14.087767*T+GHSERSN+1.47031E-18*T**7;
       505.08  Y  +6971.586-13.814383*T+GHSERSN+1.2307E+25*T**(-9);
       800.00  Y  -1285.372+125.182498*T-28.4512*T*LN(T);
      3000.00  N !
 FUNCTION GBCCSN    298.15  +GHSERSN+4400-6*T;                         3000 N !
$ ------------------------------------------------------------------------------
$ Binary system
$
$ X.J. Liu, M.H. Chen, Y. Lu, Y.X. Huang, D. Wang, Q. He, D.L. Zhao, C.P. Wang,
$ Calphad, 47, 129-35(2014).
$
$ Checked against paper and author's tdb. Checked at 6000 K.
$
$ SM11SN10 has almost disappeared. Other invariant equilibria differ by
$ up to 2 K because of rounding errors when changing from fractional to
$ integar compositions.
$
$ There is a closed miscibility gap between about 5100 K and 6200 K.
$
 PAR  L(LIQUID,SM,SN;0),,               -225800+95*T-0.007*T**2;,,    N 14Liu !
 PAR  L(LIQUID,SM,SN;1),,               +3900-2*T;,,                  N 14Liu !
 PAR  L(LIQUID,SM,SN;2),,               +16800+5*T;,,                 N 14Liu !
 PAR  L(LIQUID,SM,SN;3),,               +13000;,,                     N 14Liu !
$
 PAR  L(BCC_A2,SM,SN:VA;0),,            -56200;,,                     N 14Liu !
 PAR  L(HCP_A3,SM,SN:VA;0),,            +ZERO;,,                      N 14Liu !
$
 PAR  G(SM5SN3_D88,SM:SN),,             +5*GHSERSM+3*GHSERSN
             -508800+119.44*T;,,                                      N 14Liu !
 PAR  G(SM4SN3_D73,SM:SN),,             +4*GHSERSM+3*GHSERSN
             -513800+139.02*T;,,                                      N 14Liu !
 PAR  G(SM5SN4,SM:SN),,                 +5*GHSERSM+4*GHSERSN
             -684000+191.25*T;,,                                      N 14Liu !
 PAR  G(SM11SN10,SM:SN),,               +11*GHSERSM+10*GHSERSN
             -1464036+367.29*T;,,                                     N 14Liu !
 PAR  G(SM2SN3,SM:SN),,                 +2*GHSERSM+3*GHSERSN
             -363540+113.35*T;,,                                      N 14Liu !
 PAR  G(SMSN2,SM:SN),,                  +GHSERSM+2*GHSERSN
             -196500+57.75*T;,,                                       N 14Liu !
 PAR  G(SMSN3_L12,SM:SN),,              +GHSERSM+3*GHSERSN
             -225200+61.88*T;,,                                       N 14Liu !
$ ------------------------------------------------------------------------------
$
$
 LIST-OF-REFERENCE
 NUMBER  SOURCE
  Null   'Unknown source'
  Same   'Same or similar interaction as in the corresponding stable phase'
  COST   'COST 507 database'
  Ansar  'Himo Ansara, unpublished, SGTE unary database V.4.1, 1999; Sn'
  89Fec  'H.J. Fecht, M.X. Zhang, Y.A. Chang, J.H. Perepezko,
          Metall. Trans. A, 20A, 795-803(1989),
          SGTE unary database V.3.0, 1996; Sn'
  91Din  'A.T. Dinsdale, Calphad, 15, 317-425(1991).'
  98Su1  'X. Su, W. Zhang, G. Liu, Z. Du,
          J. Alloys Compd., 267, 149-53(1998); Sm'
  98Su2  'X. Su, W. Zhang, Z. Du, J. Alloys Compd., 278, 182-84(1998)
          SGTE unary database V.4.4, 2001; Sm'
  99Ans  'I. Ansara, S.G. Fries, H.L. Lukas, unpublished, 1999,
          SGTE unary database V.5.0, 2009; In, Sn'
  00Du1  'Z. Du, H. Yang, Z. Metallkd., 91 455-59(2000); Pd, Sm'
  01Mie  'J. Miettinen, Calphad, 25, 43-58(2001),
          SGTE unary database V.4.4, 2001; Sn, Zn'
  03Liu  'H.S. Liu, C.L. Liu, K. Ishida, Z.P. Jin, J. Electron. Mater.,
          32, 1290-96(2003), SGTE unary database V.5.0, 2009; Sn'
  09Wan1 'C.P. Wang, H.L. Zhang, S.L. Wang, Z. Lin, X.J. Liu, A.T. Tang,
          F.S. Pan, J. Alloys Compd., 481, 291-95(2009); Ho, Mn, Sm'
  14Liu  'X.J. Liu, M.H. Chen, Y. Lu, Y.X. Huang, D. Wang, Q. He, D.L. Zhao,
          C.P. Wang, Calphad, 47, 129-35(2014); Sm-Sn'
!
