$
$ Database for Cr-Fe from W. Xiong 2011.
$
$ W. Xiong, P. Hedstrom, M. Selleby, J. Odqvist, M. Thuvander, Q. Chen,
$ Calphad, 35, 355-66(2011).
$
$ Dataset created 2020.08.02 by Bengt Hallstedt.
$
$ Not very compatible with anything.
$ New Fe from 01Che, new magnetic models, 10:20 model for sigma.
$
$ Note! The "p" value in the magnetic models has been changed.
$
$ Wagner-Schottky for sigma!!! This is model abuse.
$
$ ------------------------------------------------------------------------------
 TEMP-LIM 298.15 6000.00 !
$
$ELEMENT NAME  REF. STATE               ATOMIC MASS H298-H0    S298    !
$
 ELEMENT VA   VACUUM                      0.0          0.0      0.0    ! 
 ELEMENT CR   BCC_A2                     51.996     4050.0     23.5429 ! 
 ELEMENT FE   BCC_A2                     55.847     4489.0     27.2797 ! 
$ ------------------------------------------------------------------------------
$ Phase definitions
$
 PHASE LIQUID:L %A 1 1 !
 CONST LIQUID:L : CR FE : !
$
$ Fcc (cF4, Fm-3m) and MeX (cF8, Fm-3m)
$
 PHASE FCC_A1 %A 2 1 1 !
 CONST FCC_A1 : CR FE : VA : !
$
$ Bcc (cI2, Im-3m)
$
 PHASE BCC_A2 %B 2 1 3 !
 CONST BCC_A2 : CR FE : VA : !
$
$ Prototype CrFe (tP30, P4_2/mnm)
$
 PHASE SIGMA_D8B % 2 10 20 !
 CONST SIGMA_D8B : CR FE : CR FE : !
$ ------------------------------------------------------------------------------
$ Defaults
$
 DEFINE-SYSTEM-DEFAULT ELEMENT 2 !
 DEFAULT-COM DEFINE_SYSTEM_ELEMENT VA !
 TYPE-DEF % SEQ * !
 TYPE-DEF A GES AMEND_PHASE_DESCRIPTION @ MAGNETIC -3 0.25 !
 TYPE-DEF B GES AMEND_PHASE_DESCRIPTION @ MAGNETIC -1 0.37 !
 FUNCTION ZERO      298.15  0;                                         6000 N !
 FUNCTION UN_ASS    298.15  0;                                         6000 N !
 FUNCTION R         298.15  +8.31451;                                  6000 N !
 FUNCTION TINV      298.15  +T**(-1);                                  6000 N !
 FUNCTION RTINV     298.15  +R**(-1)*TINV;                             6000 N !
$ ------------------------------------------------------------------------------
$ Element data
$ ------------------------------------------------------------------------------
$ Cr
$
 PAR  G(BCC_A2,CR:VA),,                 +GHSERCR;,,                   N 91Din !
 PAR  TC(BCC_A2,CR:VA),,                 -311.50;,,                   N 91Din !
 PAR  BM(BCC_A2,CR:VA),,                   -0.008;,,                  N 91Din !
 PAR  G(FCC_A1,CR:VA),,                 +GHSERCR+7284+0.163*T;,,      N 91Din !
 PAR  TC(FCC_A1,CR:VA),,                -1109.00;,,                   N 91Din !
 PAR  BM(FCC_A1,CR:VA),,                   -2.46;,,                   N 91Din !
$PAR  G(HCP_A3,CR:VA),,                 +GHSERCR+4438;,,              N 91Din !
$PAR  TC(HCP_A3,CR:VA),,                -1109.00;,,                   N 91Din !
$PAR  BM(HCP_A3,CR:VA),,                   -2.46;,,                   N 91Din !
$PAR  G(CUB_A13,CR:VA),,                +GHSERCR+15899+0.6276*T;,,    N 91Din !
$PAR  G(CBCC_A12,CR:VA),,               +GHSERCR+11087+2.7196*T;,,    N 91Din !
 PAR  G(LIQUID,CR),,                    +GLIQCR;,,                    N 91Din !
$
 PAR  G(SIGMA_D8B,CR:CR),,              +30*GHSERCR+150000;,,         N 11Xio !
$
 FUNCTION GHSERCR   298.15  -8856.94+157.48*T-26.908*T*LN(T)
       +0.00189435*T**2-1.47721E-06*T**3+139250*T**(-1);
      2180.00  Y  -34869.344+344.18*T-50*T*LN(T)-2.88526E+32*T**(-9);
      6000.00  N !
 FUNCTION GLIQCR    298.15  +24339.955-11.420225*T+GHSERCR+2.37615E-21*T**7;
      2180.00  Y  -16459.984+335.616316*T-50*T*LN(T);
      6000.00  N !
 FUNCTION GFCCCR    298.15  +GHSERCR+7284+0.163*T;                     6000 N !
$ ------------------------------------------------------------------------------
$ Fe
$
$ The function definitions from the tdb of 11Xio are used here. This can be
$ written more shorthand using the new standard keywords THETA and GD in
$ Thermo-Calc. (See e.g. new-Fe.tdb in elements).
$
 PAR  G(BCC_A2,FE:VA),,                 +GHSERFE;,,                   N 01Che !
 PAR  TC(BCC_A2,FE:VA),,                 1043.00;,,                   N 91Din !
 PAR  BM(BCC_A2,FE:VA),,                    2.22;,,                   N 91Din !
 PAR  G(FCC_A1,FE:VA),,                 +GFCCFE;,,                    N 01Che !
 PAR  TC(FCC_A1,FE:VA),,                 -201.00;,,                   N 91Din !
 PAR  BM(FCC_A1,FE:VA),,                   -2.10;,,                   N 91Din !
 PAR  G(LIQUID,FE),,                    +GLIQFE;,,                    N 01Che !
 PAR  TC(LIQUID,FE),,                     200.00;,,                   N 01Che !
 PAR  BM(LIQUID,FE),,                       1.70;,,                   N 01Che !
$
 PAR  G(SIGMA_D8B,FE:FE),,              +30*GHSERFE+150000;,,         N 11Xio !
$
 FUNCTION GHSERFE   298.15  +GGBCCL+8927.2831-9.7228331*T;
      1811.00  Y  +GGBCCH+8927.2831-9.7228331*T;
      6000.00  N !
 FUNCTION GFCCFE    298.15  +GGFCCL+249.14486-4.4119139*T;
      1811.00  Y  +GGFCCH+249.14486-4.4119139*T;
      6000.00  N !
 FUNCTION GLIQFE    298.15  +7103.20801-0.0019730116*T**2
       +1392.1182-8.2584018*T+GEIN245+G2STLIQ;
      6000.00  N !
 FUNCTION GGBCCL    298.15  -8410.26596-0.0032390815*T**2
       -3.3191338E-14*T**5+GEIN309;
      6000.00  N !
 FUNCTION GGBCCH    298.15  -33208.4173+165.40504*T-21.0474823*T*LN(T)
       -2.7818280E+18*T**(-5)+4.2811788E+37*T**(-11)+GEIN309;
      6000.00  N !
 FUNCTION GEIN3091  298.15  +1-EXP(-309*TINV);                         6000 N !
 FUNCTION GEIN3092  298.15  +LOG(GEIN3091);                            6000 N !
 FUNCTION GEIN3093  298.15  +3*R*T*GEIN3092;                           6000 N !
 FUNCTION GEIN309   298.15  +463.5*R+GEIN3093;                         6000 N !
 FUNCTION GGFCCL    298.15  -2615.00904-0.0027933375*T**2
       -2.1239087E-14*T**5+GEIN309+G2STFCC;
      6000.00  N !
 FUNCTION GGFCCH    298.15  -32389.5438+168.31394*T-20.9834791*T*LN(T)
      +9.2444598E+18*T**(-5)-1.4750509E+37*T**(-11)+GEIN309+G2STFCC;
      6000.00  N !
 FUNCTION G2STFCC1  298.15  +9023.52375-2.49522260*T;                  6000 N !
 FUNCTION G2STFCC2  298.15  -G2STFCC1*RTINV;                           6000 N !
 FUNCTION G2STFCC3  298.15  +1+EXP(G2STFCC2);                          6000 N !
 FUNCTION G2STFCC4  298.15  +LOG(G2STFCC3);                            6000 N !
 FUNCTION G2STFCC   298.15  -R*T*G2STFCC4;                             6000 N !
 FUNCTION GEIN2451  298.15  +1-EXP(-245*TINV);                         6000 N !
 FUNCTION GEIN2452  298.15  +LOG(GEIN2451);                            6000 N !
 FUNCTION GEIN2453  298.15  +3*R*T*GEIN2452;                           6000 N !
 FUNCTION GEIN245   298.15  +367.5*R+GEIN2453;                         6000 N !
 FUNCTION G2STLIQ1  298.15  +42754.9478-7.624*T-1.08230446*T*LN(T);    6000 N !
 FUNCTION G2STLIQ2  298.15  -G2STLIQ1*RTINV;                           6000 N !
 FUNCTION G2STLIQ3  298.15  +1+EXP(G2STLIQ2);                          6000 N !
 FUNCTION G2STLIQ4  298.15  +LOG(G2STLIQ3);                            6000 N !
 FUNCTION G2STLIQ   298.15  -R*T*G2STLIQ4;                             6000 N !
$ ------------------------------------------------------------------------------
$ Binary system
$
$ W. Xiong, P. Hedstrom, M. Selleby, J. Odqvist, M. Thuvander, Q. Chen,
$ Calphad, 35, 355-66(2011).
$
$ Checked against paper and author's tdb. Checked at 6000 K.
$
$ Not very compatible with anything.
$ New Fe from 01Che, new magnetic models, 10:20 model for sigma.
$
$ Note! The "p" value in the magnetic models has been changed.
$
$ Wagner-Schottky for sigma!!! This is model abuse.
$
 PAR  L(LIQUID,CR,FE;0),,               -5.983*T;,,                   N 11Xio !
 PAR  L(LIQUID,CR,FE;1),,               -384.41;,,                    N 11Xio !
$
 PAR  L(BCC_A2,CR,FE:VA;0),,            +24212.06-15.507*T;,,         N 11Xio !
 PAR  L(BCC_A2,CR,FE:VA;1),,            +1664.69+0.286*T;,,           N 11Xio !
 PAR  L(BCC_A2,CR,FE:VA;2),,            -13250.88+8.252*T;,,          N 11Xio !
 PAR  BM(BCC_A2,CR,FE:VA;0),,              -0.45;,,                   N 11Xio !
 PAR  TC(BCC_A2,CR,FE:VA;0),,            +865.50;,,                   N 11Xio !
 PAR  TC(BCC_A2,CR,FE:VA;1),,            -567.20;,,                   N 11Xio !
$
 PAR  L(FCC_A1,CR,FE:VA;0),,            +28871.89-22.318*T;,,         N 11Xio !
 PAR  L(FCC_A1,CR,FE:VA;1),,            +32711.42-18.18*T;,,          N 11Xio !
$
 PAR  G(SIGMA_D8B,CR:FE),,              +10*GHSERCR+20*GHSERFE
             -13807.14-10.715*T;,,                                    N 11Xio !
 PAR  G(SIGMA_D8B,FE:CR),,              +10*GHSERFE+20*GHSERCR
             +313807.14+10.715*T;,,                                   N 11Xio !
 PAR  L(SIGMA_D8B,CR,FE:CR;0),,         +7722.64-139.766*T;,,         N 11Xio !
 PAR  L(SIGMA_D8B,CR,FE:FE;0),,         +7722.64-139.766*T;,,         N 11Xio !
 PAR  L(SIGMA_D8B,CR:CR,FE;0),,         +89908.52-156.894*T;,,        N 11Xio !
 PAR  L(SIGMA_D8B,FE:CR,FE;0),,         +89908.52-156.894*T;,,        N 11Xio !
$ ------------------------------------------------------------------------------
$
 ASSESSED_SYSTEM
  CR-FE(TDB -* +LIQ +BCC_A2 +FCC_A1 +SIGMA_D8B
  ;G5 C_S:BCC/CR:VA MAJ:BCC/FE:VA ;P3 TMM:300/2500 STP:.6/1200/-2/2/1) !
$
$
 LIST-OF-REFERENCE
 NUMBER  SOURCE
  Null   'Unknown source'
  REFLAV 'Laves phase convention: G(LAVES,X:X)=+3*GHSERXX+15000'
  91Din  'A.T. Dinsdale, Calphad, 15, 317-425(1991).'
  01Che  'Q. Chen, B. Sundman, J. Phase Equilib., 22, 631-44(2001); Fe'
  11Xio  'W. Xiong, P. Hedstrom, M. Selleby, J. Odqvist, M. Thuvander, Q. Chen,
          Calphad, 35, 355-66(2011); Cr-Fe'
!
