$
$ Database for Co-Sb from W. Gierlotka et al. 2019.
$
$ W. Gierlotka, S.-W. Chen, S.-M. Tseng, P.-H. Lin,
$ Metall. Mater. Trans. A, 50A, 3891-3902(2019).
$
$ Dataset created 2020.05.10 by Bengt Hallstedt.
$
$ Modellierung ohne jeden Sinn und Verstand.
$
$ ------------------------------------------------------------------------------
 TEMP-LIM 298.15 6000.00 !
$
$ELEMENT NAME  REF. STATE               ATOMIC MASS H298-H0    S298    !
$
 ELEMENT VA   VACUUM                      0.0          0.0      0.0    ! 
 ELEMENT CO   HCP_A3                     58.9332    4765.567   30.0400 ! 
 ELEMENT SB   RHOMBOHEDRAL_A7           121.75      5870.152   45.5219 ! 
$ ------------------------------------------------------------------------------
$ Phase definitions
$
 PHASE LIQUID:L % 1 1 !
 CONST LIQUID:L : CO SB : !
$
$ Fcc (cF4, Fm-3m) and MeX (cF8, Fm-3m)
$
 PHASE FCC_A1 %A 2 1 1 !
 CONST FCC_A1 : CO% SB : VA : !
$
$ Bcc (cI2, Im-3m)
$
 PHASE BCC_A2 %B 2 1 3 !
 CONST BCC_A2 : CO SB : VA : !
$
$ Hcp (hP2, P6_3/mmc) and Me2X (NiAs-type, hP4, P6_3/mmc, B8_1)
$
 PHASE HCP_A3 %A 2 1 0.5 !
 CONST HCP_A3 : CO% SB : VA : !
$
$ Prototype alpha-As (hR2, R-3m)
$
 PHASE RHOMBOHEDRAL_A7 % 1 1 !
 CONST RHOMBOHEDRAL_A7 : SB : !
$
$ Prototype NiAs (hP4, P6_3/mmc)
$
 PHASE COSB_B81 % 4 1 1 2 2 !
 CONST COSB_B81 : CO : CO% VA : CO VA% : SB : !
$
$ Prototype FeS2 (marcasite, oP6, Pnnm)
$
 PHASE COSB2_C18 % 2 1 2 !
 CONST COSB2_C18 : CO : SB : !
$
$ Prototype CoSb2 (mP12, P2_1/c)
$
$PHASE COSB2_PRIME % 2 1 2 !
$CONST COSB2_PRIME : CO : SB : !
$
$ Prototype CoAs3 (cI32, Im-3)
$
 PHASE COSB3_D02 % 2 1 3 !
 CONST COSB3_D02 : CO : SB : !
$ ------------------------------------------------------------------------------
$ Defaults
$
 DEFINE-SYSTEM-DEFAULT ELEMENT 2 !
 DEFAULT-COM DEFINE_SYSTEM_ELEMENT VA !
 TYPE-DEF % SEQ * !
 TYPE-DEF A GES AMEND_PHASE_DESCRIPTION @ MAGNETIC -3 0.28 !
 TYPE-DEF B GES AMEND_PHASE_DESCRIPTION @ MAGNETIC -1 0.4 !
 FUNCTION ZERO      298.15  0;                                         6000 N !
 FUNCTION UN_ASS    298.15  0;                                         6000 N !
$ ------------------------------------------------------------------------------
$ Element data
$ ------------------------------------------------------------------------------
$ Co
$
 PAR  G(HCP_A3,CO:VA),,                 +GHSERCO;,,                   N 91Din !
 PAR  TC(HCP_A3,CO:VA),,                 1396.00;,,                   N 91Din !
 PAR  BM(HCP_A3,CO:VA),,                    1.35;,,                   N 91Din !
 PAR  G(FCC_A1,CO:VA),,                 +GHSERCO
             +427.591-0.615248*T;,,                                   N 91Din !
 PAR  TC(FCC_A1,CO:VA),,                 1396.00;,,                   N 91Din !
 PAR  BM(FCC_A1,CO:VA),,                    1.35;,,                   N 91Din !
 PAR  G(BCC_A2,CO:VA),,                 +GHSERCO+2938-0.7138*T;,,     N 91Din !
 PAR  TC(BCC_A2,CO:VA),,                 1450.00;,,                   N 91Din !
 PAR  BM(BCC_A2,CO:VA),,                    1.35;,,                   N 91Din !
$PAR  G(CBCC_A12,CO:VA),,               +GHSERCO+4155;,,              N 91Din !
$PAR  G(CUB_A13,CO:VA),,                +GHSERCO+3155;,,              N 91Din !
 PAR  G(LIQUID,CO),,                    +GLIQCO;,,                    N 91Din !
$
 FUNCTION GHSERCO   298.15  +310.241+133.36601*T-25.0861*T*LN(T)
       -0.002654739*T**2-1.7348E-07*T**3+72527*T**(-1);
      1768.00  Y  -17197.666+253.28374*T-40.5*T*LN(T)+9.3488E+30*T**(-9);
      6000.00  N !
 FUNCTION GLIQCO    298.15  +15085.037-8.931932*T+GHSERCO-2.19801E-21*T**7;
      1768.00  Y  -846.61+243.599944*T-40.5*T*LN(T);
      6000.00  N !
$ ------------------------------------------------------------------------------
$ Sb
$
$ BCT_A5 revised in unary 3.0
$
$ BCT_A5 the value from 91Din is used in LBall-v7+fun.tdb.
$ BCT_A5 the value from 96SGUN is used in SGSOL 5.0.
$ It is only needed in Sb-Sn.
$
 PAR  G(RHOMBOHEDRAL_A7,SB),,           +GHSERSB;                2000 N 91Din !
 PAR  G(FCC_A1,SB:VA),,                 +GHSERSB+19874-13.7*T;   2000 N 91Din !
 PAR  G(BCC_A2,SB:VA),,                 +GHSERSB+19874-15.1*T;   2000 N 91Din !
 PAR  G(HCP_A3,SB:VA),,                 +GHSERSB+19874-13*T;     2000 N 91Din !
$PAR  G(BCT_A5,SB),,                    +GHSERSB+13000-8*T;      2000 N 96SGUN !
$PAR  G(BCT_A5,SB),,                    +GHSERSB+1000;           2000 N 91Din !
 PAR  G(LIQUID,SB),,                    +GLIQSB;                 2000 N 91Din !
$
 FUNCTION GHSERSB   298.15  -9242.858+156.154689*T-30.5130752*T*LN(T)
       +0.007748768*T**2-3.003415E-06*T**3+100625*T**(-1);
       903.78  Y  -11738.83+169.485872*T-31.38*T*LN(T)+1.616849E+27*T**(-9);
      2000.00  N !
 FUNCTION GLIQSB    298.15  +19822.328-21.923164*T+GHSERSB-1.74847E-20*T**7;
       903.78  Y  +8175.359+147.455986*T-31.38*T*LN(T);
      2000.00  N !
$ ------------------------------------------------------------------------------
$ Binary system
$
$ W. Gierlotka, S.-W. Chen, S.-M. Tseng, P.-H. Lin,
$ Metall. Mater. Trans. A, 50A, 3891-3902(2019).
$
$ Checked against paper. Checked at 6000K.
$
$ Modellierung ohne jeden Sinn und Verstand.
$
 PAR  L(LIQUID,CO,SB;0),,               -131025+560.0576*T
             -66.2138*T*LN(T);,,                                      N 19Gie !
 PAR  L(LIQUID,CO,SB;1),,               -34092+190.8554*T
             -22.2494*T*LN(T);,,                                      N 19Gie !
 PAR  L(LIQUID,CO,SB;2),,               +3229;,,                      N 19Gie !
$
 PAR  L(FCC_A1,CO,SB:VA;0),,            +3650;,,                      N 19Gie !
 PAR  L(HCP_A3,CO,SB:VA;0),,            +UN_ASS;,,                    N !
$
 PAR  G(COSB_B81,CO:CO:CO:SB),,         +4*GHSERCO+2*GHSERSB
             -588-1.4754*T;,,                                         N 19Gie !
 PAR  G(COSB_B81,CO:CO:VA:SB),,         +6*GCOSB;,,                   N 19Gie !
 PAR  G(COSB_B81,CO:VA:CO:SB),,         +3*GHSERCO+2*GHSERSB+600;,,   N 19Gie !
 PAR  G(COSB_B81,CO:VA:VA:SB),,         +GHSERCO+2*GHSERSB+600;,,     N 19Gie !
 PAR  L(COSB_B81,CO:CO,VA:VA:SB;0),,    -85701.684+42.711*T;,,        N 19Gie !
 PAR  L(COSB_B81,CO:CO:CO,VA:SB;0),,    -168000+93*T;,,               N 19Gie !
$
 PAR  G(COSB2_C18,CO:SB),,              +3*GCOSB2;,,                  N 19Gie !
 PAR  G(COSB3_D02,CO:SB),,              +4*GCOSB3;,,                  N 19Gie !
$
$ metastable
$
 PAR  L(BCC_A2,CO,SB:VA;0),,            +3650;,,                      N Same !
$
 FUNCTION GCOSB     298.15  +0.333333*GHSERCO+0.333333*GHSERSB
       -27126.153+163.1975*T-24.32305*T*LN(T)+0.029147809*T**2
       -9.1483837E-06*T**3+227067*T**(-1)+1.5389618E-19*T**7;
      6000.00  N !
 FUNCTION GCOSB2    298.15  +0.333333*GHSERCO+0.666667*GHSERSB
       -6110.033-286.14073*T+46.293505*T*LN(T)-0.047653267*T**2
       +6.1539511E-06*T**3-2000023.4*T**(-1)+2.5792066E-20*T**7;
      6000.00  N !
 FUNCTION GCOSB3    298.15  +0.25*GHSERCO+0.75*GHSERSB
       +4251.0818+5.5701034*T-5.2763457*T*LN(T)+0.015628019*T**2
       +2.0379583E-06*T**3-5592411.3*T**(-1)+1.0194862E-20*T**7;
      6000.00  N !
$ ------------------------------------------------------------------------------
$
$
 LIST-OF-REFERENCE
 NUMBER  SOURCE
  Null   'Unknown source'
  Same   'Same or similar interaction as in the corresponding stable phase'
  REFLAV 'Laves phase convention: G(LAVES,X:X)=+3*GHSERXX+15000'
  91Din  'A.T. Dinsdale, Calphad, 15, 317-425(1991).'
  96SGUN 'SGTE unary database V.3.0, 1996.'
  19Gie  'W. Gierlotka, S.-W. Chen, S.-M. Tseng, P.-H. Lin,
          Metall. Mater. Trans. A, 50A, 3891-3902(2019); Co-Sb'
!
