$
$ Database for Fe-Sb from B. Pei et al. 1995 (included in LB Vol. 5)
$
$ B. Pei, B. Bjorkman, B. Sundman, B. Jansson, Calphad, 19, 1-15(1995).
$
$ Dataset created 2016.01.24 by Bengt Hallstedt.
$ 2021.01.02: Modified for use with GES6.
$
$ There is an inverse miscibility gap with a minimum at 5053 K and x(Sb)=0.30.
$
$ FeSb is not stable below 270 K.
$
$ ------------------------------------------------------------------------------
 TEMP-LIM 298.15 6000.00 !
$
$ELEMENT NAME  REF. STATE               ATOMIC MASS H298-H0    S298    !
$
 ELEMENT VA   VACUUM                      0.0          0.0      0.0    ! 
 ELEMENT FE   BCC_A2                     55.847     4489.0     27.2797 ! 
 ELEMENT SB   RHOMBOHEDRAL_A7           121.75      5870.152   45.5219 ! 
$ ------------------------------------------------------------------------------
$ Phase definitions
$
 PHASE LIQUID:L % 1 1 !
 CONST LIQUID:L : FE SB : !
$
$ Fcc (cF4, Fm-3m) and MeX (cF8, Fm-3m)
$
 PHASE FCC_A1 %A 2 1 1 !
 CONST FCC_A1 : FE% SB : VA : !
$
$ Bcc (cI2, Im-3m)
$
 PHASE BCC_A2 %B 2 1 3 !
 CONST BCC_A2 : FE% SB : VA : !
$
$ Hcp (hP2, P6_3/mmc) and Me2X (NiAs-type, hP4, P6_3/mmc, B8_1)
$
 PHASE HCP_A3 %A 2 1 0.5 !
 CONST HCP_A3 : FE SB : VA : !
$
$ Prototype alpha-As (hR2, R-3m)
$
 PHASE RHOMBOHEDRAL_A7 % 1 1 !
 CONST RHOMBOHEDRAL_A7 : SB : !
$
$ Prototype NiAs (hP6, P6_3/mmc)
$ (InNi2, B8_2 according to LB structure)
$
 PHASE FESB_B81 % 2 1 1  !
 CONST FESB_B81 : FE : FE SB : !
$
$ Prototype alpha-FeS2 (oP6, Pnnm)
$
 PHASE FESB2_C18 % 2 1 2  !
 CONST FESB2_C18 : FE : SB : !
$ ------------------------------------------------------------------------------
$ Defaults
$
 DEFINE-SYSTEM-DEFAULT ELEMENT 2 !
 DEFAULT-COM DEFINE_SYSTEM_ELEMENT VA !
 TYPE-DEF % SEQ * !
 TYPE-DEF A GES AMEND_PHASE_DESCRIPTION @ MAGNETIC -3 0.28 !
 TYPE-DEF B GES AMEND_PHASE_DESCRIPTION @ MAGNETIC -1 0.4 !
 FUNCTION ZERO      298.15  0;                                         6000 N !
 FUNCTION UN_ASS    298.15  0;                                         6000 N !
 FUNCTION R         298.15  +8.31451;                                  6000 N !
$ ------------------------------------------------------------------------------
$ Element data
$ ------------------------------------------------------------------------------
$ Fe
$
$ ORTHORHOMBIC_A20 and TETRAGONAL_U added im unary 4.1
$
 PAR  G(BCC_A2,FE:VA),,                 +GHSERFE;,,                   N 91Din !
 PAR  TC(BCC_A2,FE:VA),,                 1043.00;,,                   N 91Din !
 PAR  BM(BCC_A2,FE:VA),,                    2.22;,,                   N 91Din !
 PAR  G(FCC_A1,FE:VA),,                 +GFCCFE;,,                    N 91Din !
 PAR  TC(FCC_A1,FE:VA),,                 -201.00;,,                   N 91Din !
 PAR  BM(FCC_A1,FE:VA),,                   -2.10;,,                   N 91Din !
 PAR  G(HCP_A3,FE:VA),,                 +GHCPFE;,,                    N 91Din !
$PAR  G(CBCC_A12,FE:VA),,               +GHSERFE+4745;,,              N 91Din !
$PAR  G(CUB_A13,FE:VA),,                +GHSERFE+3745;,,              N 91Din !
$PAR  G(ORTHORHOMBIC_A20,FE),,          +GHSERFE+5000;,,              N 99SGUN !
$PAR  G(TETRAGONAL_U,FE),,              +GHSERFE+5000;,,              N 99SGUN !
 PAR  G(LIQUID,FE),,                    +GLIQFE;,,                    N 91Din !
$
 PAR  G(FESB_B81,FE:FE),,               +2*GHCPFE;,,                  N 95Pei !
$
 FUNCTION GHSERFE   298.15  +1225.7+124.134*T-23.5143*T*LN(T)
       -0.00439752*T**2-5.8927E-08*T**3+77359*T**(-1);
      1811.00  Y  -25383.581+299.31255*T-46*T*LN(T)+2.29603E+31*T**(-9);
      6000.00  N !
 FUNCTION GFCCFE    298.15  -1462.4+8.282*T-1.15*T*LN(T)
       +6.4E-04*T**2+GHSERFE;
      1811.00  Y  -1713.815+0.940009*T+GHSERFE+4.9251E+30*T**(-9);
      6000.00  N !
 FUNCTION GHCPFE    298.15  -3705.78+12.591*T-1.15*T*LN(T)
       +6.4E-04*T**2+GHSERFE;
      1811.00  Y  -3957.195+5.249009*T+GHSERFE+4.9251E+30*T**(-9);
      6000.00  N !
 FUNCTION GLIQFE    298.15  +12040.17-6.55843*T+GHSERFE-3.67516E-21*T**7;
      1811.00  Y  -10838.83+291.302*T-46*T*LN(T);
      6000.00  N !
$ ------------------------------------------------------------------------------
$ Sb
$
$ BCT_A5 revised in unary 3.0
$
$ BCT_A5 the value from 91Din is used in LBall-v7+fun.tdb.
$ BCT_A5 the value from 96SGUN is used in SGSOL 5.0.
$ It is only needed in Sb-Sn.
$
 PAR  G(RHOMBOHEDRAL_A7,SB),,           +GHSERSB;                2000 N 91Din !
 PAR  G(FCC_A1,SB:VA),,                 +GHSERSB+19874-13.7*T;   2000 N 91Din !
 PAR  G(BCC_A2,SB:VA),,                 +GHSERSB+19874-15.1*T;   2000 N 91Din !
 PAR  G(HCP_A3,SB:VA),,                 +GHSERSB+19874-13*T;     2000 N 91Din !
$PAR  G(BCT_A5,SB),,                    +GHSERSB+13000-8*T;      2000 N 96SGUN !
$PAR  G(BCT_A5,SB),,                    +GHSERSB+1000;           2000 N 91Din !
 PAR  G(LIQUID,SB),,                    +GLIQSB;                 2000 N 91Din !
$
 FUNCTION GHSERSB   298.15  -9242.858+156.154689*T-30.5130752*T*LN(T)
       +0.007748768*T**2-3.003415E-06*T**3+100625*T**(-1);
       903.78  Y  -11738.83+169.485872*T-31.38*T*LN(T)+1.616849E+27*T**(-9);
      2000.00  N !
 FUNCTION GLIQSB    298.15  +19822.328-21.923164*T+GHSERSB-1.74847E-20*T**7;
       903.78  Y  +8175.359+147.455986*T-31.38*T*LN(T);
      2000.00  N !
 FUNCTION GHCPSB    298.15  +GHSERSB+19874-13*T;                       2000 N !
$ ------------------------------------------------------------------------------
$ Binary system
$
$ From B. Pei et al. 1995 (included in LB Vol. 5)
$
$ B. Pei, B. Bjorkman, B. Sundman, B. Jansson, Calphad, 19, 1-15(1995).
$
$ Checked against LB and paper. Checked at 6000 K.
$
$ There is an inverse miscibility gap with a minimum at 5053 K and x(Sb)=0.30.
$
$ FeSb is not stable below 270 K.
$
 PAR  L(LIQUID,FE,SB;0),,               -22891.21+17.47*T;,,          N 95Pei !
 PAR  L(LIQUID,FE,SB;1),,               -15222.54+8.74*T;,,           N 95Pei !
 PAR  L(LIQUID,FE,SB;2),,               +2336.64;,,                   N 95Pei !
$
 PAR  L(FCC_A1,FE,SB:VA;0),,            +2684.1+21.15*T;,,            N 95Pei !
 PAR  L(FCC_A1,FE,SB:VA;1),,            -21095.63;,,                  N 95Pei !
$
 PAR  L(BCC_A2,FE,SB:VA;0),,            +4764.1+26.28*T;,,            N 95Pei !
 PAR  L(BCC_A2,FE,SB:VA;1),,            -35112.52;,,                  N 95Pei !
$
 PAR  G(FESB_B81,FE:SB),,               +GHCPFE+GHCPSB
             -32715.38+7*T;,,                                         N 95Pei !
 PAR  L(FESB_B81,FE:FE,SB;0),,          +16407.28+4.39*T;,,           N 95Pei !
 PAR  L(FESB_B81,FE:FE,SB;1),,          +26981.65;,,                  N 95Pei !
$
 PAR  G(FESB2_C18,FE:SB),,              +GHSERFE+2*GHSERSB
             -30186.21+9.15*T;,,                                      N 95Pei !
$
$ Metastable
$
 PAR  L(HCP_A3,FE,SB:VA;0),,            +2684.1+21.15*T;,,            N Same !
 PAR  L(HCP_A3,FE,SB:VA;1),,            -21095.63;,,                  N Same !
$ ------------------------------------------------------------------------------
$
 ASSESSED_SYSTEM
  FE-SB(TDB -* +LIQUID +FCC +BCC_A2 +RHOMBO_A7 +FESB_B81 +FESB2_C18 
  ;P3 STP:.1/1400/1 STP:.001/1400/1) !
$
$
 LIST-OF-REFERENCE
 NUMBER  SOURCE
  Null   'Unknown source'
  Same   'Same or similar interaction as in the corresponding stable phase'
  REFLAV 'Laves phase convention: G(LAVES,X:X)=+3*GHSERXX+15000'
  91Din  'A.T. Dinsdale, Calphad, 15, 317-425(1991).'
  95Pei  'B. Pei, B. Bjorkman, B. Sundman, B. Jansson,
          Calphad, 19, 1-15(1995); Fe-Sb'
  96SGUN 'SGTE unary database V.3.0, 1996.'
  99SGUN 'SGTE unary database V.4.1, 1999.'
!
