$
$ Database for Ge-Yb from D. Zhu et al. 2018.
$
$ D. Zhu, C. Li, C. Guo, Z. Du, Ferroelectrics, 522, 80-87(2018).
$
$ The paper also includes a version using the Kaptay equation.
$
$ Invariant equilibria differ by up to 10 K, probably because of insufficient
$ accuracy for fractional compound compositions.
$
$ There is an inverse miscibility gap with a minimum at 5555 K and x(Yb)=0.85.
$
$ ------------------------------------------------------------------------------
 TEMP-LIM 298.15 6000.00 !
$
$ELEMENT NAME  REF. STATE               ATOMIC MASS H298-H0    S298    !
$
 ELEMENT VA   VACUUM                      0.0          0.0      0.0    ! 
 ELEMENT GE   DIAMOND_A4                 72.59      4636.0     31.09   ! 
 ELEMENT YB   FCC_A1                    173.04      6711.136   59.8312 ! 
$ ------------------------------------------------------------------------------
$ Phase definitions
$
 PHASE LIQUID:L % 1 1 !
 CONST LIQUID:L : GE YB : !
$
$ Fcc (cF4, Fm-3m) and MeX (cF8, Fm-3m)
$
 PHASE FCC_A1 %A 2 1 1 !
 CONST FCC_A1 : GE YB% : VA : !
$
$ Bcc (cI2, Im-3m)
$
 PHASE BCC_A2 %B 2 1 3 !
 CONST BCC_A2 : GE YB% : VA : !
$
$ Hcp (hP2, P6_3/mmc) and Me2X (NiAs-type, hP4, P6_3/mmc, B8_1)
$
 PHASE HCP_A3 % 2 1 0.5 !
 CONST HCP_A3 : GE YB : VA : !
$
$ Prototype C (cF8, Fd-3m)
$
 PHASE DIAMOND_A4 % 1 1 !
 CONST DIAMOND_A4 : GE% YB : !
$
$ Prototype Ge8Yb3 (aP22, P-1)
$
 PHASE GE8YB3 % 2 8 3 !
 CONST GE8YB3 : GE : YB : !
$
$ Prototype Pd5Th3 (hP8, P-62m)
$
 PHASE GE5YB3 % 2 5 3 !
 CONST GE5YB3 : GE : YB : !
$
$ Prototype Ge10Ho11 (tI84, I4/mmm)
$
 PHASE GE10YB11 % 2 10 11 !
 CONST GE10YB11 : GE : YB : !
$
$ Prototype Ge4Sm5 (oP36, Pnma)
$
 PHASE GE4YB5 % 2 4 5 !
 CONST GE4YB5 : GE : YB : !
$
$ Prototype Mn5Si3 (hP16, P6_3/mcm)
$
 PHASE GE3YB5_D88 % 2 3 5 !
 CONST GE3YB5_D88 : GE : YB : !
$
$ Prototype Co2Si (oP12, Pnma)
$
 PHASE GEYB2_C37 % 2 1 2 !
 CONST GEYB2_C37 : GE : YB : !
$ ------------------------------------------------------------------------------
$ Defaults
$
 DEFINE-SYSTEM-DEFAULT ELEMENT 2 !
 DEFAULT-COM DEFINE_SYSTEM_ELEMENT VA !
 TYPE-DEF % SEQ * !
 TYPE-DEF A GES AMEND_PHASE_DESCRIPTION @ MAGNETIC -3 0.28 !
 TYPE-DEF B GES AMEND_PHASE_DESCRIPTION @ MAGNETIC -1 0.4 !
 FUNCTION ZERO      298.15  0;                                         6000 N !
 FUNCTION UN_ASS    298.15  0;                                         6000 N !
 FUNCTION R         298.15  +8.31451;                                  6000 N !
$ ------------------------------------------------------------------------------
$ Element data
$ ------------------------------------------------------------------------------
$ Ge
$
$ BCT_A5 and RHOMBOHEDRAL_A7 added in unary 4.1
$
 PAR  G(DIAMOND_A4,GE),,                +GHSERGE;                3200 N 91Din !
 PAR  G(FCC_A1,GE:VA),,                 +GHSERGE+36000-22.3*T;   3200 N 91Din !
 PAR  G(BCC_A2,GE:VA),,                 +GHSERGE+34100-23.5*T;   3200 N 91Din !
 PAR  G(HCP_A3,GE:VA),,                 +GHSERGE+35000-21.5*T;   3200 N 91Din !
$PAR  G(BCT_A5,GE),,                    +GHSERGE+28800-16.5*T;   3600 N 99SGUN !
$PAR  G(RHOMBOHEDRAL_A7,GE),,           +GHSERGE+29800-16.5*T;   3600 N 99SGUN !
 PAR  G(LIQUID,GE),,                    +GLIQGE;                 3200 N 91Din !
$
 FUNCTION GHSERGE   298.15  -9486.153+165.635573*T-29.5337682*T*LN(T)
       +0.005568297*T**2-1.513694E-06*T**3+163298*T**(-1);
       900.00  Y  -5689.239+102.86087*T-19.8536239*T*LN(T)-0.003672527*T**2;
      1211.40  Y  -9548.204+156.708024*T-27.6144*T*LN(T)-8.59809E+28*T**(-9);
      3200.00  N !
 FUNCTION GLIQGE    298.15  +37141.489-30.687043*T+GHSERGE+8.56632E-21*T**7;
      1211.40  Y  +27243.473+126.324186*T-27.6144*T*LN(T);
      3200.00  N !
$ ------------------------------------------------------------------------------
$ Yb
$
$ HCP_A3 added in unary 5.0
$
$ DIAMOND_A4 from 18Zhu not included in unary
$
 PAR  G(FCC_A1,YB:VA),,                 +GHSERYB;                2000 N 91Din !
 PAR  G(BCC_A2,YB:VA),,                 +GBCCYB;                 2000 N 91Din !
 PAR  G(HCP_A3,YB:VA),,                 +GHSERYB+5000;           2000 N 06Guo !
 PAR  G(DIAMOND_A4,YB),,                +GHSERYB+97547;          2000 N 18Zhu !
 PAR  G(LIQUID,YB),,                    +GLIQYB;                 2000 N 91Din !
$
 FUNCTION GHSERYB   298.15  -9370.941+189.327664*T-40.0791*T*LN(T)
       +0.04227115*T**2-2.2242E-05*T**3;
       553.00  Y  -8192.154+121.065655*T-26.7591*T*LN(T)-0.00256065*T**2;
      1033.00  Y  +16034.89-89.478241*T+2.7623966*T*LN(T)
       -0.017961331*T**2+1.421719E-06*T**3-3631462*T**(-1);
      2000.00  N !
 FUNCTION GBCCYB    298.15  -965.99-21.293677*T-3.8534432*T*LN(T)
       -0.030009694*T**2+4.743871E-06*T**3-334650*T**(-1);
      1033.00  Y  -13368.113+188.313864*T-36.1079*T*LN(T);
      1097.00  Y  -3911.847+113.174165*T-25.7402233*T*LN(T)
       -0.004743348*T**2+3.63044E-07*T**3-1553668*T**(-1);
      2000.00  N !
 FUNCTION GLIQYB    298.15  +7030.788-40.615571*T-1.8061816*T*LN(T)
       -0.03250938*T**2+5.136665E-06*T**3-370554*T**(-1);
      1033.00  Y  -6445.835+186.690398*T-36.7774*T*LN(T);
      2000.00  N !
 FUNCTION GHCPYB    298.15  +GHSERYB+5000;                             2000 N !
$ ------------------------------------------------------------------------------
$ Binary system
$
$ D. Zhu, C. Li, C. Guo, Z. Du, Ferroelectrics, 522, 80-87(2018).
$
$ Checked against paper. Checked at 6000 K.
$
$ The paper also includes a version using the Kaptay equation.
$
$ Invariant equilibria differ by up to 10 K, probably because of insufficient
$ accuracy for fractional compound compositions.
$
$ There is an inverse miscibility gap with a minimum at 5555 K and x(Yb)=0.85.
$
 PAR  L(LIQUID,GE,YB;0),,               -234000.2;,,                  N 18Zhu !
 PAR  L(LIQUID,GE,YB;1),,               -30750.2;,,                   N 18Zhu !
 PAR  L(LIQUID,GE,YB;2),,               +40650.3;,,                   N 18Zhu !
$
 PAR  L(FCC_A1,GE,YB:VA;0),,            +ZERO;,,                      N 18Zhu !
 PAR  L(BCC_A2,GE,YB:VA;0),,            +ZERO;,,                      N 18Zhu !
 PAR  L(DIAMOND_A4,GE,YB;0),,           +ZERO;,,                      N 18Zhu !
$
 PAR  G(GE8YB3,GE:YB),,                 +8*GHSERGE+3*GHSERYB
             -495550-65.78*T;,,                                       N 18Zhu !
 PAR  G(GE5YB3,GE:YB),,                 +5*GHSERGE+3*GHSERYB
             -474400-49.512*T;,,                                      N 18Zhu !
 PAR  G(GE10YB11,GE:YB),,               +10*GHSERGE+11*GHSERYB
             -1634850-43.596*T;,,                                     N 18Zhu !
 PAR  G(GE4YB5,GE:YB),,                 +4*GHSERGE+5*GHSERYB
             -736380+0.549*T;,,                                       N 18Zhu !
 PAR  G(GE3YB5_D88,GE:YB),,             +3*GHSERGE+5*GHSERYB
             -580000-9.6*T;,,                                         N 18Zhu !
 PAR  G(GEYB2_C37,GE:YB),,              +GHSERGE+2*GHSERYB
             -200100-0.294*T;,,                                       N 18Zhu !
$ ------------------------------------------------------------------------------
$
$
 LIST-OF-REFERENCE
 NUMBER  SOURCE
  Null   'Unknown source'
  Same   'Same or similar interaction as in the corresponding stable phase'
  91Din  'A.T. Dinsdale, Calphad, 15, 317-425(1991).'
  99SGUN 'SGTE unary database V.4.1, 1999.'
  06Guo  'C. Guo, Z. Du, J. Alloys Compd., 422, 102-8(2006),
          SGTE unary database V.5.0, 2009; Yb'
  18Zhu  'D. Zhu, C. Li, C. Guo, Z. Du,
          Ferroelectrics, 522, 80-87(2018); Yb, Ge-Yb'
!
