$
$ Database for Fe-Sm from X.L. Chen et al. 2017.
$
$ X.L. Chen, J. Wang, T.L. Chen, X.D. Lin, M.H. Rong, G.H. Rao, H.Y. Zhou,
$ Calphad, 58, 151-59(2017).
$
$ Dataset created 2021.12.19 by Bengt Hallstedt.
$
$ There is an inverse miscibility gap with a minimum at 3450K and x(Sm)=0.30.
$
$ BMAG for the intermetallic compounds are incorrect.
$
$ ------------------------------------------------------------------------------
 TEMP-LIM 298.15 6000.00 !
$
$ELEMENT NAME  REF. STATE               ATOMIC MASS H298-H0    S298    !
$
 ELEMENT VA   VACUUM                      0.0          0.0      0.0    ! 
 ELEMENT FE   BCC_A2                     55.847     4489.0     27.2797 ! 
 ELEMENT SM   RHOMB_C19                 150.36      7573.04    69.4962 ! 
$ ------------------------------------------------------------------------------
$ Phase definitions
$
 PHASE LIQUID:L % 1 1 !
 CONST LIQUID:L : FE SM : !
$
$ Fcc (cF4, Fm-3m) and MeX (cF8, Fm-3m)
$
 PHASE FCC_A1 %A 2 1 1 !
 CONST FCC_A1 : FE% SM : VA : !
$
$ Bcc (cI2, Im-3m)
$
 PHASE BCC_A2 %B 2 1 3 !
 CONST BCC_A2 : FE% SM% : VA : !
$
$ Hcp (hP2, P6_3/mmc) and Me2X (NiAs-type, hP4, P6_3/mmc, B8_1)
$
 PHASE HCP_A3 %A 2 1 0.5 !
 CONST HCP_A3 : FE SM% : VA : !
$
$ Prototype alpha-Sm (hR3, R-3m)
$
 PHASE RHOMB_C19 % 1 1 !
 CONST RHOMB_C19 : SM : !
$
$ Prototype Th2Zn17 (hR19, R-3m)
$
 PHASE FE17SM2 %A 2 17 2 !
 CONST FE17SM2 : FE : SM : !
$
$ Prototype Ni3Pu (hR12, R-3m)
$
 PHASE FE3SM %A 2 3 1 !
 CONST FE3SM : FE : SM : !
$
$ Prototype Cu2Mg (cF24, Fd-3m)
$
 PHASE FE2SM_C15 %A 2 2 1 !
 CONST FE2SM_C15 : FE : SM : !
$ ------------------------------------------------------------------------------
$ Defaults
$
 DEFINE-SYSTEM-DEFAULT ELEMENT 2 !
 DEFAULT-COM DEFINE_SYSTEM_ELEMENT VA !
 TYPE-DEFINITION % SEQ * !
 TYPE_DEF A GES AMEND_PHASE_DESCRIPTION @ MAGNETIC -3 0.28 !
 TYPE_DEF B GES AMEND_PHASE_DESCRIPTION @ MAGNETIC -1 0.4 !
 FUNCTION ZERO      298.15  0;                                         6000 N !
 FUNCTION UN_ASS    298.15  0;                                         6000 N !
 FUNCTION R         298.15  +8.31451;                                  6000 N !
$ ------------------------------------------------------------------------------
$ Element data
$ ------------------------------------------------------------------------------
$ Fe
$
$ ORTHORHOMBIC_A20 and TETRAGONAL_U added im unary 4.1
$
 PAR  G(BCC_A2,FE:VA),,                 +GHSERFE;,,                   N 91Din !
 PAR  TC(BCC_A2,FE:VA),,                 1043.00;,,                   N 91Din !
 PAR  BMAG(BCC_A2,FE:VA),,                  2.22;,,                   N 91Din !
 PAR  G(FCC_A1,FE:VA),,                 +GFCCFE;,,                    N 91Din !
 PAR  TC(FCC_A1,FE:VA),,                 -201.00;,,                   N 91Din !
 PAR  BMAG(FCC_A1,FE:VA),,                 -2.10;,,                   N 91Din !
 PAR  G(HCP_A3,FE:VA),,                 +GHCPFE;,,                    N 91Din !
$PAR  G(CBCC_A12,FE:VA),,               +GHSERFE+4745;,,              N 91Din !
$PAR  G(CUB_A13,FE:VA),,                +GHSERFE+3745;,,              N 91Din !
$PAR  G(ORTHORHOMBIC_A20,FE),,          +GHSERFE+5000;,,              N 99SGUN !
$PAR  G(TETRAGONAL_U,FE),,              +GHSERFE+5000;,,              N 99SGUN !
 PAR  G(LIQUID,FE),,                    +GLIQFE;,,                    N 91Din !
$
 FUNCTION GHSERFE   298.15  +1225.7+124.134*T-23.5143*T*LN(T)
       -0.00439752*T**2-5.8927E-08*T**3+77359*T**(-1);
      1811.00  Y  -25383.581+299.31255*T-46*T*LN(T)+2.29603E+31*T**(-9);
      6000.00  N !
 FUNCTION GFCCFE    298.15  -1462.4+8.282*T-1.15*T*LN(T)
       +6.4E-04*T**2+GHSERFE;
      1811.00  Y  -1713.815+0.940009*T+GHSERFE+4.9251E+30*T**(-9);
      6000.00  N !
 FUNCTION GHCPFE    298.15  -3705.78+12.591*T-1.15*T*LN(T)
       +6.4E-04*T**2+GHSERFE;
      1811.00  Y  -3957.195+5.249009*T+GHSERFE+4.9251E+30*T**(-9);
      6000.00  N !
 FUNCTION GLIQFE    298.15  +12040.17-6.55843*T+GHSERFE-3.67516E-21*T**7;
      1811.00  Y  -10838.83+291.302*T-46*T*LN(T);
      6000.00  N !
$ ------------------------------------------------------------------------------
$ Sm
$
$ HCP_A3 added in unary 4.4
$ HCP_A3 modified in unary 5.0
$
$ FCC_A1 from 98Su1 not included in unary
$
 PAR  G(RHOMB_C19,SM),,                 +GHSERSM;                2100 N 91Din !
 PAR  G(BCC_A2,SM:VA),,                 +GBCCSM;                 2100 N 91Din !
 PAR  G(FCC_A1,SM:VA),,                 +GHSERSM+5000;           2100 N 98Su1 !
 PAR  G(HCP_A3,SM:VA),,                 +GHSERSM
             +69.977-0.069491*T;                                 2100 N 98Su2 !
 PAR  G(LIQUID,SM),,                    +GLIQSM;                 2100 N 91Din !
$
 FUNCTION GHSERSM   298.15  -3872.013-32.10748*T-1.6485*T*LN(T)
       -0.050254*T**2+1.010345E-05*T**3-82168*T**(-1);
       700.00  Y  -50078.215+627.869894*T-102.665*T*LN(T)
       +0.0474522*T**2-7.538383E-06*T**3+3861770*T**(-1);
      1190.00  Y  +289719.819-2744.50976*T+381.41982*T*LN(T)
       -0.254986338*T**2+2.7512152E-05*T**3-40102102*T**(-1);
      1345.00  Y  -23056.079+282.194375*T-50.208*T*LN(T);
      2100.00  N !
 FUNCTION GBCCSM    298.15  -4368.72+55.972523*T-16.9298494*T*LN(T)
       -0.025446016*T**2+3.579527E-06*T**3+94209*T**(-1);
      1190.00  Y  -15957.862+253.121044*T-46.9445*T*LN(T);
      1345.00  Y  +111191.653-624.680805*T+71.6856914*T*LN(T)
       -0.047314968*T**2+3.329865E-06*T**3-24870276*T**(-1);
      2100.00  N !
 FUNCTION GLIQSM    298.15  +3468.783+20.117456*T-11.6968284*T*LN(T)
       -0.032418177*T**2+4.544272E-06*T**3+23528*T**(-1);
      1190.00  Y  -11728.229+273.487076*T-50.208*T*LN(T);
      2100.00  N !
$ ------------------------------------------------------------------------------
$ Binary system
$
$ X.L. Chen, J. Wang, T.L. Chen, X.D. Lin, M.H. Rong, G.H. Rao, H.Y. Zhou,
$ Calphad, 58, 151-59(2017).
$
$ Checked against paper. Checked at 6000 K.
$
$ There is an inverse miscibility gap with a minimum at 3450K and x(Sm)=0.30.
$
$ BMAG for the intermetallic compounds are incorrect.
$
 PAR  L(LIQUID,FE,SM;0),,               -16522.953+16.8415*T;,,       N 17Che !
 PAR  L(LIQUID,FE,SM;1),,               -4350.289+7.7475*T;,,         N 17Che !
$
 PAR  L(FCC_A1,FE,SM:VA;0),,            +100000;,,                    N 17Che !
 PAR  L(BCC_A2,FE,SM:VA;0),,            +100000;,,                    N 17Che !
 PAR  L(HCP_A3,FE,SM:VA;0),,            +100000;,,                    N 17Che !
$
 PAR  G(FE17SM2,FE:SM),,                -210000+2585.0031*T
             -452.5*T*LN(T)-0.19*T**2+5.5E-6*T**3+1050000*T**(-1);,,  N 17Che !
 PAR  TC(FE17SM2,FE:SM),,                 394.00;,,                   N 17Che !
 PAR  BMAG(FE17SM2,FE:SM),,                34.20;,,                   N 17Che !
$
 PAR  G(FE3SM,FE:SM),,                  +3*GHSERFE+GHSERSM
             -38800+21.3482*T;,,                                      N 17Che !
 PAR  TC(FE3SM,FE:SM),,                   653.00;,,                   N 17Che !
 PAR  BMAG(FE3SM,FE:SM),,                   4.60;,,                   N 17Che !
$
 PAR  G(FE2SM_C15,FE:SM),,              +2*GHSERFE+GHSERSM
             -25500+12.8266*T;,,                                      N 17Che !
 PAR  TC(FE2SM_C15,FE:SM),,               682.00;,,                   N 17Che !
 PAR  BMAG(FE2SM_C15,FE:SM),,               2.68;,,                   N 17Che !
$ ------------------------------------------------------------------------------
$
$
 LIST-OF-REFERENCE
 NUMBER  SOURCE
  Null   'Unknown source'
  Same   'Same or similar interaction as in the corresponding stable phase'
  COST   'COST 507 database'
  91Din  'A.T. Dinsdale, Calphad, 15, 317-425(1991).'
  97SUB  'SGTE substance database, version 1997'
  98Su1  'X. Su, W. Zhang, G. Liu, Z. Du,
          J. Alloys Compd., 267, 149-53(1998); Sm'
  98Su2  'X. Su, W. Zhang, Z. Du, J. Alloys Compd., 278, 182-84(1998)
          SGTE unary database V.4.4, 2001; Sm'
  17Che  'X.L. Chen, J. Wang, T.L. Chen, X.D. Lin, M.H. Rong, G.H. Rao,
          H.Y. Zhou, Calphad, 58, 151-59(2017); Fe-Sm'
!
