$
$ Database for Fe-Mo from K. Takahashi et al. 2020.
$
$ K. Takahashi, K. Ishikawa, M. Fujioka, M. Enoki, H. Ohtani,
$ Tetsu-to-Hagane, 106, 310-20(2020).
$
$ Dataset created 2024.04.16 by Bengt Hallstedt.
$
$ Modified from 88And. Changed models for Fe2Mo (C14) and mu.
$
$ ------------------------------------------------------------------------------
 TEMP-LIM 298.15 6000.00 !
$
$ELEMENT NAME  REF. STATE               ATOMIC MASS H298-H0    S298    !
$
 ELEMENT VA   VACUUM                      0.0          0.0      0.0    ! 
 ELEMENT FE   BCC_A2                     55.847     4489.0     27.2797 ! 
 ELEMENT MO   BCC_A2                     95.94      4589.0     28.56   ! 
$ ------------------------------------------------------------------------------
$ Phase definitions
$
 PHASE LIQUID:L % 1 1 !
 CONST LIQUID:L : FE MO : !
$
$ Fcc (cF4, Fm-3m) and MeX (cF8, Fm-3m)
$
 PHASE FCC_A1 %A 2 1 1 !
 CONST FCC_A1 : FE MO : VA : !
$
$ Bcc (cI2, Im-3m)
$
 PHASE BCC_A2 %B 2 1 3 !
 CONST BCC_A2 : FE MO : VA : !
$
$ Hcp (hP2, P6_3/mmc) and Me2X (NiAs-type, hP4, P6_3/mmc, B8_1)
$
 PHASE HCP_A3 % 2 1 0.5 !
 CONST HCP_A3 : FE MO : VA : !
$
$ Prototype MgZn2 (hP12, P6_3/mmc)
$
 PHASE FE2MO_C14 % 3 2 4 6 !
 CONST FE2MO_C14 : FE% VA : FE MO% : FE : !
$
$ Prototype Fe7W6 (hR13, R-3m)
$
 PHASE MU_D85 % 4 1 4 2 6 !
 CONST MU_D85 : FE% MO : MO : FE MO% : FE : !
$
$ Prototype R-(Co,Cr,Mo) (hR53, R-3) also appears as Fe3Mo2
$
 PHASE R_PHASE % 3 27 14 12 !
 CONST R_PHASE : FE : MO : FE MO : !
$
$ Sigma in TCFE 2000 and SSOL V4
$
 PHASE SIGMA_OLD % 3 8 4 18 !
 CONST SIGMA_OLD : FE : MO : FE MO : !
$ ------------------------------------------------------------------------------
$ Defaults
$
 DEFINE-SYSTEM-DEFAULT ELEMENT 2 !
 DEFAULT-COM DEFINE_SYSTEM_ELEMENT VA !
 TYPE-DEF % SEQ * !
 TYPE-DEF A GES AMEND_PHASE_DESCRIPTION @ MAGNETIC -3 0.28 !
 TYPE-DEF B GES AMEND_PHASE_DESCRIPTION @ MAGNETIC -1 0.4 !
 FUNCTION ZERO      298.15  0;                                         6000 N !
 FUNCTION UN_ASS    298.15  0;                                         6000 N !
$ ------------------------------------------------------------------------------
$ Element data
$ ------------------------------------------------------------------------------
$ Fe
$
$ ORTHORHOMBIC_A20 and TETRAGONAL_U added im unary 4.1
$
 PAR  G(BCC_A2,FE:VA),,                 +GHSERFE;,,                   N 91Din !
 PAR  TC(BCC_A2,FE:VA),,                 1043.00;,,                   N 91Din !
 PAR  BM(BCC_A2,FE:VA),,                    2.22;,,                   N 91Din !
 PAR  G(FCC_A1,FE:VA),,                 +GFCCFE;,,                    N 91Din !
 PAR  TC(FCC_A1,FE:VA),,                 -201.00;,,                   N 91Din !
 PAR  BM(FCC_A1,FE:VA),,                   -2.10;,,                   N 91Din !
 PAR  G(HCP_A3,FE:VA),,                 +GHCPFE;,,                    N 91Din !
$PAR  G(CBCC_A12,FE:VA),,               +GHSERFE+4745;,,              N 91Din !
$PAR  G(CUB_A13,FE:VA),,                +GHSERFE+3745;,,              N 91Din !
$PAR  G(ORTHORHOMBIC_A20,FE),,          +GHSERFE+5000;,,              N 99SGUN !
$PAR  G(TETRAGONAL_U,FE),,              +GHSERFE+5000;,,              N 99SGUN !
 PAR  G(LIQUID,FE),,                    +GLIQFE;,,                    N 91Din !
$
 PAR  G(FE2MO_C14,FE:FE:FE),,           +8*GFCCFE+4*GHSERFE+69869;,,  N 20Tak !
 PAR  G(FE2MO_C14,VA:FE:FE),,           +6*GFCCFE+4*GHSERFE+60724;,,  N 20Tak !
$
 FUNCTION GHSERFE   298.15  +1225.7+124.134*T-23.5143*T*LN(T)
       -0.00439752*T**2-5.8927E-08*T**3+77359*T**(-1);
      1811.00  Y  -25383.581+299.31255*T-46*T*LN(T)+2.29603E+31*T**(-9);
      6000.00  N !
 FUNCTION GFCCFE    298.15  -1462.4+8.282*T-1.15*T*LN(T)
       +6.4E-04*T**2+GHSERFE;
      1811.00  Y  -1713.815+0.940009*T+GHSERFE+4.9251E+30*T**(-9);
      6000.00  N !
 FUNCTION GHCPFE    298.15  -3705.78+12.591*T-1.15*T*LN(T)
       +6.4E-04*T**2+GHSERFE;
      1811.00  Y  -3957.195+5.249009*T+GHSERFE+4.9251E+30*T**(-9);
      6000.00  N !
 FUNCTION GLIQFE    298.15  +12040.17-6.55843*T+GHSERFE-3.67516E-21*T**7;
      1811.00  Y  -10838.83+291.302*T-46*T*LN(T);
      6000.00  N !
$ ------------------------------------------------------------------------------
$ Mo
$
 PAR  G(BCC_A2,MO:VA),,                 +GHSERMO;                5000 N 91Din !
 PAR  G(FCC_A1,MO:VA),,                 +GHSERMO+15200+0.63*T;   5000 N 91Din !
 PAR  G(HCP_A3,MO:VA),,                 +GHSERMO+11550;          5000 N 91Din !
 PAR  G(LIQUID,MO),,                    +GLIQMO;                 5000 N 91Din !
$
 FUNCTION GHSERMO   298.15  -7746.302+131.9197*T-23.56414*T*LN(T)
       -0.003443396*T**2+5.66283E-07*T**3+65812*T**(-1)-1.30927E-10*T**4;
      2896.00  Y  -30556.41+283.559746*T-42.63829*T*LN(T)-4.849315E+33*T**(-9);
      5000.00  N !
 FUNCTION GLIQMO    298.15  +41831.347-14.694912*T+GHSERMO+4.24519E-22*T**7;
      2896.00  Y  +3538.963+271.6697*T-42.63829*T*LN(T);
      5000.00  N !
 FUNCTION GFCCMO    298.15  +GHSERMO+15200+0.63*T;                     6000 N !
$ ------------------------------------------------------------------------------
$ Binary system
$
$ K. Takahashi, K. Ishikawa, M. Fujioka, M. Enoki, H. Ohtani,
$ Tetsu-to-Hagane, 106, 310-20(2020).
$
$ Checked against paper. Checked at 6000 K.
$
$ Modified from 88And. Changed models for Fe2Mo (C14) and mu.
$
 PAR  L(LIQUID,FE,MO;0),,               -6973-0.37*T;,,               N 88And2 !
 PAR  L(LIQUID,FE,MO;1),,               -9424+4.502*T;,,              N 88And2 !
$
 PAR  L(FCC_A1,FE,MO:VA;0),,            +28347-17.691*T;,,            N 88And2 !
$
 PAR  L(BCC_A2,FE,MO:VA;0),,            +36818-9.141*T;,,             N 88And2 !
 PAR  L(BCC_A2,FE,MO:VA;1),,            -362-5.724*T;,,               N 88And2 !
 PAR  TC(BCC_A2,FE,MO:VA;0),,            +335;,,                      N 82Fer !
 PAR  TC(BCC_A2,FE,MO:VA;1),,            +526;,,                      N 82Fer !
$
 PAR  G(FE2MO_C14,FE:MO:FE),,           +8*GFCCFE+4*GHSERMO
             -80000+28*T;,,                                           N 20Tak !
 PAR  G(FE2MO_C14,VA:MO:FE),,           +6*GFCCFE+4*GHSERMO+30000;,,  N 20Tak !
 PAR  L(FE2MO_C14,FE:FE,MO:FE;0),,      +45000+5*T;,,                 N 20Tak !
$
 PAR  G(MU_D85,FE:MO:FE:FE),,           +7*GFCCFE+4*GHSERMO
             +2*GHSERFE;,,                                            N 20Tak !
 PAR  G(MU_D85,FE:MO:MO:FE),,           +7*GFCCFE+6*GHSERMO
             -88000+15*T;,,                                           N 20Tak !
 PAR  G(MU_D85,MO:MO:FE:FE),,           +GFCCMO+4*GHSERMO+2*GHSERFE
             +6*GFCCFE;,,                                             N 20Tak !
 PAR  G(MU_D85,MO:MO:MO:FE),,           +GFCCMO+6*GHSERMO+6*GFCCFE
             +30000;,,                                                N 20Tak !
$
 PAR  G(R_PHASE,FE:MO:FE),,             +27*GFCCFE+14*GHSERMO
             +12*GHSERFE-77487-50.486*T;,,                            N 88And2 !
 PAR  G(R_PHASE,FE:MO:MO),,             +27*GFCCFE+26*GHSERMO
             +313474-289.472*T;,,                                     N 88And2 !
$
 PAR  G(SIGMA_OLD,FE:MO:FE),,           +8*GFCCFE+18*GHSERFE
             +4*GHSERMO-1813-27.272*T;,,                              N 88And2 !
 PAR  G(SIGMA_OLD,FE:MO:MO),,           +8*GFCCFE+22*GHSERMO
             +83326-69.618*T;,,                                       N 88And2 !
 PAR  L(SIGMA_OLD,FE:MO:FE,MO;0),,      +222909;,,                    N 88And2 !
$
$ metastable
$
 PAR  L(HCP_A3,FE,MO:VA;0),,            +28347-17.691*T;,,            N 88And2 !
$ ------------------------------------------------------------------------------
$
 ASSESSED_SYSTEM
  FE-MO(TDB -* +LIQUID +BCC_A2 +FCC_A1 +FE2MO_C14 +MU_D85 +R_PHASE
  +SIGMA_OLD ;P3 TMM:300/3000 STP:.1/2000/-2 STP:.01/1500/1) !
$
$
 LIST-OF-REFERENCE
 NUMBER  SOURCE
  Null   'Unknown source'
  Lin    'Linear combination of lattice stabilities'
  REFLAV 'Laves phase convention: G(LAVES,X:X)=+3*GHSERXX+15000'
  82Fer  'A. Fernandez Guillermet, Calphad, 6, 127-40 (1982); Fe-Mo'
  88And2 'J.-O. Andersson, Calphad, 12, 9-23(1988); Fe-Mo, Fe-Mo-C'
  91Din  'A.T. Dinsdale, Calphad, 15, 317-425(1991).'
  99SGUN 'SGTE unary database V.4.1, 1999.'
  20Tak  'K. Takahashi, K. Ishikawa, M. Fujioka, M. Enoki, H. Ohtani,
          Tetsu-to-Hagane, 106, 310-20(2020); Fe-Mo'
!
