$
$ Database for Ca-F from L.-I. Staffansson and D. Sichen 1992.
$
$ L.-I. Staffansson, D. Sichen, Scand. J. Metall., 21, 165-71(1992).
$
$ Dataset created 2018.05.03 by Bengt Hallstedt.
$ 2020.12.25: Modified for use with GES6.
$
$ In the paper data for pure Ca were taken from the SGTE substance database,
$ not from the unary database. Here data for Ca are taken from the unary
$ database. No data for F are included in the paper. There are no data for F
$ in the unary database. Data for F are taken from SGSUB.
$
$ ------------------------------------------------------------------------------
 TEMP-LIM 298.15 6000.00 !
$
$ELEMENT NAME  REF. STATE               ATOMIC MASS H298-H0    S298    !
$
 ELEMENT /-   ELECTRON_GAS                0.0          0.0      0.0    ! 
 ELEMENT VA   VACUUM                      0.0          0.0      0.0    ! 
 ELEMENT CA   FCC_A1                     40.08      5736.0     41.588  ! 
 ELEMENT F    1/2_MOLE_F2(G)             18.998     4412.5    101.34   ! 
$ ------------------------------------------------------------------------------
$ Species
$
 SPECIE  CA+2                               CA1/+2 !
 SPECIE  CA2                                CA2 !
 SPECIE  CAF                                CA1F1 !
 SPECIE  CAF2                               CA1F2 !
 SPECIE  F-1                                F1/-1 !
 SPECIE  F2                                 F2 !
$ ------------------------------------------------------------------------------
$ Phase definitions
$
 PHASE ION:Y % 2 1 1 !
 CONST ION:Y : CA+2 : F-1 VA : !
$
 PHASE LIQUID:L % 1 1 !
 CONST LIQUID:L : CA : !
$
$ Fcc (cF4, Fm-3m) and MeX (cF8, Fm-3m)
$
 PHASE FCC_A1 %A 2 1 1 !
 CONST FCC_A1 : CA : VA : !
$
$ Bcc (cI2, Im-3m)
$
 PHASE BCC_A2 %B 2 1 3 !
 CONST BCC_A2 : CA : VA : !
$
$ Hcp (hP2, P6_3/mmc) and Me2X (NiAs-type, hP4, P6_3/mmc, B8_1)
$
 PHASE HCP_A3 %A 2 1 0.5 !
 CONST HCP_A3 : CA : VA : !
$
$ Prototype CaF2 (cF12, Fm-3m)
$
 PHASE CAF2_C1:I % 2 1 2 !
 CONST CAF2_C1:I : CA+2 : F-1 : !
$
 PHASE GAS:G % 1 1 !
 CONST GAS:G : CA CA2 CAF CAF2 F F2 : !
$ ------------------------------------------------------------------------------
$ Defaults
$
 DEFINE-SYSTEM-DEFAULT ELEMENT 2 !
 DEFAULT-COM DEFINE_SYSTEM_ELEMENT VA /- !
 TYPE-DEF % SEQ * !
 TYPE-DEF A GES AMEND_PHASE_DESCRIPTION @ MAGNETIC -3 0.28 !
 TYPE-DEF B GES AMEND_PHASE_DESCRIPTION @ MAGNETIC -1 0.4 !
 DEFAULT-COM REJECT_PHASE LIQUID !
 FUNCTION ZERO      298.15  0;                                         6000 N !
 FUNCTION UN_ASS    298.15  0;                                         6000 N !
 FUNCTION R         298.15  +8.31451;                                  6000 N !
 FUNCTION RTLNP     298.15  +8.31451*T*LN(1E-05*P);                    6000 N !
$ ------------------------------------------------------------------------------
$ Element data
$ ------------------------------------------------------------------------------
$ Ca
$
$ FCC_A1, BCC_A2, HCP_A3 and LIQUID modified in unary 5.0
$ (upper T interval added + trailing decimals added)
$
 PAR  G(FCC_A1,CA:VA),,                 +GHSERCA;                3001 N 91Din !
 PAR  G(BCC_A2,CA:VA),,                 +GBCCCA;                 3001 N 91Din !
 PAR  G(HCP_A3,CA:VA),,                 +GHSERCA+500+0.7*T;      3001 N 91Din !
 PAR  G(LIQUID,CA),,                    +GLIQCA;                 3001 N 91Din !
$ 
 PAR  G(ION,CA+2:VA),,                  +GLIQCA;                 3000 N 91Din !
$
 PAR  G(GAS,CA;0),,                     +F2131T+RTLNP;,,              N 92SUB !
 PAR  G(GAS,CA2;0),,                    +F2293T+RTLNP;,,              N 92SUB !
$
 FUNCTION GHSERCA   298.15  -4955.062+72.794266*T-16.3138*T*LN(T)
       -0.01110455*T**2-133574*T**(-1);
      1115.00  Y  -107304.428+799.982066*T-114.2922467*T*LN(T)
       +0.023733814*T**2-1.2438E-06*T**3+18245540*T**(-1);
      3000.00  Y  -3703.12+192.63995*T-35.0*T*LN(T);
      3001.00  N !
 FUNCTION GBCCCA    298.15  -7020.852+142.970155*T-28.2541*T*LN(T)
       +0.0072326*T**2-4.500217E-06*T**3+60578*T**(-1);
       716.00  Y  +1640.475+1.999694*T-6.276*T*LN(T)
       -0.0161921*T**2-523000*T**(-1);
      1115.00  Y  -142331.096+1023.549046*T-143.8726979*T*LN(T)
       +0.032543127*T**2-1.704079E-06*T**3+25353771*T**(-1);
      3000.00  Y  +321.63+189.433057*T-35*T*LN(T);
      3001.00  N !
 FUNCTION GLIQCA    298.15  +10799.908-10.310466*T+GHSERCA;
       500.00  Y  +7838.856+18.2979*T-8.9874787*T*LN(T)
       -0.02266537*T**2+3.338303E-06*T**3-230193*T**(-1);
      1115.00  Y  -2654.938+188.9223*T-35*T*LN(T);
      3001.00  N !
$ Ca(g) :
 FUNCTION F2131T    298.15  +173087.021-15.5575325*T-20.786112*T*LN(T);
      1300.00  Y  +172997.956+5588.5688*T**(-1)-13.9593335*T
       -21.0345161*T*LN(T)+2.38213948E-04*T**2-3.64413151E-08*T**3;
      2000.00  Y  +134081.53+9296659.72*T**(-1)+218.694199*T
       -51.8849472*T*LN(T)+0.0111923674*T**2-7.70260453E-07*T**3;
      3600.00  Y  +672690.384-2.35270504E+08*T**(-1)-1610.06137*T
       +171.348607*T*LN(T)-0.0300833784*T**2+6.66115115E-07*T**3;
      4800.00  Y  +672623.642-2.1604084E+08*T**(-1)-1685.46289*T
       +181.445018*T*LN(T)-0.032908206*T**2+7.77184973E-07*T**3;
      6000.00  N !
$ Ca2(g) :
 FUNCTION F2293T    298.15  +331036.623+118736.69*T**(-1)+92.462223*T
       -54.080292*T*LN(T)+0.0271296836*T**2-5.73392096E-06*T**3;
       600.00  Y  +340712.213-633424.128*T**(-1)-59.9992293*T
       -30.2654661*T*LN(T)+5.18998004E-04*T**2-4.10068261E-08*T**3;
      2200.00  Y  +343774.134-1755137.79*T**(-1)-73.0668827*T
       -28.6059243*T*LN(T)+6.54369232E-05*T**2-1.34699696E-08*T**3;
      6000.00  N !
$ ------------------------------------------------------------------------------
$ F
$
 PAR  G(GAS,F;0),,                      +F8515T+RTLNP;,,              N 97SUB !
 PAR  G(GAS,F2;0),,                     +F8895T+RTLNP;,,              N 97SUB !
$
$ F(g)
 FUNCTION F8515T    298.15  +72560.703-1.9271435*T-23.59104*T*LN(T)
       +0.0019384005*T**2-2.53047833E-07*T**3-8269.77*T**(-1);
      1200.00  Y  +74350.3316-20.9416538*T-20.82144*T*LN(T)
       +4.4288955E-06*T**2-9.51040667E-11*T**3-234363.6*T**(-1);
     10000.00  N !
$ F2(g)
 FUNCTION F8895T    298.15  -9757.53555-3.03641433*T-29.08493*T*LN(T)
       -0.007466065*T**2+1.16183617E-06*T**3+72117.3*T**(-1);
       800.00  Y  -10225.5136+17.0719037*T-32.43806*T*LN(T)
       -0.0028914815*T**2+2.13090167E-07*T**3-31206.07*T**(-1);
      2500.00  Y  -75010.7094+286.369351*T-66.19232*T*LN(T)
       +0.004699418*T**2-9.36513E-08*T**3+22790040*T**(-1);
      6800.00  Y  +79866.2358-46.2596194*T-28.00029*T*LN(T)
       +4.8653845E-04*T**2-6.238305E-09*T**3-96222900*T**(-1);
     10000.00  N !
$ ------------------------------------------------------------------------------
$ Binary system
$
$ L.-I. Staffansson, D. Sichen, Scand. J. Metall., 21, 165-71(1992).
$
$ Checked against paper.
$
$ In the paper data for pure Ca were taken from the SGTE substance database,
$ not from the unary database. Here data for Ca are taken from the unary
$ database. No data for F are included in the paper. There are no data for F
$ in the unary database. Data for F are taken from SGSUB.
$
 PAR  G(ION,CA+2:F-1),,                 +F5404T
             +30000-17.74098167*T;,,                                  N 97SUB !
 PAR  L(ION,CA+2:F-1,VA;0),,            +231113-124.46*T;,,           N 92Sta !
 PAR  L(ION,CA+2:F-1,VA;1),,            +42707-11.166*T;,,            N 92Sta !
$
 PAR  G(CAF2_C1,CA+2:F-1),,             +F5404T;,,                    N 97SUB !
$
 PAR  G(GAS,CAF),,                      +F5391T+RTLNP;,,              N 97SUB !
 PAR  G(GAS,CAF2),,                     +F5413T+RTLNP;,,              N 97SUB !
$
$ CaF2(s)
 FUNCTION F5404T    298.15  -1269224.79+737.41963*T-122.462*T*LN(T)
       +0.05512995*T**2-1.36158483E-05*T**3+1325530*T**(-1);
       600.00  Y  -1320016.83+1372.31826*T-216.931*T*LN(T)
       +0.1282474*T**2-2.31041667E-05*T**3+6225720*T**(-1);
       800.00  Y  -1267994.07+821.187713*T-137*T*LN(T)
       +0.075*T**2-1.66666667E-05*T**3;
      1000.00  Y  -3077703.13+18349.7607*T-2645.514*T*LN(T)
       +1.617546*T**2-1.942065E-04*T**3+2.443307E+08*T**(-1);
      1200.00  Y  -23069513.4+186512.041*T-26159.97*T*LN(T)
       +13.897435*T**2-.00139546767*T**3+3.4278975E+09*T**(-1);
      1424.00  Y  +1144540.72-11379.7414*T+1427.82*T*LN(T)
       -0.3276288*T**2-1.14283333E-08*T**3-6.414505E+08*T**(-1);
      1691.00  Y  -1259017.15+612.232215*T-99*T*LN(T);
      4500.00  N !
$ CaF(g)
 FUNCTION F5391T    298.15  -288077.82+13.4294031*T-35.89298*T*LN(T)
       -0.0012424115*T**2+1.1934365E-07*T**3+129577.7*T**(-1);
      1400.00  Y  -292863.99+50.1110747*T-40.9632*T*LN(T)
       +0.0012454535*T**2-1.18387033E-07*T**3+1011166*T**(-1);
      4800.00  Y  -93203.5563-514.68594*T+26.29242*T*LN(T)
       -0.00888899*T**2+1.69278667E-07*T**3-1.110784E+08*T**(-1);
      6000.00  N !
$ CaF2(g)
 FUNCTION F5413T    298.15  -802567.553+97.226538*T-54.77525*T*LN(T)
       -0.002974364*T**2+4.78194167E-07*T**3+223203.85*T**(-1);
      1000.00  Y  -804295.558+119.845951*T-58.1848*T*LN(T)
       -2.3857795E-06*T**2+6.13997167E-11*T**3+390287.7*T**(-1);
      6000.00  N !
$ ------------------------------------------------------------------------------
$
$
 LIST-OF-REFERENCE
 NUMBER  SOURCE
  Null   'Unknown source'
  Same   'Same or similar interaction as in the corresponding stable phase'
  REFLAV 'Laves phase convention: G(LAVES,X:X)=+3*GHSERXX+15000'
  91Din  'A.T. Dinsdale, Calphad, 15, 317-425(1991).'
  92Sta  'L.-I. Staffansson, D. Sichen,
          Scand. J. Metall., 21, 165-71(1992); Ca-F'
  92SUB  'SGTE substance database, version 1992'
  97SUB  'SGTE substance database, version 1997'
  00SUB  'SGTE substance database, version 2000'
!
