$
$ Database for In-Ir from C. Servant and M. Idbenali 2011.
$
$ C. Servant, M. Idbenali, Thermochim. Acta, 517, 1-8(2011).
$
$ Dataset created 2018.09.30 by Bengt Hallstedt.
$ 2021.01.17: Modified for use with GES6.
$
$ This is their third optimization. This version reproduces the phase diagram
$ acceptably, but not enthalpies of mixing in the liquid. Their second
$ optimization reproduces enthalpies of mixing, but does not produce an
$ acceptable phase diagram.
$
$ ------------------------------------------------------------------------------
 TEMP-LIM 298.15 6000.00 !
$
$ELEMENT NAME  REF. STATE               ATOMIC MASS H298-H0    S298    !
$
 ELEMENT VA   VACUUM                      0.0          0.0      0.0    ! 
 ELEMENT IN   TETRAGONAL_A6             114.82      6610.0     57.65   ! 
 ELEMENT IR   FCC_A1                    192.22      5267.656   35.5054 ! 
$ ------------------------------------------------------------------------------
$ Phase definitions
$
 PHASE LIQUID:L % 1 1 !
 CONST LIQUID:L : IN IR : !
$
$ Fcc (cF4) and MeX (cF8)
$
 PHASE FCC_A1 %A 2 1 1 !
 CONST FCC_A1 : IN IR% : VA : !
$
$ Bcc (cI2, Im-3m)
$
 PHASE BCC_A2 %B 2 1 3 !
 CONST BCC_A2 : IN IR : VA : !
$
$ Hcp (hP2, P6_3/mmc) and Me2X (NiAs-type, hP4, P6_3/mmc, B8_1)
$
 PHASE HCP_A3 %A 2 1 0.5 !
 CONST HCP_A3 : IN IR : VA : !
$
$ Prototype In (tI2, I4/mmm)
$
 PHASE TETRAGONAL_A6 % 1 1 !
 CONST TETRAGONAL_A6 : IN : !
$
$ Prototype Fe3C (oP16, Pnma)
$
 PHASE IN3IR_D011 % 2 3 1 !
 CONST IN3IR_D011 : IN : IN IR% : !
$
$ Prototype In3Ir (tP16, P4_2/mnm)
$
 PHASE IN3IR_HT % 2 3 1 !
 CONST IN3IR_HT : IN : IN IR% : !
$
$ Prototype CuMg2 (cF48, Fddd)
$
 PHASE IN2IR_CB % 2 2 1 !
 CONST IN2IR_CB : IN% IR : IN IR% : !
$ ------------------------------------------------------------------------------
$ Defaults
$
 DEFINE-SYSTEM-DEFAULT ELEMENT 2 !
 DEFAULT-COM DEFINE_SYSTEM_ELEMENT VA !
 TYPE-DEF % SEQ * !
 TYPE-DEF A GES AMEND_PHASE_DESCRIPTION @ MAGNETIC -3 0.28 !
 TYPE-DEF B GES AMEND_PHASE_DESCRIPTION @ MAGNETIC -1 0.4 !
 FUNCTION ZERO      298.15  0;                                         6000 N !
 FUNCTION UN_ASS    298.15  0;                                         6000 N !
 FUNCTION R         298.15  +8.31451;                                  6000 N !
$ ------------------------------------------------------------------------------
$ Element data
$ ------------------------------------------------------------------------------
$ In
$
$ FCC_A1 and TET_ALPHA1 revised in unary 4.1
$ BCT_A5 and RHOMBOHEDRAL_A7 added in unary 4.1
$ TET_ALPHA1 revised in unary 5.0 (using the value from 99Ans)
$ DHCP added in unary 5.0
$
$ There is quite a bit of confusion about TET_ALPHA1_A6. The structure is
$ the same as In (TETRAGONAL_A6), but with a different (presumably) c/a ratio.
$ TET_ALPHA1_A6 is present in Bi-In, In-Pb and In-Sn (possibly more). Between
$ the TETRAGONAL_A6 (In-ss) and TET_ALPHA1_A6 there is a narrow two-phase
$ region. In each system a different G(TET_ALPHA1_A6,IN) lattice stability
$ was used.
$ In 91Din a value from an unpublished revision of the Bi-In system by
$ P.-Y. Chevalier 1990 is included. In SGTE Unary V 4.4 a value from 98Boa
$ for the In-Pb system is included. 98Boa treated the TET_ALPHA1_A6
$ phase in Bi-In and In-Pb as two different phases and used the lattice
$ stability from 88Che0 for the Bi-In branch of this phase. Finally, SGTE
$ unary V 5.0 uses a value from an unpublished evaluation by 99Ans of the
$ In-Sn system. Due to the close proximity of the TETRAGONAL_A6 and
$ TET_ALPHA1_A6 phases in these systems, any change of lattice stability
$ will cause a distortion of the phase diagram and require reoptimisation.
$
$ The DHCP phase is labelled D0_24 in 03Liu and alpha-prime in 92Ans. The
$ phase is present between the fcc and hcp phases in the Au-Sn and Au-In
$ systems.
$
 PAR  G(TETRAGONAL_A6,IN),,             +GHSERIN;                3800 N 91Din !
 PAR  G(FCC_A1,IN:VA),,                 +GHSERIN+162.061;        3800 N 98Boa !
$PAR  G(FCC_A1,IN:VA),,                 +GHSERIN+123-0.1988*T;   3800 N 91Din !
 PAR  G(BCC_A2,IN:VA),,                 +GHSERIN+800-0.8*T;      3800 N 91Din !
 PAR  G(HCP_A3,IN:VA),,                 +GHSERIN+533-0.6868*T;   3800 N 91Din !
$PAR  G(DHCP,IN),,                      +GHSERIN+520-0.384*T;    3800 N 92Ans !
$PAR  G(TET_ALPHA1_A6,IN),,             +GHSERIN+123-0.1988*T;   3800 N 99Ans1 !
$PAR  G(TET_ALPHA1_A6,IN),,             +GHSERIN+0.31*T;         3800 N 98Boa !
$PAR  G(TET_ALPHA1_A6,IN),,             +GHSERIN+193-0.16479*T;  3800 N 91Din !
$PAR  G(TET_ALPHA1_A6,IN),,             +GHSERIN-33+0.16*T;      3800 N 88Che0 !
$PAR  G(BCT_A5,IN),,                    +GHSERIN
$            +5040.87-3.33969*T;                                 3800 N 99Ans1 !
$PAR  G(BCT_A5,IN),,                    +GHSERIN+2092;           3800 N 03Liu1 !
$PAR  G(RHOMBOHEDRAL_A7,IN),,           +GHSERIN+4184;           3800 N 88Che0 !
 PAR  G(LIQUID,IN),,                    +GLIQIN;                 3800 N 91Din !
$
 PAR  G(IN3IR_D011,IN:IN),,             +4*GHSERIN+20000;,,           N 11Ser !
 PAR  G(IN3IR_HT,IN:IN),,               +4*GHSERIN+20000;,,           N 11Ser !
 PAR  G(IN2IR_CB,IN:IN),,               +3*GHSERIN+15000;,,           N 11Ser !
$
 FUNCTION GHSERIN   298.15  -6978.89+92.338115*T-21.8386*T*LN(T)
       -0.00572566*T**2-2.120321E-06*T**3-22906*T**(-1);
       429.75  Y  -7033.516+124.476588*T-27.4562*T*LN(T)
       +5.4607E-04*T**2-8.367E-08*T**3-211708*T**(-1)+3.53116E+22*T**(-9);
      3800.00  N !
 FUNCTION GLIQIN    298.15  +3282.092-7.63686*T+GHSERIN-5.59058E-20*T**7;
       429.75  Y  +3283.706-7.640804*T+GHSERIN-3.53116E+22*T**(-9);
      3800.00  N !
$ ------------------------------------------------------------------------------
$ Ir
$
 PAR  G(FCC_A1,IR:VA),,                 +GHSERIR;                4000 N 91Din !
 PAR  G(BCC_A2,IR:VA),,                 +GHSERIR+32000-6.9*T;    4000 N 91Din !
 PAR  G(HCP_A3,IR:VA),,                 +GHSERIR+4000-0.6*T;     4000 N 91Din !
 PAR  G(LIQUID,IR),,                    +GLIQIR;                 4000 N 91Din !
$
 PAR  G(IN2IR_CB,IR:IR),,               +3*GHSERIR+15000;,,           N 11Ser !
$
 FUNCTION GHSERIR   298.15  -6936.288+118.780119*T-22.7944*T*LN(T)
       -0.003091976*T**2-20083*T**(-1);
      1215.00  Y  -8123.73+140.066697*T-26.085*T*LN(T)-4.7969E-07*T**3;
      2719.00  Y  +290529.037-1258.35297*T+152.498874*T*LN(T)
       -0.047176402*T**2+1.844977E-06*T**3-92987250*T**(-1);
      4000.00  N !
 FUNCTION GLIQIR    298.15  +23455.244-6.312059*T+GHSERIR;
      1000.00  Y  +102217.789-587.632815*T+73.9517579*T*LN(T)
       -0.04638802*T**2+2.761831E-06*T**3-13382612*T**(-1);
      2719.00  Y  -38347.217+411.234043*T-59.418*T*LN(T);
      4000.00  N !
 FUNCTION GBCCIR    298.15  +GHSERIR+32000-6.9*T;                      4000 N !
$ ------------------------------------------------------------------------------
$ Binary system
$
$ C. Servant, M. Idbenali, Thermochim. Acta, 517, 1-8(2011).
$
$ Checked against paper. Checked at 6000 K.
$
$ This is their third optimization. This version reproduces the phase diagram
$ acceptably, but not enthalpies of mixing in the liquid. Their second
$ optimization reproduces enthalpies of mixing, but does not produce an
$ acceptable phase diagram.
$
 PAR  L(LIQUID,IN,IR;0),,               -6500;,,                      N 11Ser !
 PAR  L(LIQUID,IN,IR;1),,               -15000;,,                     N 11Ser !
 PAR  L(LIQUID,IN,IR;2),,               -7000;,,                      N 11Ser !
 PAR  L(LIQUID,IN,IR;3),,               -2000;,,                      N 11Ser !
$
 PAR  L(FCC_A1,IN,IR:VA;0),,            +35000+8*T;,,                 N 11Ser !
 PAR  L(FCC_A1,IN,IR:VA;1),,            +25000;,,                     N 11Ser !
$
 PAR  G(IN3IR_D011,IN:IR),,             +3*GHSERIN+GHSERIR
             -99600+45.212*T;,,                                       N 11Ser !
 PAR  L(IN3IR_D011,IN:IN,IR;0),,        -10000;,,                     N 11Ser !
$
 PAR  G(IN3IR_HT,IN:IR),,               +3*GHSERIN+GHSERIR
             -95200+38.272*T;,,                                       N 11Ser !
 PAR  L(IN3IR_HT,IN:IN,IR;0),,          -12000;,,                     N 11Ser !
$
 PAR  G(IN2IR_CB,IN:IR),,               +2*GHSERIN+GHSERIR
             -80100+33.405*T;,,                                       N 11Ser !
 PAR  G(IN2IR_CB,IR:IN),,               +2*GHSERIR+GHSERIN
             +110100-33.405*T;,,                                      N 11Ser !
 PAR  L(IN2IR_CB,IN,IR:IR;0),,          +48600+3*T;,,                 N 11Ser !
 PAR  L(IN2IR_CB,IN:IN,IR;0),,          -56100+32.4*T;,,              N 11Ser !
$
$ Metastable
$
 PAR  L(BCC_A2,IN,IR:VA;0),,            +35000+8*T;,,                 N Same !
 PAR  L(BCC_A2,IN,IR:VA;1),,            +25000;,,                     N Same !
$
 PAR  L(HCP_A3,IN,IR:VA;0),,            +35000+8*T;,,                 N Same !
 PAR  L(HCP_A3,IN,IR:VA;1),,            +25000;,,                     N Same !
$ ------------------------------------------------------------------------------
$
$
 LIST-OF-REFERENCE
 NUMBER  SOURCE
  Null   'Unknown source'
  Same   'Same or similar interaction as in the corresponding stable phase'
  COST   'COST 507 database'
  88Che0 'P.-Y Chevalier, Calphad, 12, 383-92(1988)
          SGTE unary database V.4.1, 1999; In'
  91Din  'A.T. Dinsdale, Calphad, 15, 317-425(1991).'
  92Ans  'I. Ansara, J.-Ph. Nabot, Calphad, 16, 13-18(1992),
          SGTE unary database V.5.0, 2009; In'
  98Boa  'D. Boa, I. Ansara, Thermochim. Acta, 314, 79-86(1998),
          SGTE unary database V.4.1, 1999; In, Pb, In-Pb, Bi-In-Pb'
  99Ans1 'I. Ansara, S.G. Fries, H.L. Lukas, unpublished, 1999,
          SGTE unary database V.5.0, 2009; In, Sn'
  11Ser  'C. Servant, M. Idbenali, Thermochim. Acta, 517, 1-8(2011); In-Ir'
!
