$
$ Database for In-Sr from Y. Wang et al. 2014.
$
$ Y. Wang, J. Xin, C. Chen, S. Liu, B. Hu, Y. Du, Calphad, 45, 49-54(2014).
$
$ Dataset created 2018.04.30 by Bengt Hallstedt.
$ 2021.01.17: Modified for use with GES6.
$
$ ------------------------------------------------------------------------------
 TEMP-LIM 298.15 6000.00 !
$
$ELEMENT NAME  REF. STATE               ATOMIC MASS H298-H0    S298    !
$
 ELEMENT VA   VACUUM                      0.0          0.0      0.0    ! 
 ELEMENT IN   TETRAGONAL_A6             114.82      6610.0     57.65   ! 
 ELEMENT SR   FCC_A1                     87.62      6568.      55.694  ! 
$ ------------------------------------------------------------------------------
$ Phase definitions
$
 PHASE LIQUID:L % 1 1 !
 CONST LIQUID:L : IN SR : !
$
$ Fcc (cF4) and MeX (cF8)
$
 PHASE FCC_A1 %A 2 1 1 !
 CONST FCC_A1 : IN SR% : VA : !
$
$ Bcc (cI2, Im-3m)
$
 PHASE BCC_A2 %B 2 1 3 !
 CONST BCC_A2 : IN SR% : VA : !
$
$ Hcp (hP2, P6_3/mmc) and Me2X (NiAs-type, hP4, P6_3/mmc, B8_1)
$
 PHASE HCP_A3 %A 2 1 0.5 !
 CONST HCP_A3 : IN SR : VA : !
$
$ Prototype In (tI2, I4/mmm)
$
 PHASE TETRAGONAL_A6 % 1 1 !
 CONST TETRAGONAL_A6 : IN : !
$
$ Prototype CaCu5 (hP6, P6/mmm)
$
 PHASE IN5SR_D2D % 2 5 1 !
 CONST IN5SR_D2D : IN : SR : !
$
$ Prototype CdMg3 (hP8, P6_3/mmc)
$
 PHASE IN3SR_D019 % 2 3 1 !
 CONST IN3SR_D019 : IN : SR : !
$
$ unknown structure 
$
 PHASE IN5SR2 % 2 5 2 !
 CONST IN5SR2 : IN : SR : !
$
$ Prototype CaIn2 (hP6, P6_3/mmc)
$
 PHASE IN2SR % 2 2 1 !
 CONST IN2SR : IN : SR : !
$
$ Prototype Ca3Ga5 (oC32, Cmcm) also In5Sr3
$
 PHASE IN3SR2 % 2 3 2 !
 CONST IN3SR2 : IN : SR : !
$
$ Prototype InSr (oF64, Fdd2)
$
 PHASE INSR % 2 1 1 !
 CONST INSR : IN : SR : !
$
$ Prototype Cr5B3 (tI32, I4/mcm)
$
 PHASE IN3SR5_D8L % 2 3 5 !
 CONST IN3SR5_D8L : IN : SR : !
$
$ Prototype Ca28Ga11 (oI78, Imm2)
$
 PHASE INSR3 % 2 1 3 !
 CONST INSR3 : IN : SR : !
$ ------------------------------------------------------------------------------
$ Defaults
$
 DEFINE-SYSTEM-DEFAULT ELEMENT 2 !
 DEFAULT-COM DEFINE_SYSTEM_ELEMENT VA !
 TYPE-DEF % SEQ * !
 TYPE-DEF A GES AMEND_PHASE_DESCRIPTION @ MAGNETIC -3 0.28 !
 TYPE-DEF B GES AMEND_PHASE_DESCRIPTION @ MAGNETIC -1 0.4 !
 FUNCTION ZERO      298.15  0;                                         6000 N !
 FUNCTION UN_ASS    298.15  0;                                         6000 N !
 FUNCTION R         298.15  +8.31451;                                  6000 N !
$ ------------------------------------------------------------------------------
$ Element data
$ ------------------------------------------------------------------------------
$ In
$
$ FCC_A1 and TET_ALPHA1 revised in unary 4.1
$ BCT_A5 and RHOMBOHEDRAL_A7 added in unary 4.1
$ TET_ALPHA1 revised in unary 5.0 (using the value from 99Ans)
$ DHCP added in unary 5.0
$
$ There is quite a bit of confusion about TET_ALPHA1_A6. The structure is
$ the same as In (TETRAGONAL_A6), but with a different (presumably) c/a ratio.
$ TET_ALPHA1_A6 is present in Bi-In, In-Pb and In-Sn (possibly more). Between
$ the TETRAGONAL_A6 (In-ss) and TET_ALPHA1_A6 there is a narrow two-phase
$ region. In each system a different G(TET_ALPHA1_A6,IN) lattice stability
$ was used.
$ In 91Din a value from an unpublished revision of the Bi-In system by
$ P.-Y. Chevalier 1990 is included. In SGTE Unary V 4.4 a value from 98Boa
$ for the In-Pb system is included. 98Boa treated the TET_ALPHA1_A6
$ phase in Bi-In and In-Pb as two different phases and used the lattice
$ stability from 88Che0 for the Bi-In branch of this phase. Finally, SGTE
$ unary V 5.0 uses a value from an unpublished evaluation by 99Ans of the
$ In-Sn system. Due to the close proximity of the TETRAGONAL_A6 and
$ TET_ALPHA1_A6 phases in these systems, any change of lattice stability
$ will cause a distortion of the phase diagram and require reoptimisation.
$
$ The DHCP phase is labelled D0_24 in 03Liu and alpha-prime in 92Ans. The
$ phase is present between the fcc and hcp phases in the Au-Sn and Au-In
$ systems.
$
 PAR  G(TETRAGONAL_A6,IN),,             +GHSERIN;                3800 N 91Din !
 PAR  G(FCC_A1,IN:VA),,                 +GHSERIN+162.061;        3800 N 98Boa !
$PAR  G(FCC_A1,IN:VA),,                 +GHSERIN+123-0.1988*T;   3800 N 91Din !
 PAR  G(BCC_A2,IN:VA),,                 +GHSERIN+800-0.8*T;      3800 N 91Din !
 PAR  G(HCP_A3,IN:VA),,                 +GHSERIN+533-0.6868*T;   3800 N 91Din !
$PAR  G(DHCP,IN),,                      +GHSERIN+520-0.384*T;    3800 N 92Ans !
$PAR  G(TET_ALPHA1_A6,IN),,             +GHSERIN+123-0.1988*T;   3800 N 99Ans1 !
$PAR  G(TET_ALPHA1_A6,IN),,             +GHSERIN+0.31*T;         3800 N 98Boa !
$PAR  G(TET_ALPHA1_A6,IN),,             +GHSERIN+193-0.16479*T;  3800 N 91Din !
$PAR  G(TET_ALPHA1_A6,IN),,             +GHSERIN-33+0.16*T;      3800 N 88Che0 !
$PAR  G(BCT_A5,IN),,                    +GHSERIN
$            +5040.87-3.33969*T;                                 3800 N 99Ans1 !
$PAR  G(BCT_A5,IN),,                    +GHSERIN+2092;           3800 N 03Liu1 !
$PAR  G(RHOMBOHEDRAL_A7,IN),,           +GHSERIN+4184;           3800 N 88Che0 !
 PAR  G(LIQUID,IN),,                    +GLIQIN;                 3800 N 91Din !
$
 FUNCTION GHSERIN   298.15  -6978.89+92.338115*T-21.8386*T*LN(T)
       -0.00572566*T**2-2.120321E-06*T**3-22906*T**(-1);
       429.75  Y  -7033.516+124.476588*T-27.4562*T*LN(T)
       +5.4607E-04*T**2-8.367E-08*T**3-211708*T**(-1)+3.53116E+22*T**(-9);
      3800.00  N !
 FUNCTION GLIQIN    298.15  +3282.092-7.63686*T+GHSERIN-5.59058E-20*T**7;
       429.75  Y  +3283.706-7.640804*T+GHSERIN-3.53116E+22*T**(-9);
      3800.00  N !
$
 FUNCTION GINNIH2   298.15  +18028.73497+34.64659255*T-10.9193*T*LN(T)
       -0.00286283*T**2-1.0601605E-06*T**3-11453*T**(-1);
      6000.00  N !
 FUNCTION GINNI2H6  298.15  +11254.70331+25.256*T-7.2795333*T*LN(T)
       -0.00191*T**2-7.0677E-07*T**3-7635.3333*T**(-1);
      6000.00  N !
$ ------------------------------------------------------------------------------
$ Sr
$
 PAR  G(FCC_A1,SR:VA),,                 +GHSERSR;                3000 N 91Din !
 PAR  G(BCC_A2,SR:VA),,                 +GBCCSR;                 3000 N 91Din !
 PAR  G(HCP_A3,SR:VA),,                 +GHSERSR+250+0.7*T;      3000 N 91Din !
 PAR  G(LIQUID,SR),,                    +GLIQSR;                 3000 N 91Din !
$
 FUNCTION GHSERSR   298.15  -7532.367+107.183879*T-23.905*T*LN(T)
       -0.00461225*T**2-1.67477E-07*T**3-2055*T**(-1);
       820.00  Y  -13380.102+153.196104*T-30.0905432*T*LN(T)
       -0.003251266*T**2+1.84189E-07*T**3+850134*T**(-1);
      3000.00  N !
 FUNCTION GBCCSR    298.15  -6779.234+116.583654*T-25.6708365*T*LN(T)
       -0.003126762*T**2+2.2965E-07*T**3+27649*T**(-1);
       820.00  Y  -6970.594+122.067301*T-26.57*T*LN(T)
       -0.0019493*T**2-1.7895E-08*T**3+16495*T**(-1);
      1050.00  Y  +8168.357+0.423037*T-9.7788593*T*LN(T)
       -0.009539908*T**2+5.20221E-07*T**3-2414794*T**(-1);
      3000.00  N !
 FUNCTION GLIQSR    298.15  +2194.997-10.118994*T-5.0668978*T*LN(T)
       -0.031840595*T**2+4.981237E-06*T**3-265559*T**(-1);
      1050.00  Y  -10855.29+213.406219*T-39.463*T*LN(T);
      3000.00  N !
$ ------------------------------------------------------------------------------
$ Binary system
$
$ Y. Wang, J. Xin, C. Chen, S. Liu, B. Hu, Y. Du, Calphad, 45, 49-54(2014).
$
$ Checked against paper and author's tdb. Checked at 6000 K.
$
 PAR  L(LIQUID,IN,SR;0),,               -109580.9+11.2333*T;,,        N 14Wan !
 PAR  L(LIQUID,IN,SR;1),,               -31000;,,                     N 14Wan !
 PAR  L(LIQUID,IN,SR;2),,               +4000;,,                      N 14Wan !
$
 PAR  L(FCC_A1,IN,SR:VA;0),,            +UN_ASS;,,                    N !
 PAR  L(BCC_A2,IN,SR:VA;0),,            +UN_ASS;,,                    N !
$
 PAR  G(IN5SR_D2D,IN:SR),,              +5*GHSERIN+GHSERSR
             -156000+33.66*T;,,                                       N 14Wan !
 PAR  G(IN3SR_D019,IN:SR),,             +3*GHSERIN+GHSERSR
             -150800+36.6*T;,,                                        N 14Wan !
 PAR  G(IN5SR2,IN:SR),,                 +5*GHSERIN+2*GHSERSR
             -289912.7+66.465*T;,,                                    N 14Wan !
 PAR  G(IN2SR,IN:SR),,                  +2*GHSERIN+GHSERSR
             -135000+26.7*T;,,                                        N 14Wan !
 PAR  G(IN3SR2,IN:SR),,                 +3*GHSERIN+2*GHSERSR
             -221331.5+44.75*T;,,                                     N 14Wan !
 PAR  G(INSR,IN:SR),,                   +GHSERIN+GHSERSR
             -85679.6+20.9*T;,,                                       N 14Wan !
 PAR  G(IN3SR5_D8L,IN:SR),,             +3*GHSERIN+5*GHSERSR
             -272000+66.984*T;,,                                      N 14Wan !
 PAR  G(INSR3,IN:SR),,                  +GHSERIN+3*GHSERSR
             -88000+12.8*T;,,                                         N 14Wan !
$ ------------------------------------------------------------------------------
$
$
 LIST-OF-REFERENCE
 NUMBER  SOURCE
  Null   'Unknown source'
  Same   'Same or similar interaction as in the corresponding stable phase'
  COST   'COST 507 database'
  88Che0 'P.-Y Chevalier, Calphad, 12, 383-92(1988)
          SGTE unary database V.4.1, 1999; In'
  91Din  'A.T. Dinsdale, Calphad, 15, 317-425(1991).'
  92Ans  'I. Ansara, J.-Ph. Nabot, Calphad, 16, 13-18(1992),
          SGTE unary database V.5.0, 2009; In'
  97Ans  'I. Ansara, N. Dupin, H.L. Lukas, B. Sundman,
          J. Alloys Compd., 247, 20-30(1997); Al-Ni'
  98Boa  'D. Boa, I. Ansara, Thermochim. Acta, 314, 79-86(1998),
          SGTE unary database V.4.1, 1999; In, Pb, In-Pb, Bi-In-Pb'
  99Ans1 'I. Ansara, S.G. Fries, H.L. Lukas, unpublished, 1999,
          SGTE unary database V.5.0, 2009; In, Sn'
  14Wan  'Y. Wang, J. Xin, C. Chen, S. Liu, B. Hu, Y. Du,
          Calphad, 45, 49-54(2014); In-Sr'
!
