$
$ Database for Hf-W from A.C. Lieser et al. 2012.
$
$ A.C. Lieser, C.L. Zacherl, A. Saengdeejing, Z.-K. Liu, L.J. Kecskes,
$ Calphad, 38, 92-99(2012).
$
$ Dataset created 2022.11.13 by Bengt Hallstedt.
$
$ ------------------------------------------------------------------------------
 TEMP-LIM 298.15 6000.00 !
$
$ELEMENT NAME  REF. STATE               ATOMIC MASS H298-H0    S298    !
$
 ELEMENT VA   VACUUM                      0.0          0.0      0.0    ! 
 ELEMENT HF   HCP_A3                    178.49      5845.0     43.56   ! 
 ELEMENT W    BCC_A2                    183.85      4970.0     32.6176 ! 
$ ------------------------------------------------------------------------------
$ Phase definitions
$
 PHASE LIQUID:L % 1 1 !
 CONST LIQUID:L : HF W : !
$
$ Fcc (cF4, Fm-3m) and MeX (cF8, Fm-3m)
$
 PHASE FCC_A1 %A 2 1 1 !
 CONST FCC_A1 : HF W : VA : !
$
$ Bcc (cI2, Im-3m)
$
 PHASE BCC_A2 %B 2 1 3 !
 CONST BCC_A2 : HF W : VA : !
$
$ Hcp (hP2, P6_3/mmc) and Me2X (NiAs-type, hP4, P6_3/mmc, B8_1)
$
 PHASE HCP_A3 %A 2 1 0.5 !
 CONST HCP_A3 : HF% W : VA : !
$
$ Prototype Cu2Mg (cF24, Fd-3m)
$
 PHASE C15_LAVES % 2 2 1 !
 CONST C15_LAVES : HF W% : HF% W : !
$ ------------------------------------------------------------------------------
$ Defaults
$
 DEFINE-SYSTEM-DEFAULT ELEMENT 2 !
 DEFAULT-COM DEFINE_SYSTEM_ELEMENT VA !
 TYPE-DEF % SEQ * !
 TYPE-DEF A GES AMEND_PHASE_DESCRIPTION @ MAGNETIC -3 0.28 !
 TYPE-DEF B GES AMEND_PHASE_DESCRIPTION @ MAGNETIC -1 0.4 !
 FUNCTION ZERO      298.15  0;                                         6000 N !
 FUNCTION UN_ASS    298.15  0;                                         6000 N !
 FUNCTION R         298.15  +8.31451;                                  6000 N !
$ ------------------------------------------------------------------------------
$ Element data
$ ------------------------------------------------------------------------------
$ Hf
$
$ HCP_A3 and BCC_A2 modified in unary 5.0
$ (upper T interval added + trailing decimals added)
$
 PAR  G(HCP_A3,HF:VA),,                 +GHSERHF;                3001 N 91Din !
 PAR  G(BCC_A2,HF:VA),,                 +GBCCHF;                 3001 N 91Din !
 PAR  G(FCC_A1,HF:VA),,                 +GHSERHF+10000-2.2*T;    3001 N 91Din !
 PAR  G(LIQUID,HF),,                    +GLIQHF;                 3001 N 91Din !
$
 PAR  G(C15_LAVES,HF:HF),,              +3*GHSERHF
             +113510+12.444*T;,,                                      N 12Lie !
$
 FUNCTION GHSERHF   298.15  -6987.297+110.744026*T-22.7075*T*LN(T)
       -0.004146145*T**2-4.77E-10*T**3-22590*T**(-1);
      2506.00  Y  -1446776.329+6193.609991*T-787.5363829*T*LN(T)
       +0.1735215*T**2-7.575759E-06*T**3+5.01742495E+08*T**(-1);
      3000.00  Y  -34274.698+277.882368*T-44*T*LN(T);
      3001.00  N !
 FUNCTION GBCCHF    298.15  +5370.703+103.836026*T-22.8995*T*LN(T)
       -0.004206605*T**2+8.71923E-07*T**3-22590*T**(-1)-1.446E-10*T**4;
      2506.00  Y  +1912456.771-8624.20573*T+1087.6141247*T*LN(T)
       -0.286857065*T**2+1.3427829E-05*T**3-6.10085091E+08*T**(-1);
      3000.00  Y  -32498.178+276.723247*T-44*T*LN(T);
      3001.00  N !
 FUNCTION GLIQHF    298.15  +27402.256-10.953093*T+GHSERHF;
      1000.00  Y  +49731.499-149.91739*T+12.116812*T*LN(T)
       -0.021262021*T**2+1.376466E-06*T**3-4449699*T**(-1);
      2506.00  Y  -4247.217+265.470523*T-44*T*LN(T);
      3001.00  N !
$ ------------------------------------------------------------------------------
$ W
$
 PAR  G(BCC_A2,W:VA),,                  +GHSERWW;,,                   N 91Din !
 PAR  G(FCC_A1,W:VA),,                  +GHSERWW+19300+0.63*T;,,      N 91Din !
 PAR  G(HCP_A3,W:VA),,                  +GHSERWW+14750;,,             N 91Din !
 PAR  G(LIQUID,W),,                     +GLIQWW;,,                    N 91Din !
$
 PAR  G(C15_LAVES,W:W),,                +3*GHSERWW
             +131271+5.833*T;,,                                       N 12Lie !
$
 FUNCTION GHSERWW   298.15  -7646.311+130.4*T-24.1*T*LN(T)
       -0.001936*T**2+2.07E-07*T**3+44500*T**(-1)-5.33E-11*T**4;
      3695.00  Y  -82868.801+389.362335*T-54*T*LN(T)+1.528621E+33*T**(-9);
      6000.00  N !
 FUNCTION GLIQWW    298.15  +52160.584-14.10999*T+GHSERWW-2.713468E-24*T**7;
      3695.00  Y  -30436.051+375.175*T-54*T*LN(T);
      6000.00  N !
$ ------------------------------------------------------------------------------
$ Binary system
$
$ A.C. Lieser, C.L. Zacherl, A. Saengdeejing, Z.-K. Liu, L.J. Kecskes,
$ Calphad, 38, 92-99(2012).
$
$ Checked against paper and author's tdb. Checked at 6000 K.
$
 PAR  L(LIQUID,HF,W;0),,                -11128;,,                     N 12Lie !
 PAR  L(LIQUID,HF,W;1),,                -5971;,,                      N 12Lie !
$
 PAR  L(BCC_A2,HF,W:VA;0),,             +38000-3.234*T;,,             N 12Lie !
 PAR  L(BCC_A2,HF,W:VA;1),,             +25000-13.557*T;,,            N 12Lie !
$
 PAR  L(HCP_A3,HF,W:VA;0),,             +88000;,,                     N 12Lie !
$
 PAR  G(C15_LAVES,HF:W),,               +2*GHSERHF+GHSERWW
             +213907+76.537*T;,,                                      N 12Lie !
 PAR  G(C15_LAVES,W:HF),,               -49938+323.409*T
             -64.949*T*LN(T)-0.00855*T**2+2.2437E-07*T**3
             +10924.7*T**(-1);,,                                      N 12Lie !
$
$ Metastable
$
 PAR  L(FCC_A1,HF,W:VA;0),,             +88000;,,                     N Same !
$ ------------------------------------------------------------------------------
$
 ASSESSED_SYSTEM
  HF-W(TDB -* +LIQUID +BCC_A2 +HCP_A3 +C15_LAVES ;P3 TMM:300/4000) !
$
$
 LIST-OF-REFERENCE
 NUMBER  SOURCE
  Null   'Unknown source'
  Lin    'Linear combination of lattice stabilities'
  Same   'Same or similar interaction as in the corresponding stable phase'
  REFLAV 'Laves phase convention: G(LAVES,X:X)=+3*GHSERXX+15000'
  91Din  'A.T. Dinsdale, Calphad, 15, 317-425(1991).'
  99SGUN 'SGTE unary database V.4.1, 1999.'
  12Lie  'A.C. Lieser, C.L. Zacherl, A. Saengdeejing, Z.-K. Liu, L.J. Kecskes,
          Calphad, 38, 92-99(2012); Hf-W'
!
