$
$ Database for Mg-Y from H.L. Lukas 1998
$
$ H.L. Lukas, COST 507, Final report round 2, 1998.
$
$ Dataset created 2016.02.28 by Bengt Hallstedt.
$ 2021.01.24: Modified for use with GES6.
$
$ There are changes because of new unary Y. Most invariants change by 2-3 K,
$ but the B2 + bcc + hcp invariant changes from 1048 K to 1096 K.
$
$ ------------------------------------------------------------------------------
 TEMP-LIM 298.15 6000.00 !
$
$ELEMENT NAME  REF. STATE               ATOMIC MASS H298-H0    S298    !
$
 ELEMENT VA   VACUUM                      0.0          0.0      0.0    ! 
 ELEMENT MG   HCP_A3                     24.305     4998.      32.671  !
 ELEMENT Y    HCP_A3                     88.9059    5983.457   44.7875 ! 
$ ------------------------------------------------------------------------------
$ Phase definitions
$
 PHASE LIQUID:L % 1 1 !
 CONST LIQUID:L : MG Y : !
$
$ Fcc (cF4, Fm-3m) and MeX (cF8, Fm-3m)
$
 PHASE FCC_A1 %A 2 1 1 !
 CONST FCC_A1 : MG Y : VA% : !
$
$ Bcc (cI2, Im-3m)
$
 PHASE BCC_A2 %B 2 1 3 !
 CONST BCC_A2 : MG Y% : VA% : !
$
$ Hcp (hP2, P6_3/mmc) and Me2X (NiAs-type, hP4, P6_3/mmc, B8_1)
$
 PHASE HCP_A3 %A 2 1 0.5 !
 CONST HCP_A3 : MG% Y% : VA% : !
$
$ Prototype CsCl (cP2, Pm-3m)
$
 PHASE MGY_B2 % 2 1 1 !
 CONST MGY_B2 : MG : MG Y% : VA : !
$
$ Prototype MgZn2 (hP12, P6_3/mmc)
$
 PHASE MG2Y_C14 % 2 2 1 !
 CONST MG2Y_C14 : MG : Y : !
$
$ Prototype alpha-Mn (cI58, I-43m)
$ Pauling file lists Re24Ti5 as prototype
$
 PHASE MG24Y5_A12 % 2 24 5 !
 CONST MG24Y5_A12 : MG : MG Y% : !
$ ------------------------------------------------------------------------------
$ Defaults
$
 DEFINE-SYSTEM-DEFAULT ELEMENT 2 !
 DEFAULT-COM DEFINE_SYSTEM_ELEMENT VA !
 TYPE-DEF % SEQ * !
 TYPE-DEF A GES AMEND_PHASE_DESCRIPTION @ MAGNETIC -3 0.28 !
 TYPE-DEF B GES AMEND_PHASE_DESCRIPTION @ MAGNETIC -1 0.4 !
 FUNCTION ZERO      298.15  0;                                         6000 N !
 FUNCTION UN_ASS    298.15  0;                                         6000 N !
 FUNCTION R         298.15  +8.31451;                                  6000 N !
$ ------------------------------------------------------------------------------
$ Element data
$ ------------------------------------------------------------------------------
$ Mg
$
 PAR  G(FCC_A1,MG:VA),,                 +GHSERMG+2600-0.9*T;     3000 N 91Din !
 PAR  G(BCC_A2,MG:VA),,                 +GHSERMG+3100-2.1*T;     3000 N 91Din !
 PAR  G(HCP_A3,MG:VA),,                 +GHSERMG;                3000 N 91Din !
 PAR  G(LIQUID,MG),,                    +GLIQMG;                 3000 N 91Din !
$
 PAR  G(MGY_B2,MG:MG),,                 +2*GHSERMG+9891.48;,,         N 98Luk !
 PAR  G(MG24Y5_A12,MG:MG),,             +29*GHSERMG+44506.01;,,       N 98Luk !
$
 FUNCTION GHSERMG   298.15  -8367.34+143.675547*T-26.1849782*T*LN(T)
       +4.858E-04*T**2-1.393669E-06*T**3+78950*T**(-1);
       923.00  Y  -14130.185+204.716215*T-34.3088*T*LN(T)+1.038192E+28*T**(-9);
      3000.00  N !
 FUNCTION GLIQMG    298.15  +8202.243-8.83693*T+GHSERMG-8.0176E-20*T**7;
       923.00  Y  -5439.869+195.324057*T-34.3088*T*LN(T);
      3000.00  N !
$ ------------------------------------------------------------------------------
$ Y
$
$ HCP_A3, BCC_A2 and LIQUID revised in unary 3.0
$ FCC_A1 added in unary 4.1
$
 PAR  G(HCP_A3,Y:VA)            100.00  +GHSERYY;                3700 N 95She3 !
 PAR  G(BCC_A2,Y:VA)            100.00  +GBCCYY;                 3700 N 95She3 !
 PAR  G(FCC_A1,Y:VA)            100.00  +GHSERYY+6000;           3700 N Frie2 !
 PAR  G(LIQUID,Y)               100.00  +GLIQYY;                 3700 N 95She3 !
$
 FUNCTION GHSERYY   100.00  -8011.09379+128.572856*T-25.6656992*T*LN(T)
       -0.00175716414*T**2-4.17561786E-07*T**3+26911.509*T**(-1);
      1000.00  Y  -7179.74574+114.497104*T-23.4941827*T*LN(T)
       -0.0038211802*T**2-8.2534534E-08*T**3;
      1795.15  Y  -67480.7761+382.124727*T-56.9527111*T*LN(T)
       +0.00231774379*T**2-7.22513088E-08*T**3+18077162.6*T**(-1);
      3700.00  N !
 FUNCTION GBCCYY    100.00  -833.658863+123.667346*T-25.5832578*T*LN(T)
       -0.00237175965*T**2+9.10372497E-09*T**3+27340.0687*T**(-1);
      1000.00  Y  -1297.79829+134.528352*T-27.3038477*T*LN(T)
       -5.41757644E-04*T**2-3.05012175E-07*T**3;
      1795.15  Y  +15389.4975+0.981325399*T-8.88296647*T*LN(T)
       -0.00904576576*T**2+4.02944768E-07*T**3-2542575.96*T**(-1);
      3700.00  N !
 FUNCTION GLIQYY    100.00  +2098.50738+119.41873*T-24.6467508*T*LN(T)
       -0.00347023463*T**2-8.12981167E-07*T**3+23713.7332*T**(-1);
      1000.00  Y  +7386.44846+19.4520171*T-9.0681627*T*LN(T)
       -0.0189533369*T**2+1.7595327E-06*T**3;
      1795.15  Y  -12976.5957+257.400783*T-43.0952*T*LN(T);
      3700.00  N !
$ ------------------------------------------------------------------------------
$ Binary system
$
$ H.L. Lukas, COST 507, Final report round 2, 1998.
$
$ Checked against paper. Checked at 6000 K.
$
$ There are changes because of new unary Y. Most invariants change by 2-3 K,
$ but the B2 + bcc + hcp invariant changes from 1048 K to 1096 K.
$
 PAR  L(LIQUID,MG,Y;0),,                -25802.51+4.30042*T;,,        N 98Luk !
 PAR  L(LIQUID,MG,Y;1),,                -19229.76+3.20497*T;,,        N 98Luk !
$
 PAR  L(BCC_A2,MG,Y:VA;0),,             -38570+15*T;,,                N 98Luk !
 PAR  L(BCC_A2,MG,Y:VA;1),,             -8204.21;,,                   N 98Luk !
$
 PAR  L(HCP_A3,MG,Y:VA;0),,             -16582.94+4.77482*T;,,        N 98Luk !
 PAR  L(HCP_A3,MG,Y:VA;1),,             -7077.87;,,                   N 98Luk !
$
 PAR  G(MGY_B2,MG:Y),,                  +GHSERMG+GHSERYY
             -32162.76+8*T;,,                                         N 98Luk !
$
 PAR  G(MG2Y_C14,MG:Y),,                +2*GHSERMG+GHSERYY
             -39075.78+6.51258*T;,,                                   N 98Luk !
$
 PAR  G(MG24Y5_A12,MG:Y),,              +24*GHSERMG+5*GHSERYY
             -227282.28+36.52985*T;,,                                 N 98Luk !
$
$ Metastable
$
 PAR  L(FCC_A1,MG,Y:VA;0),,             -16582.94+4.77482*T;,,        N Same !
 PAR  L(FCC_A1,MG,Y:VA;1),,             -7077.87;,,                   N Same !
$ ------------------------------------------------------------------------------
$
 ASSESSED_SYSTEM
  MG-Y(TDB -* +LIQUID +BCC_A2 +HCP_A3 +MGY_B2 +MG24Y5_A12 +MG2Y_C14
  ;G5 C_S:BCC_B2/MG:Y:VA MAJ:BCC_B2/Y:Y:VA ;P3 TMM:300/2300 STP:0.4/1200) !
$
$
 LIST-OF-REFERENCE
 NUMBER  SOURCE
  Null   'Unknown source'
  Same   'Same or similar interaction as in the corresponding stable phase'
  COST   'COST 507 database'
  Frie2  'Suzana Fries and Leo Lukas, unpublished,
          SGTE unary database V.4.1, 1999; Y'
  91Din  'A.T. Dinsdale, Calphad, 15, 317-425(1991).'
  95She3 'H. Shen, W. Zhang, G. Liu, R. Wang, Z. Du, Report F-95-03,
          University of Science and Technology, Beijing, May 1995,
          SGTE unary database V.3.0, 1996; Y'
  98Luk  'H.L. Lukas, COST 507, Final report round 2, 1998; Mg-Y'
!
