$
$ Database for Al-Se from C. Shi et al. 2019.
$
$ C. Shi, B. Yang, B. Hu, Y. Du, S. Yao,
$ J. Phase Equilib. Diffus., 40, 392-402(2019).
$
$ Dataset created 2019.07.26 by Bengt Hallstedt.
$ 2020.12.22: Modified for use with GES6.
$
$ The paper includes both associate liquid and a model without associates
$ (simple RK). This dataset uses the model without associates. The parameters
$ for the associate model do not reproduce the phase diagram. Even if they
$ would they would not be acceptable anyway.
$
$ This dataset is not convincing. Very large T-dependencies are used to
$ conceal strong non-ideality. Al2Se3 has negative standard entropy.
$
$ The phase diagram is only approximately reproduced. Some liquid interaction
$ parameter seems to be missing.
$
$ ------------------------------------------------------------------------------
 TEMP-LIM 298.15 6000.00 !
$
$ELEMENT NAME  REF. STATE               ATOMIC MASS H298-H0    S298    !
$
 ELEMENT VA   VACUUM                      0.0          0.0      0.0    ! 
 ELEMENT AL   FCC_A1                     26.98154   4540.      28.30   ! 
 ELEMENT SE   HEXAGONAL_A8               78.96      5514.512   41.9655 ! 
$ ------------------------------------------------------------------------------
$ Phase definitions
$
 PHASE LIQUID % 1 1 !
 CONST LIQUID : AL SE : !
$
$ Fcc (cF4, Fm-3m) and MeX (cF8, Fm-3m)
$
 PHASE FCC_A1 %A 2 1 1 !
 CONST FCC_A1 : AL : VA : !
$
$ Bcc (cI2, Im-3m)
$
 PHASE BCC_A2 %B 2 1 3 !
 CONST BCC_A2 : AL : VA : !
$
$ Hcp (hP2, P6_3/mmc) and Me2X (NiAs-type, hP4, P6_3/mmc, B8_1)
$
 PHASE HCP_A3 %A 2 1 0.5 !
 CONST HCP_A3 : AL : VA: !
$
$ gamma-Se (hP3, P3_121)
$
 PHASE HEXAGONAL_A8 % 1 1 !
 CONST HEXAGONAL_A8 : SE : !
$
$ Prototype beta-Ga2Se3 (mC20, Cc)
$
 PHASE AL2SE3 % 2 2 3 !
 CONST AL2SE3 : AL : SE : !
$ ------------------------------------------------------------------------------
$ Defaults
$
 DEFINE-SYSTEM-DEFAULT ELEMENT 2 !
 DEFAULT-COM DEFINE_SYSTEM_ELEMENT VA !
 TYPE-DEF % SEQ * !
 TYPE-DEF A GES AMEND_PHASE_DESCRIPTION @ MAGNETIC -3 0.28 !
 TYPE-DEF B GES AMEND_PHASE_DESCRIPTION @ MAGNETIC -1 0.4 !
 FUNCTION ZERO      298.15  0;                                         6000 N !
 FUNCTION UN_ASS    298.15  0;                                         6000 N !
 FUNCTION R         298.15  +8.31451;                                  6000 N !
$ ------------------------------------------------------------------------------
$ Element data
$ ------------------------------------------------------------------------------
$ Al
$
$ BCT_A5 and DIAMOND_A4 added in unary 3.0
$
 PAR  G(FCC_A1,AL:VA),,                 +GHSERAL;                2900 N 91Din !
 PAR  G(BCC_A2,AL:VA),,                 +GHSERAL+10083-4.813*T;  2900 N 91Din !
 PAR  G(HCP_A3,AL:VA),,                 +GHSERAL+5481-1.8*T;     2900 N 91Din !
$PAR  G(CBCC_A12,AL:VA),,               +GHSERAL
$            +10083.4-4.813*T;                                   2900 N 91Din !
$PAR  G(CUB_A13,AL:VA),,                +GHSERAL
$            +10920.44-4.8116*T;                                 2900 N 91Din !
$PAR  G(BCT_A5,AL),,                    +GHSERAL+10083-4.813*T;  2900 N SGCOST !
$PAR  G(DIAMOND_A4,AL),,                +GHSERAL+30*T;           2900 N SGCOST !
 PAR  G(LIQUID,AL),,                    +GLIQAL;                 2900 N 91Din !
$
 FUNCTION GHSERAL   298.15  -7976.15+137.093038*T-24.3671976*T*LN(T)
       -0.001884662*T**2-8.77664E-07*T**3+74092*T**(-1);
       700.00  Y  -11276.24+223.048446*T-38.5844296*T*LN(T)
       +0.018531982*T**2 -5.764227E-06*T**3+74092*T**(-1);
       933.47  Y  -11278.361+188.684136*T-31.748192*T*LN(T)
       -1.230622E+28*T**(-9);
      2900.00  N !
 FUNCTION GLIQAL    298.15  +11005.045-11.84185*T+GHSERAL+7.9337E-20*T**7;
       933.47  Y  -795.991+177.430209*T-31.748192*T*LN(T);
      2900.00  N !
 FUNCTION GBCCAL    298.15  +GHSERAL+10083-4.813*T;                    2900 N !
$ ------------------------------------------------------------------------------
$ Se
$
 PAR  G(HEXAGONAL_A8,SE),,              +GHSERSE;                1000 N 91Din !
 PAR  G(LIQUID,SE),,                    +GLIQSE;                 1000 N 91Din !
$
 FUNCTION GHSERSE   298.15  -9376.371+174.205877*T-33.6527*T*LN(T)
       +0.02424314*T**2-1.5318461E-05*T**3+102249*T**(-1);
       494.00  Y  -37546.134+507.111538*T-81.2006585*T*LN(T)
       +0.037144892*T**2-5.611026E-06*T**3+2614263*T**(-1);
       800.00  Y  -12193.47+197.770166*T-35.1456*T*LN(T);
      1000.00  N !
 FUNCTION GLIQSE    298.15  +50533.347-1178.28824*T+194.107439*T*LN(T)
       -0.390268991*T**2+1.19219297E-04*T**3-2224398*T**(-1); 
       494.00  Y  -5228.304+183.72559*T-35.1456*T*LN(T);
      1000.00  N !
$ ------------------------------------------------------------------------------
$ Binary system
$
$ C. Shi, B. Yang, B. Hu, Y. Du, S. Yao,
$ J. Phase Equilib. Diffus., 40, 392-402(2019).
$
$ Checked against paper. Checked at 6000 K.
$
$ The paper includes both associate liquid and a model without associates
$ (simple RK). This dataset uses the model without associates. The parameters
$ for the associate model do not reproduce the phase diagram. Even if they
$ would they would not be acceptable anyway.
$
$ This dataset is not convincing. Very large T-dependencies are used to
$ conceal strong non-ideality. Al2Se3 has negative standard entropy.
$
$ The phase diagram is only approximately reproduced. Some liquid interaction
$ parameter seems to be missing.
$
 PAR  L(LIQUID,AL,SE;0),,               -17285-44.15*T;,,             N 19Shi !
$
 PAR  G(AL2SE3,AL:SE),,                 +2*GHSERAL+3*GHSERSE
             -538365+317.8*T;,,                                       N 19Shi !
$ ------------------------------------------------------------------------------
$
$
 LIST-OF-REFERENCE
 NUMBER  SOURCE
  Null   'Unknown source'
  Same   'Same or similar interaction as in the corresponding stable phase'
  COST   'COST 507 database'
  SGCOST 'COST 507 database, SGTE unary database V.3.0, 1996; Al, B, Nd, Ti, Zn'
  91Din  'A.T. Dinsdale, Calphad, 15, 317-425(1991).'
  19Shi  'C. Shi, B. Yang, B. Hu, Y. Du, S. Yao,
          J. Phase Equilib. Diffus., 40, 392-402(2019); Al-Se'
!
