$
$ Database for Fe-Te from C.-M. Arvhult et al. 2018.
$
$ C.-M. Arvhult, C. Gueneau, S. Gosse, M. Selleby,
$ J. Alloys Compd., 767, 883-93(2018).
$
$ Dataset created 2018.06.18 by Bengt Hallstedt.
$ 2021.01.02: Modified for use with GES6.
$ 2021.09.05: ION order fixed for GES6.
$
$ Gas phase is included in the author's tdb, but not here.
$
$ ------------------------------------------------------------------------------
 TEMP-LIM 298.15 6000.00 !
$
$ELEMENT NAME  REF. STATE               ATOMIC MASS H298-H0    S298    !
$
 ELEMENT /-   ELECTRON_GAS                0.0          0.0      0.0    ! 
 ELEMENT VA   VACUUM                      0.0          0.0      0.0    ! 
 ELEMENT FE   BCC_A2                     55.847     4489.0     27.2797 ! 
 ELEMENT TE   HEXAGONAL_A8              127.60      6080.      49.221  ! 
$ ------------------------------------------------------------------------------
$ Species
$
 SPECIE  FE+2                               FE1/+2 !
 SPECIE  TE-2                               TE1/-2 !
$ ------------------------------------------------------------------------------
$ Phase definitions
$
 PHASE ION:Y % 2 1 1 !
 CONST ION:Y : FE+2 : TE-2 VA TE : !
$
$ Fcc (cF4, Fm-3m) and MeX (cF8, Fm-3m)
$
 PHASE FCC_A1 %A 2 1 1 !
 CONST FCC_A1 : FE% TE : VA : !
$
$ Bcc (cI2, Im-3m)
$
 PHASE BCC_A2 %B 2 1 3 !
 CONST BCC_A2 : FE% TE : VA : !
$
$ Hcp (hP2, P6_3/mmc) and Me2X (NiAs-type, hP4, P6_3/mmc, B8_1)
$
 PHASE HCP_A3 %A 2 1 0.5 !
 CONST HCP_A3 : FE : VA : !
$
$ Prototype gamma-Se (hP3, P3_121)
$ The phase is named HEXAGONAL_A8 in the SGTE unary database and
$ TRIGONAL_A8 in LB.
$
 PHASE HEXAGONAL_A8 % 1 1 !
 CONST HEXAGONAL_A8 : TE : !
$
$ Prototype Cu2Sb (tP6, P4/nmm), beta
$
 PHASE FETE_C38 % 3 1 1 1 !
 CONST FETE_C38 : FE : TE : FE VA : !
$
$ Prototype (FeNi)2.53Te2 (hR5, R3m), beta-prime
$
 PHASE FETE_BETA_HT % 2 3 2 !
 CONST FETE_BETA_HT : FE VA : TE : !
$
$ Possibly related to delta (FETE_DELTA)
$
 PHASE FETE_GAMMA % 2 1 1.183 !
 CONST FETE_GAMMA : FE : TE : !
$
$ Pearson mC14, C2/m, delta (circa Fe3Te4) and
$ Prototype CdI2 (hP3, P-3m1), delta-prime (cirka Fe2Te3)
$
 PHASE FETE_DELTA % 3 1 1 2 !
 CONST FETE_DELTA : FE VA : FE VA : TE : !
$
$ Prototype alpha-FeS2 (marcasite) (oP6, Pnnm), epsilon
$
 PHASE FETE2_C18 % 2 1 2 !
 CONST FETE2_C18 : FE VA : TE : !
$ ------------------------------------------------------------------------------
$ Defaults
$
 DEFINE-SYSTEM-DEFAULT ELEMENT 2 !
 DEFAULT-COM DEFINE_SYSTEM_ELEMENT VA /- !
 TYPE-DEF % SEQ * !
 TYPE-DEF A GES AMEND_PHASE_DESCRIPTION @ MAGNETIC -3 0.28 !
 TYPE-DEF B GES AMEND_PHASE_DESCRIPTION @ MAGNETIC -1 0.4 !
 FUNCTION ZERO      298.15  0;                                         6000 N !
 FUNCTION UN_ASS    298.15  0;                                         6000 N !
 FUNCTION R         298.15  +8.31451;                                  6000 N !
$ ------------------------------------------------------------------------------
$ Element data
$ ------------------------------------------------------------------------------
$ Fe
$
$ ORTHORHOMBIC_A20 and TETRAGONAL_U added im unary 4.1
$
 PAR  G(BCC_A2,FE:VA),,                 +GHSERFE;,,                   N 91Din !
 PAR  TC(BCC_A2,FE:VA),,                 1043.00;,,                   N 91Din !
 PAR  BM(BCC_A2,FE:VA),,                    2.22;,,                   N 91Din !
 PAR  G(FCC_A1,FE:VA),,                 +GFCCFE;,,                    N 91Din !
 PAR  TC(FCC_A1,FE:VA),,                 -201.00;,,                   N 91Din !
 PAR  BM(FCC_A1,FE:VA),,                   -2.10;,,                   N 91Din !
 PAR  G(HCP_A3,FE:VA),,                 +GHCPFE;,,                    N 91Din !
$PAR  G(CBCC_A12,FE:VA),,               +GHSERFE+4745;,,              N 91Din !
$PAR  G(CUB_A13,FE:VA),,                +GHSERFE+3745;,,              N 91Din !
$PAR  G(ORTHORHOMBIC_A20,FE),,          +GHSERFE+5000;,,              N 99SGUN !
$PAR  G(TETRAGONAL_U,FE),,              +GHSERFE+5000;,,              N 99SGUN !
$PAR  G(LIQUID,FE),,                    +GLIQFE;,,                    N 91Din !
$
 PAR  G(ION,FE+2:VA),,                  +GLIQFE;,,                    N 91Din !
$
 FUNCTION GHSERFE   298.15  +1225.7+124.134*T-23.5143*T*LN(T)
       -0.00439752*T**2-5.8927E-08*T**3+77359*T**(-1);
      1811.00  Y  -25383.581+299.31255*T-46*T*LN(T)+2.29603E+31*T**(-9);
      6000.00  N !
 FUNCTION GFCCFE    298.15  -1462.4+8.282*T-1.15*T*LN(T)
       +6.4E-04*T**2+GHSERFE;
      1811.00  Y  -1713.815+0.940009*T+GHSERFE+4.9251E+30*T**(-9);
      6000.00  N !
 FUNCTION GHCPFE    298.15  -3705.78+12.591*T-1.15*T*LN(T)
       +6.4E-04*T**2+GHSERFE;
      1811.00  Y  -3957.195+5.249009*T+GHSERFE+4.9251E+30*T**(-9);
      6000.00  N !
 FUNCTION GLIQFE    298.15  +12040.17-6.55843*T+GHSERFE-3.67516E-21*T**7;
      1811.00  Y  -10838.83+291.302*T-46*T*LN(T);
      6000.00  N !
$ ------------------------------------------------------------------------------
$ Te
$
$ HEXAGONAL_A8 and LIQUID revised in unary 3.0
$
$ FCC_A1 and BCC_A2 from 18Arv not included in unary
$
 PAR  G(HEXAGONAL_A8,TE),,              +GHSERTE;                2000 N 95Dav !
 PAR  G(FCC_A1,TE:VA),,                 +GHSERTE+35700;          2000 N 18Arv !
 PAR  G(BCC_A2,TE:VA),,                 +GHSERTE+25600;          2000 N 18Arv !
$PAR  G(LIQUID,TE),,                    +GLIQTE;                 2000 N 95Dav !
$
 PAR  G(ION,TE),,                       +GLIQTE;                 2000 N 95Dav !
$
 PAR  G(FETE_BETA_HT,VA:TE),,           +2*GHSERTE+10000;,,           N 18Arv !
 PAR  G(FETE_DELTA,VA:VA:TE),,          +2*GHSERTE+13547;,,           N 18Arv !
 PAR  G(FETE2_C18,VA:TE),,              +2*GHSERTE+10700;,,           N 18Arv !
$
 FUNCTION GHSERTE   298.15  -10544.679+183.372894*T-35.6687*T*LN(T)
       +0.01583435*T**2-5.240417E-06*T**3+155015*T**(-1);
       722.66  Y  +9160.595-129.265373*T+13.004*T*LN(T)
       -0.0362361*T**2+5.006367E-06*T**3-1286810*T**(-1);
      1150.00  Y  -12781.349+174.901226*T-32.5596*T*LN(T);
      1600.00  N !
 FUNCTION GLIQTE    298.15  -17554.731+685.877639*T-126.318*T*LN(T)
       +0.2219435*T**2-9.42075E-05*T**3+827930*T**(-1);
       626.49  Y  -3165763.48+46756.357*T-7196.41*T*LN(T)
       +7.09775*T**2-0.00130692833*T**3+2.58051E+08*T**(-1);
       722.66  Y  +180326.959-1500.57909*T+202.743*T*LN(T)
       -0.142016*T**2+1.6129733E-05*T**3-24238450*T**(-1);
      1150.00  Y  +19110.036-26.1929273*T+GHSERTE;
      1600.00  N !
$ ------------------------------------------------------------------------------
$ Binary system
$
$ C.-M. Arvhult, C. Gueneau, S. Gosse, M. Selleby,
$ J. Alloys Compd., 767, 883-93(2018).
$
$ Checked against paper and author's tdb. Checked at 6000 K.
$
$ Gas phase is included in the author's tdb, but not here.
$
 PAR  G(ION,FE+2:TE-2),,                +2*GLIQFE+2*GLIQTE-61060;,,   N 18Arv !
 PAR  L(ION,FE+2:TE-2,VA;0),,           +56496;,,                     N 18Arv !
 PAR  L(ION,FE+2:TE-2,VA;1),,           -22782;,,                     N 18Arv !
 PAR  L(ION,FE+2:TE-2,TE;0),,           -11094;,,                     N 18Arv !
 PAR  L(ION,FE+2:TE-2,TE;1),,           +690;,,                       N 18Arv !
 PAR  L(ION,FE+2:TE-2,TE;2),,           +7688;,,                      N 18Arv !
 PAR  L(ION,FE+2:TE,VA;0),,             +50*T;,,                      N 18Arv !
$
 PAR  L(FCC_A1,FE,TE:VA;0),,            +ZERO;,,                      N 18Arv !
 PAR  L(BCC_A2,FE,TE:VA;0),,            -22594;,,                     N 18Arv !
$
 PAR  G(FETE_C38,FE:TE:FE),,            +2*GHSERFE+GHSERTE+30715;,,   N 18Arv !
 PAR  G(FETE_C38,FE:TE:VA),,            -36525+230.496*T
             -46.536*T*LN(T)-0.01223*T**2+43100*T**(-1);,,            N 18Arv !
 PAR  L(FETE_C38,FE:TE:FE,VA;0),,       -118966+19.997*T;,,           N 18Arv !
 PAR  L(FETE_C38,FE:TE:FE,VA;1),,       -46154;,,                     N 18Arv !
$
 PAR  G(FETE_BETA_HT,FE:TE),,           +3*GHSERFE+2*GHSERTE
             -30174-31.442*T;,,                                       N 18Arv !
 PAR  L(FETE_BETA_HT,FE,VA:TE;0),,      -70216;,,                     N 18Arv !
 PAR  L(FETE_BETA_HT,FE,VA:TE;1),,      -20305;,,                     N 18Arv !
$
 PAR  G(FETE_GAMMA,FE:TE),,             +GHSERFE+1.183*GHSERTE
             -23492-17.005*T;,,                                       N 18Arv !
$
 PAR  G(FETE_DELTA,FE:FE:TE),,          +2*GHSERFE+2*GHSERTE
             -15417-47.631*T;,,                                       N 18Arv !
 PAR  G(FETE_DELTA,FE:VA:TE),,          +GHSERFE+2*GHSERTE
             -30222-21.517*T;,,                                       N 18Arv !
 PAR  G(FETE_DELTA,VA:FE:TE),,          +GHSERFE+2*GHSERTE
             -30222-21.517*T;,,                                       N 18Arv !
 PAR  L(FETE_DELTA,FE,VA:FE:TE;0),,     -55623+48.634*T;,,            N 18Arv !
 PAR  L(FETE_DELTA,FE,VA:FE:TE;1),,     -3328;,,                      N 18Arv !
 PAR  L(FETE_DELTA,FE:FE,VA:TE;0),,     -56003+48.551*T;,,            N 18Arv !
 PAR  L(FETE_DELTA,FE:FE,VA:TE;1),,     -5291;,,                      N 18Arv !
$
 PAR  G(FETE2_C18,FE:TE),,              -73469+318.524*T
             -63.9656*T*LN(T)-0.020402*T**2+107200*T**(-1);,,         N 18Arv !
 PAR  L(FETE2_C18,FE,VA:TE;0),,         +62432-71.949*T;,,            N 18Arv !
$ ------------------------------------------------------------------------------
$
$
 LIST-OF-REFERENCE
 NUMBER  SOURCE
  Null   'Unknown source'
  Same   'Same or similar interaction as in the corresponding stable phase'
  REFLAV 'Laves phase convention: G(LAVES,X:X)=+3*GHSERXX+15000'
  91Din  'A.T. Dinsdale, Calphad, 15, 317-425(1991).'
  95Dav  'A.V. Davydov, M.H. Rand, B.B. Argent, Calphad, 19, 375-87(1995),
          SGTE unary database V.3.0, 1996; Te'
  99SGUN 'SGTE unary database V.4.1, 1999.'
  18Arv  'C.-M. Arvhult, C. Gueneau, S. Gosse, M. Selleby,
          J. Alloys Compd., 767, 883-93(2018); Fe-Te'
!
