$
$ Database for Pd-Te from S. Gosse and C. Gueneau 2011.
$
$ S. Gosse, C. Gueneau, Intermetallics, 19, 621-29(2011).
$
$ Dataset created 2018.12.26 by Bengt Hallstedt.
$ 2021.02.03: Modified for use with GES6.
$
$ Old Te used.
$
$ Incorrect data for liquid Pd used in the paper. Liquidus temperatures
$ calculated with this dataset are higher than in the paper in the Pd-rich
$ part of the system. The eutectic with fcc-Pd is at 1081 K instead of 1053 K
$ and the congruent melting temperature of Pd8Te3 is at 1255 K instead of
$ 1177 K. Most other invariant equilibria differ by up to 2 or 3 K, probably
$ because of rounding errors.
$
$ ------------------------------------------------------------------------------
 TEMP-LIM 298.15 6000.00 !
$
$ELEMENT NAME  REF. STATE               ATOMIC MASS H298-H0    S298    !
$
 ELEMENT VA   VACUUM                      0.0          0.0      0.0    ! 
 ELEMENT PD   FCC_A1                    106.42      5468.488   37.8234 ! 
 ELEMENT TE   HEXAGONAL_A8              127.60      6080.      49.221  ! 
$ ------------------------------------------------------------------------------
$ Phase definitions
$
 PHASE LIQUID:L % 1 1 !
 CONST LIQUID:L : PD TE : !
$
$ Fcc (cF4, Fm-3m) and MeX (cF8, Fm-3m)
$
 PHASE FCC_A1 %A 2 1 1 !
 CONST FCC_A1 : PD% TE : VA : !
$
$ Bcc (cI2, Im-3m)
$
 PHASE BCC_A2 %B 2 1 3 !
 CONST BCC_A2 : PD : VA : !
$
$ Hcp (hP2, P6_3/mmc) and Me2X (NiAs-type, hP4, P6_3/mmc, B8_1)
$
 PHASE HCP_A3 %A 2 1 0.5 !
 CONST HCP_A3 : PD : VA : !
$
$ gamma-Se (hP3, P3_121)
$
 PHASE HEXAGONAL_A8 % 1 1 !
 CONST HEXAGONAL_A8 : TE : !
$
$ Prototype Pd17Te4 (cF120, Fd-3m)
$
 PHASE PD17TE4 % 2 17 4 !
 CONST PD17TE4 : PD : TE : !
$
$ Prototype W (cI2, Im-3m)
$
 PHASE PD3TE_A2 % 2 3 1 !
 CONST PD3TE_A2 : PD : TE : !
$
$ Prototype Pd20Sb7 (hR27, R-3)
$
 PHASE PD20TE7 % 2 20 7 !
 CONST PD20TE7 : PD : TE : !
$
$ Pearson oP*
$
 PHASE PD8TE3 % 2 8 3 !
 CONST PD8TE3 : PD% TE : TE : !
$
$ unknown structure
$
 PHASE PD7TE3 % 2 7 3 !
 CONST PD7TE3 : PD : TE : !
$
$ Prototype Pd9Te4 (mP52, P2_1/c)
$
 PHASE PD9TE4 % 2 9 4 !
 CONST PD9TE4 : PD : TE : !
$
$ Prototype Rh3Te2 (oC20, Cmcm)
$
 PHASE PD3TE2 % 2 3 2 !
 CONST PD3TE2 : PD : TE : !
$
$ Prototype NiAs (hP4, P6_3/mmc), PdTe
$ Prototype CdI2 (hP3, P-3m1), PdTe2
$
 PHASE PDTE_PDTE2 % 3 1 1 2 !
 CONST PDTE_PDTE2 : PD : PD VA : TE : !
$ ------------------------------------------------------------------------------
$ Defaults
$
 DEFINE-SYSTEM-DEFAULT ELEMENT 2 !
 DEFAULT-COM DEFINE_SYSTEM_ELEMENT VA !
 TYPE-DEF % SEQ * !
 TYPE-DEF A GES AMEND_PHASE_DESCRIPTION @ MAGNETIC -3 0.28 !
 TYPE-DEF B GES AMEND_PHASE_DESCRIPTION @ MAGNETIC -1 0.4 !
 FUNCTION ZERO      298.15  0;                                         6000 N !
 FUNCTION UN_ASS    298.15  0;                                         6000 N !
 FUNCTION R         298.15  +8.31451;                                  6000 N !
$ ------------------------------------------------------------------------------
$ Element data
$ ------------------------------------------------------------------------------
$ Pd
$
$ RHOMBOHEDRAL_A7 added in unary 5.0
$
 PAR  G(FCC_A1,PD:VA),,                 +GHSERPD;                4000 N 91Din !
 PAR  G(BCC_A2,PD:VA),,                 +GHSERPD+10500-1.8*T;    4000 N 91Din !
 PAR  G(HCP_A3,PD:VA),,                 +GHSERPD+2000+0.1*T;     4000 N 91Din !
$PAR  G(RHOMBOHEDRAL_A7,PD),,           +GHSERPD+4000;           4000 N 06Vre !
 PAR  G(LIQUID,PD),,                    +GLIQPD;                 4000 N 91Din !
$
 FUNCTION GHSERPD   298.15  -10204.027+176.076315*T-32.211*T*LN(T)
       +0.007120975*T**2-1.919875E-06*T**3+168687*T**(-1);
       900.00  Y  +917.062+49.659892*T-13.5708*T*LN(T)
       -0.00717522*T**2+1.91115E-07*T**3-1112465*T**(-1);
      1828.00  Y  -67161.018+370.102147*T-54.2067086*T*LN(T)
       +0.002091396*T**2-6.2811E-08*T**3+18683526*T**(-1);
      4000.00  N !
 FUNCTION GLIQPD    298.15  +11506.758-5.112162*T+GHSERPD;
       600.00  Y  +23405.778-116.918419*T+10.8922031*T*LN(T)
       -0.027266568*T**2+2.430675E-06*T**3-1853674*T**(-1);
      1828.00  Y  -12373.637+251.416903*T-41.17*T*LN(T);
      4000.00  N !
$ ------------------------------------------------------------------------------
$ Te
$
$ HEXAGONAL_A8 and LIQUID revised in unary 3.0
$
$ FCC_A1 from 11Gos not included in unary
$
$ Original 91Din for Te.
$
 PAR  G(HEXAGONAL_A8,TE),,              +GHSERTE;                2000 N 91Din !
 PAR  G(FCC_A1,TE:VA),,                 +GHSERTE+5000;           2000 N 11Gos !
 PAR  G(LIQUID,TE),,                    +GLIQTE;                 2000 N 91Din !
$
 PAR  G(PD8TE3,TE:TE),,                 +11*GHSERTE+55000;,,          N 11Gos !
$
 FUNCTION GHSERTE   298.15  -6677.083+85.019049*T-19.1003366*T*LN(T)
       -0.011050509*T**2;
       722.62  Y  -14523.09+210.012485*T-37.656*T*LN(T)+1.115711E+27*T**(-9);  
      2000.00  N !
 FUNCTION GLIQTE    298.15  +10545.373+61.250493*T-19.1003366*T*LN(T)
       -0.011050509*T**2-4.31543E-19*T**7;
       722.62  Y  +3173.436+185.555178*T-37.656*T*LN(T);
      2000.00  N !
$ ------------------------------------------------------------------------------
$ Binary system
$
$ S. Gosse, C. Gueneau, Intermetallics, 19, 621-29(2011).
$
$ Checked against paper. Checked at 6000 K.
$
$ Old Te used.
$
$ Incorrect data for liquid Pd used in the paper. Liquidus temperatures
$ calculated with this dataset are higher than in the paper in the Pd-rich
$ part of the system. The eutectic with fcc-Pd is at 1081 K instead of 1053 K
$ and the congruent melting temperature of Pd8Te3 is at 1255 K instead of
$ 1177 K. Most other invariant equilibria differ by up to 2 or 3 K, probably
$ because of rounding errors.
$
 PAR  L(LIQUID,PD,TE;0),,               -103120.2+13.76*T;,,          N 11Gos !
 PAR  L(LIQUID,PD,TE;1),,               -34898;,,                     N 11Gos !
 PAR  L(LIQUID,PD,TE;2),,               +5172.3;,,                    N 11Gos !
$
 PAR  L(FCC_A1,PD,TE:VA;0),,            -62096.4-30.72*T;,,           N 11Gos !
$
 PAR  G(PD17TE4,PD:TE),,                +17*GHSERPD+4*GHSERTE
             -267709.3-103.34*T;,,                                    N 11Gos !
 PAR  G(PD3TE_A2,PD:TE),,               +3*GHSERPD+GHSERTE
             -52557.1-34.72*T;,,                                      N 11Gos !
 PAR  G(PD20TE7,PD:TE),,                +20*GHSERPD+7*GHSERTE
             -390831.6-215.71*T;,,                                    N 11Gos !
$
 PAR  G(PD8TE3,PD:TE),,                 +8*GHSERPD+3*GHSERTE
             -135442.2-120.91*T;,,                                    N 11Gos !
 PAR  L(PD8TE3,PD,TE:TE;0),,            -128689.9-279.47*T;,,         N 11Gos !
$
 PAR  G(PD7TE3,PD:TE),,                 +7*GHSERPD+3*GHSERTE
             -156091-81.24*T;,,                                       N 11Gos !
 PAR  G(PD9TE4,PD:TE),,                 +9*GHSERPD+4*GHSERTE
             -180110-139.34*T;,,                                      N 11Gos !
 PAR  G(PD3TE2,PD:TE),,                 +3*GHSERPD+2*GHSERTE
             -91511.4-38.29*T;,,                                      N 11Gos !
$
 PAR  G(PDTE_PDTE2,PD:PD:TE),,          +2*GHSERPD+2*GHSERTE
             -83856.6-27.68*T;,,                                      N 11Gos !
 PAR  G(PDTE_PDTE2,PD:VA:TE),,          +GHSERPD+2*GHSERTE
             -71835.1-4.65*T;,,                                       N 11Gos !
 PAR  L(PDTE_PDTE2,PD:PD,VA:TE;0),,     +61539.3-50.73*T;,,           N 11Gos !
 PAR  L(PDTE_PDTE2,PD:PD,VA:TE;1),,     +16312.8-27.27*T;,,           N 11Gos !
$ ------------------------------------------------------------------------------
$
$
 LIST-OF-REFERENCE
 NUMBER  SOURCE
  Null   'Unknown source'
  Same   'Same or similar interaction as in the corresponding stable phase'
  COST   'COST 507 database'
  91Din  'A.T. Dinsdale, Calphad, 15, 317-425(1991).'
  06Vre  'J. Vrestal, J. Pinkas, A. Watson, A. Scott, J. Houserova, A. Kroupa,
          Calphad, 30, 14-17(2006), SGTE unary database V.5.0, 2009; Pd'
  11Gos  'S. Gosse, C. Gueneau, Intermetallics, 19, 621-29(2011); Te, Pd-Te'
!
