$
$ Database for Mn-Tm from H. Ye et al. 2024.
$
$ H. Ye, J. Wang, Q. Chen, G. Rao, H. Zhou,
$ Mater. Genome Eng. Adv., 2, 39(2024).
$
$ Dataset created 2024.07.25 by Bengt Hallstedt.
$
$ ------------------------------------------------------------------------------
 TEMP-LIM 298.15 6000.00 !
$
$ELEMENT NAME  REF. STATE               ATOMIC MASS H298-H0    S298    !
$
 ELEMENT VA   VACUUM                      0.0          0.0      0.0    ! 
 ELEMENT MN   CBCC_A12                   54.9380    4995.696   32.2206 ! 
 ELEMENT TM   HCP_A3                    168.9342    7397.312   74.01496! 
$ ------------------------------------------------------------------------------
$ Phase definitions
$
 PHASE LIQUID:L % 1 1 !
 CONST LIQUID:L : MN TM : !
$
$ Fcc (cF4, Fm-3m) and MeX (cF8, Fm-3m)
$
 PHASE FCC_A1 %A 2 1 1 !
 CONST FCC_A1 : MN : VA : !
$
$ Bcc (cI2, Im-3m)
$
 PHASE BCC_A2 %B 2 1 3 !
 CONST BCC_A2 : MN : VA : !
$
$ Hcp (hP2, P6_3/mmc) and Me2X (NiAs-type, hP4, P6_3/mmc, B8_1)
$
 PHASE HCP_A3 %A 2 1 0.5 !
 CONST HCP_A3 : MN TM% : VA : !
$
$ Prototype alpha-Mn (cI58, I-43m)
$
 PHASE CBCC_A12 %A 2 1 1 !
 CONST CBCC_A12 : MN : VA : !
$
$ Prototype beta-Mn (cP20, P4_132)
$
 PHASE CUB_A13 % 2 1 1 !
 CONST CUB_A13 : MN : VA : !
$
$ Prototype Mn12Th (tI26, I4/mmm)
$
 PHASE MN12TM_D2B % 2 12 1 !
 CONST MN12TM_D2B : MN : TM : !
$
$ Prototype Mn23Th6 (cF116, Fm-3m)
$
 PHASE MN23TM6_D8A % 2 23 6 !
 CONST MN23TM6_D8A : MN : TM : !
$
$ Prototype MgZn2 (hP12, P6_3/mmc)
$
 PHASE MN2TM_C14 % 2 2 1 !
 CONST MN2TM_C14 : MN : TM : !
$ ------------------------------------------------------------------------------
$ Defaults
$
 DEFINE-SYSTEM-DEFAULT ELEMENT 2 !
 DEFAULT-COM DEFINE_SYSTEM_ELEMENT VA !
 TYPE-DEF % SEQ * !
 TYPE-DEF A GES AMEND_PHASE_DESCRIPTION @ MAGNETIC -3 0.28 !
 TYPE-DEF B GES AMEND_PHASE_DESCRIPTION @ MAGNETIC -1 0.4 !
 FUNCTION ZERO      298.15  0;                                         6000 N !
 FUNCTION UN_ASS    298.15  0;                                         6000 N !
$ ------------------------------------------------------------------------------
$ Element data
$ ------------------------------------------------------------------------------
$ Mn
$
 PAR  G(CBCC_A12,MN:VA),,               +GHSERMN;                2000 N 91Din !
 PAR  TC(CBCC_A12,MN:VA),,               -285.00;                2000 N 91Din !
 PAR  BMAG(CBCC_A12,MN:VA),,               -0.66;                2000 N 91Din !
 PAR  G(CUB_A13,MN:VA),,                +GCUBMN;                 2000 N 91Din !
 PAR  G(FCC_A1,MN:VA),,                 +GFCCMN;                 2000 N 91Din !
 PAR  TC(FCC_A1,MN:VA),,                -1620.00;                2000 N 91Din !
 PAR  BMAG(FCC_A1,MN:VA),,                 -1.86;                2000 N 91Din !
 PAR  G(BCC_A2,MN:VA),,                 +GBCCMN;                 2000 N 91Din !
 PAR  TC(BCC_A2,MN:VA),,                 -580.00;                2000 N 91Din !
 PAR  BMAG(BCC_A2,MN:VA),,                 -0.27;                2000 N 91Din !
 PAR  G(HCP_A3,MN:VA),,                 +GHCPMN;                 2000 N 91Din !
 PAR  TC(HCP_A3,MN:VA),,                -1620.00;                2000 N 91Din !
 PAR  BMAG(HCP_A3,MN:VA),,                 -1.86;                2000 N 91Din !
 PAR  G(LIQUID,MN),,                    +GLIQMN;                 2000 N 91Din !
$
 FUNCTION GHSERMN   298.15  -8115.28+130.059*T-23.4582*T*LN(T)
       -0.00734768*T**2+69827*T**(-1);
      1519.00  Y  -28733.41+312.2648*T-48*T*LN(T)+1.656847E+30*T**(-9);
      2000.00  N !
 FUNCTION GCUBMN    298.15  -5800.4+135.995*T-24.8785*T*LN(T)
       -0.00583359*T**2+70269*T**(-1);
      1519.00  Y  +442.65-0.9715*T+GHSERMN+2.310723E+30*T**(-9);
      2000.00  N !
 FUNCTION GFCCMN    298.15  -3439.3+131.884*T-24.5177*T*LN(T)
       -0.006*T**2+69600*T**(-1);
      1519.00  Y  +2663.31-2.5984*T+GHSERMN+2.205113E+30*T**(-9);
      2000.00  N !
 FUNCTION GBCCMN    298.15  -3235.3+127.85*T-23.7*T*LN(T)
       -0.00744271*T**2+60000*T**(-1);
      1519.00  Y  +5544.58-4.5605*T+GHSERMN-3.91695E+29*T**(-9);
      2000.00  N !
 FUNCTION GHCPMN    298.15  -4439.3+133.007*T-24.5177*T*LN(T)
       -0.006*T**2+69600*T**(-1);
      1519.00  Y  +1663.31-1.4754*T+GHSERMN+2.205113E+30*T**(-9);
      2000.00  N !
 FUNCTION GLIQMN    298.15  +17859.91-12.6208*T+GHSERMN-4.41929E-21*T**7;
      1519.00  Y  -9993.9+299.036*T-48*T*LN(T);
      2000.00  N !
$ ------------------------------------------------------------------------------
$ Tm
$
 PAR  G(HCP_A3,TM:VA),,                 +GHSERTM;                2300 N 91Din !
 PAR  G(LIQUID,TM),,                    +GLIQTM;                 2300 N 91Din !
$
 FUNCTION GHSERTM   298.15  -10016.715+151.037648*T-34.3664974*T*LN(T)
       +0.012110965*T**2-3.831156E-06*T**3+95982*T**(-1);
       700.00  Y  -14701.965+147.957496*T-32.1951269*T*LN(T)
       +4.44753E-04*T**2-3.96694E-07*T**3+1091664*T**(-1);
      1600.00  Y  -8669.227+97.98144*T-25.1816969*T*LN(T)-0.003384563*T**2;
      1818.00  Y  +727125.608-4147.40063*T+534.082763*T*LN(T)
       -0.19093039*T**2+1.1689185E-05*T**3-1.8038222E+08*T**(-1);
      2300.00  N !
 FUNCTION GLIQTM    298.15  +13199.249-6.557671*T+GHSERTM;
       600.00  Y  +22640.028-126.738485*T+6.8744933*T*LN(T)
       -0.025487085*T**2+2.288172E-06*T**3-1585412*T**(-1);
      1818.00  Y  -10090.305+214.184413*T-41.37976*T*LN(T);
      2300.00  N !
$ ------------------------------------------------------------------------------
$ Binary system
$
$ H. Ye, J. Wang, Q. Chen, G. Rao, H. Zhou,
$ Mater. Genome Eng. Adv., 2, 39(2024).
$
$ Checked against paper. Checked at 6000 K.
$
 PAR  L(LIQUID,MN,TM;0),,               -20600.2383+4.8*T;,,          N 24Ye !
 PAR  L(LIQUID,MN,TM;1),,               -10260.0937-2.6*T;,,          N 24Ye !
 PAR  L(LIQUID,MN,TM;2),,               +1300;,,                      N 24Ye !
$
 PAR  L(HCP_A3,MN,TM:VA;0),,            +80000;,,                     N 24Ye !
$
 PAR  G(MN12TM_D2B,MN:TM),,             +12*GHSERMN+GHSERTM
             -18000-24*T;,,                                           N 24Ye !
 PAR  G(MN23TM6_D8A,MN:TM),,            +23*GHSERMN+6*GHSERTM
             -96000-115*T;,,                                          N 24Ye !
 PAR  G(MN2TM_C14,MN:TM),,              +2*GHSERMN+GHSERTM
             -9300-16*T;,,                                            N 24Ye !
$ ------------------------------------------------------------------------------
$
$
 LIST-OF-REFERENCE
 NUMBER  SOURCE
  Null   'Unknown source'
  REFLAV 'Laves phase convention: G(LAVES,X:X)=+3*GHSERXX+15000'
  91Din  'A.T. Dinsdale, Calphad, 15, 317-425(1991).'
  24Ye   'H. Ye, J. Wang, Q. Chen, G. Rao, H. Zhou,
          Mater. Genome Eng. Adv., 2, 39(2024); Mn-Tm'
!
