$
$ Database for Ir-Ni from J. Korb 2004 (Included in LB Vol. 5)
$
$ J. Korb, unpublished work, GTT, 2004.
$
$ Dataset created 2016.02.27 by Bengt Hallstedt.
$ 2021.01.17: Modified for use with GES6.
$
$ ------------------------------------------------------------------------------
 TEMP-LIM 298.15 6000.00 !
$
$ELEMENT NAME  REF. STATE               ATOMIC MASS H298-H0    S298    !
$
 ELEMENT VA   VACUUM                      0.0          0.0      0.0    ! 
 ELEMENT IR   FCC_A1                    192.22      5267.656   35.5054 ! 
 ELEMENT NI   FCC_A1                     58.69      4787.0     29.7955 ! 
$ ------------------------------------------------------------------------------
$ Phase definitions
$
 PHASE LIQUID:L % 1 1 !
 CONST LIQUID:L : IR NI : !
$
$ Fcc (cF4, Fm-3m) and MeX (cF8, Fm-3m)
$
 PHASE FCC_A1 %A 2 1 1 !
 CONST FCC_A1 : IR NI : VA : !
$
$ Bcc (cI2, Im-3m)
$
 PHASE BCC_A2 %B 2 1 3 !
 CONST BCC_A2 : IR NI : VA : !
$
$ Hcp (hP2, P6_3/mmc) and Me2X (NiAs-type, hP4, P6_3/mmc, B8_1)
$
 PHASE HCP_A3 %A 2 1 0.5 !
 CONST HCP_A3 : IR NI : VA : !
$ ------------------------------------------------------------------------------
$ Defaults
$
 DEFINE-SYSTEM-DEFAULT ELEMENT 2 !
 DEFAULT-COM DEFINE_SYSTEM_ELEMENT VA !
 TYPE-DEF % SEQ * !
 TYPE-DEF A GES AMEND_PHASE_DESCRIPTION @ MAGNETIC -3 0.28 !
 TYPE-DEF B GES AMEND_PHASE_DESCRIPTION @ MAGNETIC -1 0.4 !
 FUNCTION ZERO      298.15  0;                                         6000 N !
 FUNCTION UN_ASS    298.15  0;                                         6000 N !
 FUNCTION R         298.15  +8.31451;                                  6000 N !
$ ------------------------------------------------------------------------------
$ Element data
$ ------------------------------------------------------------------------------
$ Ir
$
 PAR  G(FCC_A1,IR:VA),,                 +GHSERIR;                4000 N 91Din !
 PAR  G(BCC_A2,IR:VA),,                 +GHSERIR+32000-6.9*T;    4000 N 91Din !
 PAR  G(HCP_A3,IR:VA),,                 +GHSERIR+4000-0.6*T;     4000 N 91Din !
 PAR  G(LIQUID,IR),,                    +GLIQIR;                 4000 N 91Din !
$
 FUNCTION GHSERIR   298.15  -6936.288+118.780119*T-22.7944*T*LN(T)
       -0.003091976*T**2-20083*T**(-1);
      1215.00  Y  -8123.73+140.066697*T-26.085*T*LN(T)-4.7969E-07*T**3;
      2719.00  Y  +290529.037-1258.35297*T+152.498874*T*LN(T)
       -0.047176402*T**2+1.844977E-06*T**3-92987250*T**(-1);
      4000.00  N !
 FUNCTION GLIQIR    298.15  +23455.244-6.312059*T+GHSERIR;
      1000.00  Y  +102217.789-587.632815*T+73.9517579*T*LN(T)
       -0.04638802*T**2+2.761831E-06*T**3-13382612*T**(-1);
      2719.00  Y  -38347.217+411.234043*T-59.418*T*LN(T);
      4000.00  N !
 FUNCTION GBCCIR    298.15  +GHSERIR+32000-6.9*T;                      4000 N !
$ ------------------------------------------------------------------------------
$ Ni
$
$ FCC_A1 and LIQUID modified in unary 5.0 (slight change in upper T interval)
$ BCT_A5 added in unary 5.0
$
 PAR  G(FCC_A1,NI:VA),,                 +GHSERNI;                3000 N 91Din !
 PAR  TC(FCC_A1,NI:VA),,                  633.00;                3000 N 91Din !
 PAR  BM(FCC_A1,NI:VA),,                    0.52;                3000 N 91Din !
 PAR  G(BCC_A2,NI:VA),,                 +GHSERNI
             +8715.084-3.556*T;                                  3000 N 91Din !
 PAR  TC(BCC_A2,NI:VA),,                  575.00;                3000 N 91Din !
 PAR  BM(BCC_A2,NI:VA),,                    0.85;                3000 N 91Din !
 PAR  G(HCP_A3,NI:VA),,                 +GHSERNI+1046+1.255*T;   3000 N 91Din !
 PAR  TC(HCP_A3,NI:VA),,                  633.00;                3000 N 91Din !
 PAR  BM(HCP_A3,NI:VA),,                    0.52;                3000 N 91Din !
$PAR  G(BCT_A5,NI),,                    +GHSERNI+10023-4.556*T;  3000 N 99Gho !
$PAR  G(CBCC_A12,NI:VA),,               +GHSERNI+3556;           3000 N 91Din !
$PAR  G(CUB_A13,NI:VA),,                +GHSERNI+2092;           3000 N 91Din !
 PAR  G(LIQUID,NI),,                    +GLIQNI;                 3000 N 91Din !
$
 FUNCTION GHSERNI   298.15  -5179.159+117.854*T-22.096*T*LN(T)-0.0048407*T**2;
      1728.00  Y  -27840.62+279.134977*T-43.1*T*LN(T)+1.12754E+31*T**(-9);
      3000.00  N !
 FUNCTION GLIQNI    298.15  +16414.686-9.397*T+GHSERNI-3.82318E-21*T**7;
      1728.00  Y  -9549.817+268.597977*T-43.1*T*LN(T);
      3000.00  N !
 FUNCTION GBCCNI    298.15  +GHSERNI+8715.084-3.556*T;                 3000 N !
$ ------------------------------------------------------------------------------
$ Binary system
$
$ From J. Korb 2004 (Included in LB Vol. 5)
$
$ J. Korb, unpublished work, GTT, 2004.
$
$ Checked against LB. Checked at 6000K.
$
 PAR  L(LIQUID,IR,NI;0),,               -556.664;,,                   N 04Kor !
$
 PAR  G(FCC_A1,IR,NI:VA;0),,            +1460.07;,,                   N 04Kor !
$
$ Metastable
$
 PAR  G(BCC_A2,IR,NI:VA;0),,            +1460.07;,,                   N Same !
 PAR  G(HCP_A3,IR,NI:VA;0),,            +1460.07;,,                   N Same !
$ ------------------------------------------------------------------------------
$
 ASSESSED_SYSTEM
  IR-NI(TDB -* +LIQUID +FCC_A1 ;P3 *) !
$
$
 LIST-OF-REFERENCE
 NUMBER  SOURCE
  Null   'Unknown source'
  Same   'Same or similar interaction as in the corresponding stable phase'
  REFLAV 'Laves phase convention: G(LAVES,X:X)=+3*GHSERXX+15000'
  COST   'COST 507 database'
  91Din  'A.T. Dinsdale, Calphad, 15, 317-425(1991).'
  99Gho  'G. Ghosh, Metall. Mater. Trans. A, 30A, 1481-94(1999),
          SGTE unary database V.5.0, 2009; Ni'
  04Kor  'J. Korb, unpublished work, GTT, 2004; Ir-Ni'
!
