$
$ Database for Mn-P from T. Tokunaga et al. 2007.
$
$ T. Tokunaga, N. Hanaya, H. Ohtani, M. Hasebe,
$ Mater. Sci. Forum, 561-565, 1899-1902(2007).
$
$ Dataset created 2018.01.16 by Bengt Hallstedt.
$ 2021.01.30: Modified for use with GES6.
$
$ No interactions for fcc, bcc, cbcc-A12 or cub-A13 in the paper.
$
$ ------------------------------------------------------------------------------
 TEMP-LIM 298.15 6000.00 !
$
$ELEMENT NAME  REF. STATE               ATOMIC MASS H298-H0    S298    !
$
 ELEMENT VA   VACUUM                      0.0          0.0      0.0    ! 
 ELEMENT MN   CBCC_A12                   54.9380    4995.696   32.2206 ! 
 ELEMENT P    WHITE_P                    30.97376   5360.0     41.09   ! 
$ ------------------------------------------------------------------------------
$ Phase definitions
$
 PHASE LIQUID:L % 1 1 !
 CONST LIQUID:L : MN P : !
$
$ Fcc (cF4, Fm-3m) and MeX (cF8, Fm-3m)
$
 PHASE FCC_A1 %A 2 1 1 !
 CONST FCC_A1 : MN P : VA : !
$
$ Bcc (cI2, Im-3m)
$
 PHASE BCC_A2 %B 2 1 3 !
 CONST BCC_A2 : MN P : VA : !
$
$ Hcp (hP2, P6_3/mmc) and Me2X (NiAs-type, hP4, P6_3/mmc, B8_1)
$
 PHASE HCP_A3 %A 2 1 0.5 !
 CONST HCP_A3 : MN : VA : !
$
$ Prototype alpha-Mn (cI58, I-43m)
$
 PHASE CBCC_A12 %A 2 1 1 !
 CONST CBCC_A12 : MN P : VA : !
$
$ Prototype beta-Mn (cP20, P4_132)
$
 PHASE CUB_A13 % 2 1 1 !
 CONST CUB_A13 : MN P : VA : !
$
$ Structure not well defined
$
 PHASE WHITE_P % 1 1 !
 CONST WHITE_P : P : !
$
$ Structure not well defined
$
 PHASE RED_P % 1 1 !
 CONST RED_P : P : !
$
$ Prototype Ni3P (tI32, I-4)
$
 PHASE MN3P_D0E % 2 3 1 !
 CONST MN3P_D0E : MN : P : !
$
$ Prototype Fe2P (hP9, P-62m)
$
 PHASE MN2P_C22 % 2 2 1 !
 CONST MN2P_C22 : MN : P : !
$
$ unknown structure
$
 PHASE MN3P2 % 2 3 2 !
 CONST MN3P2 : MN : P : !
$
$ Prototype MnP (oP8, Pnma)
$
 PHASE MNP_B31 % 2 1 1 !
 CONST MNP_B31 : MN : P : !
$
$ Prototype MnP4 (aP10, P-1, 2)
$
 PHASE MNP4 % 2 1 4 !
 CONST MNP4 : MN : P : !
$ ------------------------------------------------------------------------------
$ Defaults
$
 DEFINE-SYSTEM-DEFAULT ELEMENT 2 !
 DEFAULT-COM DEFINE_SYSTEM_ELEMENT VA !
 TYPE-DEF % SEQ * !
 TYPE-DEF A GES AMEND_PHASE_DESCRIPTION @ MAGNETIC -3 0.28 !
 TYPE-DEF B GES AMEND_PHASE_DESCRIPTION @ MAGNETIC -1 0.4 !
 FUNCTION ZERO      298.15  0;                                         6000 N !
 FUNCTION UN_ASS    298.15  0;                                         6000 N !
$ ------------------------------------------------------------------------------
$ Element data
$ ------------------------------------------------------------------------------
$ Mn
$
 PAR  G(CBCC_A12,MN:VA),,               +GHSERMN;                2000 N 91Din !
 PAR  TC(CBCC_A12,MN:VA),,               -285.00;                2000 N 91Din !
 PAR  BM(CBCC_A12,MN:VA),,                 -0.66;                2000 N 91Din !
 PAR  G(CUB_A13,MN:VA),,                +GCUBMN;                 2000 N 91Din !
 PAR  G(FCC_A1,MN:VA),,                 +GFCCMN;                 2000 N 91Din !
 PAR  TC(FCC_A1,MN:VA),,                -1620.00;                2000 N 91Din !
 PAR  BM(FCC_A1,MN:VA),,                   -1.86;                2000 N 91Din !
 PAR  G(BCC_A2,MN:VA),,                 +GBCCMN;                 2000 N 91Din !
 PAR  TC(BCC_A2,MN:VA),,                 -580.00;                2000 N 91Din !
 PAR  BM(BCC_A2,MN:VA),,                   -0.27;                2000 N 91Din !
 PAR  G(HCP_A3,MN:VA),,                 +GHCPMN;                 2000 N 91Din !
 PAR  TC(HCP_A3,MN:VA),,                -1620.00;                2000 N 91Din !
 PAR  BM(HCP_A3,MN:VA),,                   -1.86;                2000 N 91Din !
 PAR  G(LIQUID,MN),,                    +GLIQMN;                 2000 N 91Din !
$
 FUNCTION GHSERMN   298.15  -8115.28+130.059*T-23.4582*T*LN(T)
       -0.00734768*T**2+69827*T**(-1);
      1519.00  Y  -28733.41+312.2648*T-48*T*LN(T)+1.656847E+30*T**(-9);
      2000.00  N !
 FUNCTION GCUBMN    298.15  -5800.4+135.995*T-24.8785*T*LN(T)
       -0.00583359*T**2+70269*T**(-1);
      1519.00  Y  +442.65-0.9715*T+GHSERMN+2.310723E+30*T**(-9);
      2000.00  N !
 FUNCTION GFCCMN    298.15  -3439.3+131.884*T-24.5177*T*LN(T)
       -0.006*T**2+69600*T**(-1);
      1519.00  Y  +2663.31-2.5984*T+GHSERMN+2.205113E+30*T**(-9);
      2000.00  N !
 FUNCTION GBCCMN    298.15  -3235.3+127.85*T-23.7*T*LN(T)
       -0.00744271*T**2+60000*T**(-1);
      1519.00  Y  +5544.58-4.5605*T+GHSERMN-3.91695E+29*T**(-9);
      2000.00  N !
 FUNCTION GHCPMN    298.15  -4439.3+133.007*T-24.5177*T*LN(T)
       -0.006*T**2+69600*T**(-1);
      1519.00  Y  +1663.31-1.4754*T+GHSERMN+2.205113E+30*T**(-9);
      2000.00  N !
 FUNCTION GLIQMN    298.15  +17859.91-12.6208*T+GHSERMN-4.41929E-21*T**7;
      1519.00  Y  -9993.9+299.036*T-48*T*LN(T);
      2000.00  N !
$ ------------------------------------------------------------------------------
$ P
$
$ RHOMBOHEDRAL_A7 added in unary 4.4
$
$ CBCC_A12 and CUB_A13 from 01Mie not included in unary
$
 PAR  G(WHITE_P,P)              250.00  +GHSERPP;                3000 N 91Din !
 PAR  G(RED_P,P)                250.00  +GREDPP;                 3000 N 91Din !
 PAR  G(FCC_A1,P:VA)            250.00  +GREDPP+36819-13.138*T;  3000 N 91Din !
 PAR  G(BCC_A2,P:VA)            250.00  +GREDPP+44768.8-13.26*T; 3000 N 91Din !
$PAR  G(RHOMBOHEDRAL_A7,P)      250.00  +GHSERPP-188+0.12527*T;  3000 N 01SGUN !
 PAR  G(CBCC_A12,P:VA)          250.00  +GHSERPP+30000;          3000 N 01Mie !
 PAR  G(CUB_A13,P:VA)           250.00  +GHSERPP+30000;          3000 N 01Mie !
 PAR  G(LIQUID,P)               250.00  +GLIQPP;                 3000 N 91Din !
$
 FUNCTION GHSERPP   250.00  -43821.799+1026.69389*T-178.426*T*LN(T)
       +0.290708*T**2-1.04022667E-04*T**3+1632695*T**(-1);
       317.30  Y  -9587.448+152.341487*T-28.7335301*T*LN(T)
       +0.001715669*T**2-2.2829E-07*T**3+172966*T**(-1);
      1000.00  Y  -8093.075+135.876831*T-26.326*T*LN(T);
      3000.00  N !
 FUNCTION GREDPP    250.00  -25976.559+148.672002*T-25.55*T*LN(T)
       +0.0034121*T**2-2.418867E-06*T**3+160095*T**(-1);
       500.00  Y  -21723.721+77.671737*T-14.368*T*LN(T)
       -0.00957685*T**2+3.93917E-07*T**3-141375*T**(-1);
       852.35  Y  -119408.413+1026.02962*T-149.449556*T*LN(T)
       +0.067272364*T**2-6.651929E-06*T**3+12495943*T**(-1);
      1500.00  Y  -16431.044+17.96235*T+GHSERPP;
      3000.00  N !
 FUNCTION GLIQPP    250.00  -26316.111+434.930931*T-70.7440584*T*LN(T)
       -0.002898936*T**2+3.9049371E-05*T**3+1141147*T**(-1);
       317.30  Y  -7232.449+133.291873*T-26.326*T*LN(T);
      3000.00  N !
$ ------------------------------------------------------------------------------
$ Binary system
$
$ T. Tokunaga, N. Hanaya, H. Ohtani, M. Hasebe,
$ Mater. Sci. Forum, 561-565, 1899-1902(2007).
$
$ Checked against paper. Checked at 6000 K.
$
$ No interactions for fcc, bcc, cbcc-A12 or cub-A13 in the paper.
$
 PAR  L(LIQUID,MN,P;0),,                -267000+60.56*T;,,            N 07Tok !
 PAR  L(LIQUID,MN,P;1),,                +13520;,,                     N 07Tok !
 PAR  L(LIQUID,MN,P;2),,                +31800;,,                     N 07Tok !
$
 PAR  L(FCC_A1,MN,P:VA;0),,             -68200;,,                     N 01Mie !
 PAR  L(BCC_A2,MN,P:VA;0),,             -68200;,,                     N 01Mie !
 PAR  L(CBCC_A12,MN,P:VA;0),,           -68200;,,                     N 01Mie !
 PAR  L(CUB_A13,MN,P:VA;0),,            -68200;,,                     N 01Mie !
$
 PAR  G(MN3P_D0E,MN:P),,                +3*GHSERMN+GHSERPP
             -200800+33.8*T;,,                                        N 07Tok !
 PAR  G(MN2P_C22,MN:P),,                +2*GHSERMN+GHSERPP
             -180000+23.96*T;,,                                       N 07Tok !
 PAR  G(MN3P2,MN:P),,                   +3*GHSERMN+2*GHSERPP
             -344060+62.08*T;,,                                       N 07Tok !
 PAR  G(MNP_B31,MN:P),,                 +GHSERMN+GHSERPP
             -166000+39.66*T;,,                                       N 07Tok !
 PAR  G(MNP4,MN:P),,                    +GHSERMN+4*GHSERPP
             -432000+160*T;,,                                         N 07Tok !
$ ------------------------------------------------------------------------------
$
$
 LIST-OF-REFERENCE
 NUMBER  SOURCE
  Null   'Unknown source'
  91Din  'A.T. Dinsdale, Calphad, 15, 317-425(1991).'
  01Mie  'J. Miettinen, Calphad, 25, 43-58(2001); Mn-P'
  01SGUN 'SGTE unary database V.4.4, 2001.'
  07Tok  'T. Tokunaga, N. Hanaya, H. Ohtani, M. Hasebe,
          Mater. Sci. Forum, 561-565, 1899-1902(2007); Mn-P'
!
