$
$ Database for Mn-Ni from S.H. Liu 2008.
$
$ S.H. Liu, Master Thesis, CSU, 2008.
$
$ Dataset created 2019.06.12 by Bengt Hallstedt.
$ 2021.01.30: Modified for use with GES6.
$
$ Parameters are taken from a tdb provided as supplementary material by
$ B. Hu et al. (Calphad, 35, 346-54(2011)).
$
$ The L1_2/L1_0 ordering scheme from 07Fra was used, but with new parameter
$ values.
$
$ L(L10_SOLO,MN,NI:MN,NI;0) misprinted as L(L10_SOLO,MN,NI:MN,NI;1) in the
$ tdb from Hu et al. Changes in the phase diagram are not visible.
$
$ Separate 2SL models for MnNi-L1_0 (monolithic) and MnNi3_L1_2 (add on),
$ converted from a 4SL model.
$
$ The existence of the MnNi2 compound has been questioned.
$
$ The fraction of Va in B2 has decreased (due to G(A2_BCC,VA:VA)). This makes
$ B2 slightly less stable and the B2/A1 congruent transition decreases by
$ about 5 K.
$
$ There seems to be a magnetic miscibility gap (with Nishizawa horn) in the
$ fcc phase on the Ni-rich side below about 500 K. For some reason it
$ continues as a very thin miscibility gap up to the solidus.
$
$ ------------------------------------------------------------------------------
 TEMP-LIM 298.15 6000.00 !
$
$ELEMENT NAME  REF. STATE               ATOMIC MASS H298-H0    S298    !
$
 ELEMENT VA   VACUUM                      0.0          0.0      0.0    ! 
 ELEMENT MN   CBCC_A12                   54.9380    4995.696   32.2206 ! 
 ELEMENT NI   FCC_A1                     58.69      4787.0     29.7955 ! 
$ ------------------------------------------------------------------------------
$ Phase definitions
$
 PHASE LIQUID:L % 1 1 !
 CONST LIQUID:L : MN NI : !
$
$ Fcc (cF4, Fm-3m) and MeX (cF8, Fm-3m)
$
 PHASE FCC_A1 %A 2 1 1 !
 CONST FCC_A1 : MN% NI% : VA : !
$
$ Disordered part of L102_FCC, identical to FCC_A1
$
 PHASE A1_FCC %A 2 1 1 !
 CONST A1_FCC : MN NI : VA : !
$
$ Prototype AuCu3 (cP4, Pm-3m, L1_2)
$
 PHASE L12_FCC %AY 3 0.75 0.25 1 !
 CONST L12_FCC : MN NI : MN NI : VA :  !
$
$ Prototype AuCu (tP4, P4/mmm, L1_0)
$
 PHASE L10_SOLO %A 2 0.5 0.5 !
 CONST L10_SOLO : MN NI : MN NI :  !
$
$ Bcc (cI2, Im-3m)
$
 PHASE BCC_A2 %B 2 1 3 !
 CONST BCC_A2 : MN% NI : VA : !
$
$ Disordered part of B2_BCC, identical to BCC_A2 (except Va)
$
 PHASE A2_BCC %B 2 1 3 !
 CONST A2_BCC : MN NI VA : VA : !
$
$ Prototype CsCl (cP2, Pm-3m)
$
 PHASE B2_BCC %BO 3 0.5 0.5 3 !
 CONST B2_BCC : MN% NI VA : MN NI% VA : VA : !
$
$ Hcp (hP2, P6_3/mmc) and Me2X (NiAs-type, hP4, P6_3/mmc, B8_1)
$
 PHASE HCP_A3 % 2 1 0.5 !
 CONST HCP_A3 : MN NI : VA : !
$
$ Prototype alpha-Mn (cI58, I-43m)
$
 PHASE CBCC_A12 % 2 1 1 !
 CONST CBCC_A12 : MN% NI : VA : !
$
$ Prototype beta-Mn (cP20, P4_132)
$
 PHASE CUB_A13 % 2 1 1 !
 CONST CUB_A13 : MN% NI : VA : !
$
$ unknown structure
$
 PHASE MNNI2 % 2 1 2 !
 CONST MNNI2 : MN NI : NI :  !
$ ------------------------------------------------------------------------------
$ Defaults
$
 DEFINE-SYSTEM-DEFAULT ELEMENT 2 !
 DEFAULT-COM DEFINE_SYSTEM_ELEMENT VA !
 DEFAULT-COM REJECT_PHASE FCC_A1 BCC_A2 !
 TYPE-DEF % SEQ * !
 TYPE-DEF A GES AMEND_PHASE_DESCRIPTION @ MAGNETIC -3 0.28 !
 TYPE-DEF B GES AMEND_PHASE_DESCRIPTION @ MAGNETIC -1 0.4 !
 TYPE-DEF O GES AMEND_PHASE_DESCRIPTION B2_BCC DIS_PART A2_BCC !
 TYPE-DEF Y GES AMEND_PHASE_DESCRIPTION L12_FCC DIS_PART A1_FCC !
 FUNCTION ZERO      298.15  0;                                         6000 N !
 FUNCTION UN_ASS    298.15  0;                                         6000 N !
 FUNCTION R         298.15  +8.31451;                                  6000 N !
$ ------------------------------------------------------------------------------
$ Element data
$ ------------------------------------------------------------------------------
$ Mn
$
 PAR  G(CBCC_A12,MN:VA),,               +GHSERMN;                2000 N 91Din !
 PAR  TC(CBCC_A12,MN:VA),,               -285.00;                2000 N 91Din !
 PAR  BM(CBCC_A12,MN:VA),,                 -0.66;                2000 N 91Din !
 PAR  G(CUB_A13,MN:VA),,                +GCUBMN;                 2000 N 91Din !
 PAR  G(FCC_A1,MN:VA),,                 +GFCCMN;                 2000 N 91Din !
 PAR  TC(FCC_A1,MN:VA),,                -1620.00;                2000 N 91Din !
 PAR  BM(FCC_A1,MN:VA),,                   -1.86;                2000 N 91Din !
 PAR  G(A1_FCC,MN:VA),,                 +GFCCMN;                 2000 N 91Din !
 PAR  TC(A1_FCC,MN:VA),,                -1620.00;                2000 N 91Din !
 PAR  BM(A1_FCC,MN:VA),,                   -1.86;                2000 N 91Din !
 PAR  G(BCC_A2,MN:VA),,                 +GBCCMN;                 2000 N 91Din !
 PAR  TC(BCC_A2,MN:VA),,                 -580.00;                2000 N 91Din !
 PAR  BM(BCC_A2,MN:VA),,                   -0.27;                2000 N 91Din !
 PAR  G(A2_BCC,MN:VA),,                 +GBCCMN;                 2000 N 91Din !
 PAR  TC(A2_BCC,MN:VA),,                 -580.00;                2000 N 91Din !
 PAR  BM(A2_BCC,MN:VA),,                   -0.27;                2000 N 91Din !
 PAR  G(HCP_A3,MN:VA),,                 +GHCPMN;                 2000 N 91Din !
 PAR  TC(HCP_A3,MN:VA),,                -1620.00;                2000 N 91Din !
 PAR  BM(HCP_A3,MN:VA),,                   -1.86;                2000 N 91Din !
 PAR  G(LIQUID,MN),,                    +GLIQMN;                 2000 N 91Din !
$
 PAR  L(A2_BCC,MN,VA:VA;0),,            +150000;,,                    N 09Sun !
 PAR  G(B2_BCC,VA:MN:VA),,              +ZERO;,,                      N 09Sun !
 PAR  G(B2_BCC,MN:VA:VA),,              +ZERO;,,                      N 09Sun !
 PAR  G(L10_SOLO,MN:MN),,               +GFCCMN+DELTA;,,              N 08Liu !
$
 FUNCTION GHSERMN   298.15  -8115.28+130.059*T-23.4582*T*LN(T)
       -0.00734768*T**2+69827*T**(-1);
      1519.00  Y  -28733.41+312.2648*T-48*T*LN(T)+1.656847E+30*T**(-9);
      2000.00  N !
 FUNCTION GCUBMN    298.15  -5800.4+135.995*T-24.8785*T*LN(T)
       -0.00583359*T**2+70269*T**(-1);
      1519.00  Y  +442.65-0.9715*T+GHSERMN+2.310723E+30*T**(-9);
      2000.00  N !
 FUNCTION GFCCMN    298.15  -3439.3+131.884*T-24.5177*T*LN(T)
       -0.006*T**2+69600*T**(-1);
      1519.00  Y  +2663.31-2.5984*T+GHSERMN+2.205113E+30*T**(-9);
      2000.00  N !
 FUNCTION GBCCMN    298.15  -3235.3+127.85*T-23.7*T*LN(T)
       -0.00744271*T**2+60000*T**(-1);
      1519.00  Y  +5544.58-4.5605*T+GHSERMN-3.91695E+29*T**(-9);
      2000.00  N !
 FUNCTION GHCPMN    298.15  -4439.3+133.007*T-24.5177*T*LN(T)
       -0.006*T**2+69600*T**(-1);
      1519.00  Y  +1663.31-1.4754*T+GHSERMN+2.205113E+30*T**(-9);
      2000.00  N !
 FUNCTION GLIQMN    298.15  +17859.91-12.6208*T+GHSERMN-4.41929E-21*T**7;
      1519.00  Y  -9993.9+299.036*T-48*T*LN(T);
      2000.00  N !
$ ------------------------------------------------------------------------------
$ Ni
$
$ FCC_A1 and LIQUID modified in unary 5.0 (slight change in upper T interval)
$ BCT_A5 added in unary 5.0
$
 PAR  G(FCC_A1,NI:VA),,                 +GHSERNI;                3000 N 91Din !
 PAR  TC(FCC_A1,NI:VA),,                  633.00;                3000 N 91Din !
 PAR  BM(FCC_A1,NI:VA),,                    0.52;                3000 N 91Din !
 PAR  G(A1_FCC,NI:VA),,                 +GHSERNI;                3000 N 91Din !
 PAR  TC(A1_FCC,NI:VA),,                  633.00;                3000 N 91Din !
 PAR  BM(A1_FCC,NI:VA),,                    0.52;                3000 N 91Din !
 PAR  G(BCC_A2,NI:VA),,                 +GHSERNI
             +8715.084-3.556*T;                                  3000 N 91Din !
 PAR  TC(BCC_A2,NI:VA),,                  575.00;                3000 N 91Din !
 PAR  BM(BCC_A2,NI:VA),,                    0.85;                3000 N 91Din !
 PAR  G(A2_BCC,NI:VA),,                 +GHSERNI
             +8715.084-3.556*T;                                  3000 N 91Din !
 PAR  TC(A2_BCC,NI:VA),,                  575.00;                3000 N 91Din !
 PAR  BM(A2_BCC,NI:VA),,                    0.85;                3000 N 91Din !
 PAR  G(HCP_A3,NI:VA),,                 +GHSERNI+1046+1.255*T;   3000 N 91Din !
 PAR  TC(HCP_A3,NI:VA),,                  633.00;                3000 N 91Din !
 PAR  BM(HCP_A3,NI:VA),,                    0.52;                3000 N 91Din !
$PAR  G(BCT_A5,NI),,                    +GHSERNI+10023-4.556*T;  3000 N 99Gho !
 PAR  G(CBCC_A12,NI:VA),,               +GHSERNI+3556;           3000 N 91Din !
 PAR  G(CUB_A13,NI:VA),,                +GHSERNI+2092;           3000 N 91Din !
 PAR  G(LIQUID,NI),,                    +GLIQNI;                 3000 N 91Din !
$
 PAR  L(A2_BCC,NI,VA:VA;0),,            +GB2NIVA+LB2NIVA;,,           N 99Dup1 !
 PAR  G(B2_BCC,VA:NI:VA),,              +0.5*GB2NIVA-0.5*LB2NIVA;,,   N 99Dup1 !
 PAR  G(B2_BCC,NI:VA:VA),,              +0.5*GB2NIVA-0.5*LB2NIVA;,,   N 99Dup1 !
 PAR  G(L10_SOLO,NI:NI),,               +GHSERNI+DELTA;,,             N 08Liu !
$
 PAR  G(MNNI2,NI:NI),,                  +3*GHSERNI+15000;,,           N 08Liu !
$
 FUNCTION GHSERNI   298.15  -5179.159+117.854*T-22.096*T*LN(T)-0.0048407*T**2;
      1728.00  Y  -27840.62+279.134977*T-43.1*T*LN(T)+1.12754E+31*T**(-9);
      3000.00  N !
 FUNCTION GLIQNI    298.15  +16414.686-9.397*T+GHSERNI-3.82318E-21*T**7;
      1728.00  Y  -9549.817+268.597977*T-43.1*T*LN(T);
      3000.00  N !
$
$ With G(A2_BCC,VA:VA)=30*T the same amount must be subtracted from GB2NIVA.
 FUNCTION GB2NIVA   298.15  +162397.3-27.40575*T-30*T;                 6000 N !
 FUNCTION LB2NIVA   298.15  -64024.38+26.49419*T;                      6000 N !
$ ------------------------------------------------------------------------------
$ Va
$
 PAR  G(A2_BCC,VA:VA),,                 +30*T;,,                      N 09Sun !
$ ------------------------------------------------------------------------------
$ Binary system
$
$ S.H. Liu, Master Thesis, CSU, 2008.
$
$ Checked against tdb provided by B. Hu et al.. Checked at 6000 K.
$
$ Parameters are taken from a tdb provided as supplementary material by
$ B. Hu et al. (Calphad, 35, 346-54(2011)).
$
$ The L1_2/L1_0 ordering scheme from 07Fra was used, but with new parameter
$ values.
$
$ L(L10_SOLO,MN,NI:MN,NI;0) misprinted as L(L10_SOLO,MN,NI:MN,NI;1) in the
$ tdb from Hu et al. Changes in the phase diagram are not visible.
$
$ Separate 2SL models for MnNi-L1_0 (monolithic) and MnNi3_L1_2 (add on),
$ converted from a 4SL model.
$
$ The existence of the MnNi2 compound has been questioned.
$
$ The fraction of Va in B2 has decreased (due to G(A2_BCC,VA:VA)). This makes
$ B2 slightly less stable and the B2/A1 congruent transition decreases by
$ about 5 K.
$
$ There seems to be a magnetic miscibility gap (with Nishizawa horn) in the
$ fcc phase on the Ni-rich side below about 500 K. For some reason it
$ continues as a very thin miscibility gap up to the solidus.
$
 PAR  L(LIQUID,MN,NI;0),,               -44423.1238-2.35314123*T;,,   N 08Liu !
 PAR  L(LIQUID,MN,NI;1),,               +11941.36-6.85220387*T;,,     N 08Liu !
$
 PAR  L(FCC_A1,MN,NI:VA;0),,            +LDF0MNNI;,,                  N 08Liu !
 PAR  L(FCC_A1,MN,NI:VA;1),,            +LDF1MNNI;,,                  N 08Liu !
 PAR  TC(FCC_A1,MN,NI:VA;0),,           -3171.20;,,                   N 05Guo !
 PAR  TC(FCC_A1,MN,NI:VA;1),,           -4317.73;,,                   N 05Guo !
 PAR  BM(FCC_A1,MN,NI:VA;0),,              -1.3947;,,                 N 05Guo !
 PAR  BM(FCC_A1,MN,NI:VA;1),,              +3.9050;,,                 N 05Guo !
$
 PAR  L(A1_FCC,MN,NI:VA;0),,            +LDF0MNNI;,,                  N 08Liu !
 PAR  L(A1_FCC,MN,NI:VA;1),,            +LDF1MNNI;,,                  N 08Liu !
 PAR  TC(A1_FCC,MN,NI:VA;0),,           -3171.20;,,                   N 05Guo !
 PAR  TC(A1_FCC,MN,NI:VA;1),,           -4317.73;,,                   N 05Guo !
 PAR  BM(A1_FCC,MN,NI:VA;0),,              -1.3947;,,                 N 05Guo !
 PAR  BM(A1_FCC,MN,NI:VA;1),,              +3.9050;,,                 N 05Guo !
$
 PAR  G(L12_FCC,MN:NI:VA),,             +GFMN3NI;,,                   N 08Liu !
 PAR  G(L12_FCC,NI:MN:VA),,             +GFMNNI3;,,                   N 08Liu !
 PAR  L(L12_FCC,MN,NI:MN:VA;0),,        -1.5*GFMNNI3+1.5*GFMN2NI2
             +1.5*GFMN3NI;,,                                          N 08Liu !
 PAR  L(L12_FCC,MN,NI:MN:VA;1),,        +0.5*GFMNNI3-1.5*GFMN2NI2
             +1.5*GFMN3NI;,,                                          N 08Liu !
 PAR  L(L12_FCC,MN,NI:NI:VA;0),,        +1.5*GFMNNI3+1.5*GFMN2NI2
             -1.5*GFMN3NI;,,                                          N 08Liu !
 PAR  L(L12_FCC,MN,NI:NI:VA;1),,        -1.5*GFMNNI3+1.5*GFMN2NI2
             -0.5*GFMN3NI;,,                                          N 08Liu !
 PAR  L(L12_FCC,MN,NI:*:VA;0),,         +0.75*SFMNNI;,,               N 08Liu !
 PAR  L(L12_FCC,MN,NI:*:VA;2),,         -0.75*SFMNNI;,,               N 08Liu !
 PAR  L(L12_FCC,MN:MN,NI:VA;0),,        0.0;,,                        N 08Liu !
 PAR  L(L12_FCC,MN:MN,NI:VA;1),,        0.0;,,                        N 08Liu !
 PAR  L(L12_FCC,NI:MN,NI:VA;0),,        0.0;,,                        N 08Liu !
 PAR  L(L12_FCC,NI:MN,NI:VA;1),,        0.0;,,                        N 08Liu !
 PAR  L(L12_FCC,MN,NI:MN,NI:VA;0),,     +3*SFMNNI;,,                  N 08Liu !
$
 PAR  G(L10_SOLO,NI:MN),,               +GSMNNI;,,                    N 08Liu !
 PAR  G(L10_SOLO,MN:NI),,               +GSMNNI;,,                    N 08Liu !
 PAR  L(L10_SOLO,MN,NI:MN;0),,          +LS0MNM;,,                    N 08Liu !
 PAR  L(L10_SOLO,MN:MN,NI;0),,          +LS0MNM;,,                    N 08Liu !
 PAR  L(L10_SOLO,MN,NI:NI;0),,          +LS0MNN;,,                    N 08Liu !
 PAR  L(L10_SOLO,NI:MN,NI;0),,          +LS0MNN;,,                    N 08Liu !
 PAR  L(L10_SOLO,MN,NI:MN;1),,          +LS1MNM;,,                    N 08Liu !
 PAR  L(L10_SOLO,MN:MN,NI;1),,          +LS1MNM;,,                    N 08Liu !
 PAR  L(L10_SOLO,MN,NI:NI;1),,          +LS1MNN;,,                    N 08Liu !
 PAR  L(L10_SOLO,NI:MN,NI;1),,          +LS1MNN;,,                    N 08Liu !
 PAR  L(L10_SOLO,MN,NI:MN;2),,          +LS2MNNI;,,                   N 08Liu !
 PAR  L(L10_SOLO,MN:MN,NI;2),,          +LS2MNNI;,,                   N 08Liu !
 PAR  L(L10_SOLO,MN,NI:NI;2),,          +LS2MNNI;,,                   N 08Liu !
 PAR  L(L10_SOLO,NI:MN,NI;2),,          +LS2MNNI;,,                   N 08Liu !
 PAR  L(L10_SOLO,MN,NI:MN,NI;0),,       -2.5*GFMNNI3+3.75*GFMN2NI2
             -2.5*GFMN3NI+1.75*SFMNNI;,,                              N 08Liu !
$
 PAR  L(BCC_A2,MN,NI:VA;0),,            -3508.42803-23.7885576*T;,,   N 08Liu !
 PAR  L(A2_BCC,MN,NI:VA;0),,            -3508.42803-23.7885576*T;,,   N 08Liu !
$
 PAR  G(B2_BCC,MN:NI:VA),,              -24341.195+4.35784021*T;,,    N 08Liu !
 PAR  G(B2_BCC,NI:MN:VA),,              -24341.195+4.35784021*T;,,    N 08Liu !
$
 PAR  L(CBCC_A12,MN,NI:VA;0),,          +40445.791;,,                 N 08Liu !
 PAR  L(CBCC_A12,MN,NI:VA;1),,          -49308.6701-21.0469859*T;,,   N 08Liu !
$
 PAR  L(CUB_A13,MN,NI:VA;0),,           -6586.18153-20.2150389*T;,,   N 08Liu !
$
 PAR  G(MNNI2,MN:NI),,                  +GHSERMN+2*GHSERNI
             -27084.651-5.98849279*T;,,                               N 08Liu !
 PAR  L(MNNI2,MN,NI:NI;0),,             -19871.3586;,,                N 08Liu !
$
$ metastable
$
 PAR  L(HCP_A3,MN,NI:VA;0),,            -27996.5-1.2275*T;,,          N Same !
 PAR  L(HCP_A3,MN,NI:VA;1),,            +19266.4-12.2853*T;,,         N Same !
$
 FUNCTION UFMNNI    298.15  -6829.00181;                               6000 N !
 FUNCTION SFMNNI    298.15  +UFMNNI;                                   6000 N !
 FUNCTION GFMN3NI   298.15  +3*UFMNNI+406.42233;                       6000 N !
 FUNCTION GFMN2NI2  298.15  +4*UFMNNI-2840.67336;                      6000 N !
 FUNCTION GFMNNI3   298.15  +3*UFMNNI-529.38697;                       6000 N !
 FUNCTION LDF0MNNI  298.15  -20455.7462-11.7930695*T;                  6000 N !
 FUNCTION LDF1MNNI  298.15  +15581.5125-8.49116947*T;                  6000 N !
$
 FUNCTION DELTA     298.15  +10.0;                                     6000 N !
 FUNCTION GSMNNI    298.15  +0.5*GFCCMN+0.5*GHSERNI-DELTA-0.25*GFMNNI3
       +0.625*GFMN2NI2-0.25*GFMN3NI-0.375*SFMNNI+0.25*LDF0MNNI;
      6000.00  N !
 FUNCTION LS0MNM    298.15  +0.3125*GFMNNI3-1.09375*GFMN2NI2
       +0.8125*GFMN3NI+0.15625*SFMNNI+0.25*LDF0MNNI+0.375*LDF1MNNI;
      6000.00  N !
 FUNCTION LS0MNN    298.15  +0.8125*GFMNNI3-1.09375*GFMN2NI2
       +0.3125*GFMN3NI+0.15625*SFMNNI+0.25*LDF0MNNI-0.375*LDF1MNNI;
      6000.00  N !
 FUNCTION LS1MNM    298.15  +0.375*GFMN2NI2-0.5*GFMN3NI
       +0.375*SFMNNI+0.125*LDF1MNNI;
      6000.00  N !
 FUNCTION LS1MNN    298.15  +0.5*GFMNNI3-0.375*GFMN2NI2
       -0.375*SFMNNI+0.125*LDF1MNNI;
      6000.00  N !
 FUNCTION LS2MNNI   298.15  -0.0625*GFMNNI3+0.09375*GFMN2NI2
       -0.0625*GFMN3NI-0.15625*SFMNNI;
      6000.00  N !
$ ------------------------------------------------------------------------------
$
$
 LIST-OF-REFERENCE
 NUMBER  SOURCE
  Null   'Unknown source'
  Same   'Same or similar interaction as in the corresponding stable phase'
  REFLAV 'Laves phase convention: G(LAVES,X:X)=+3*GHSERXX+15000'
  91Din  'A.T. Dinsdale, Calphad, 15, 317-425(1991).'
  99Dup1 'N. Dupin, I. Ansara, Z. Metallkd., 90, 76-85(1999); Al-Ni'
  99Gho  'G. Ghosh, Metall. Mater. Trans. A, 30A, 1481-94(1999),
          SGTE unary database V.5.0, 2009; Ni'
  05Guo  'C. Guo, Z. Du, Intermetallics, 13, 525-34(2005); Mn-Ni'
  07Fra  'P. Franke, Int. J. Mater. Res., 98, 954-60(2007); Mn-Ni'
  08Liu  'S.H. Liu, Master Thesis, CSU, 2008; Mn-Ni'
  09Sun  'B. Sundman, I. Ohnuma, N. Dupin, U.R. Kattner, S.G. Fries,
          Acta Mater., 57, 2896-2908(2009); Al-Fe'
!
