$
$ Database for Sn-Zr from J. Peng et al. 2024.
$
$ J. Peng, J. Shen, X. Feng, Z. Cheng, Calphad, 85, 102672(2024).
$
$ Dataset created 2024.07.30 by Bengt Hallstedt.
$
$ Based on 08Jer/19Pen using more DFT calculations. The enthalpies of formation
$ are considerably less negative than 08Jer, but similar to 19Pen. The enthalpy
$ of mxing of the liquid is closer to 08Jer.
$
$ Sn3Zr5 and Sn4Zr5 are modelled as a single phase with a miscibilty gap up to
$ 1340 K. The crystal structures are compatible. The name Sn3Zr5 is kept,
$ because this is the name previously used for the phase.
$
$ The liquid, bcc and hcp interactions have large temperature dependencies.
$
$ There is an inverse miscibility gap with a minimum at 5257 K and x(Zr)=0.83.
$
$ ------------------------------------------------------------------------------
 TEMP-LIM 298.15 6000.00 !
$
$ELEMENT NAME  REF. STATE               ATOMIC MASS H298-H0    S298    !
$
 ELEMENT VA   VACUUM                      0.0          0.0      0.0    ! 
 ELEMENT SN   BCT_A5                    118.69      6323.      51.18   ! 
 ELEMENT ZR   HCP_A3                     91.22      5566.27    39.1809 ! 
$ ------------------------------------------------------------------------------
$ Phase definitions
$
 PHASE LIQUID:L % 1 1 !
 CONST LIQUID:L : SN ZR : !
$
$ Fcc (cF4, Fm-3m) and MeX (cF8, Fm-3m)
$
 PHASE FCC_A1 %A 2 1 1 !
 CONST FCC_A1 : SN ZR : VA : !
$
$ Bcc (cI2, Im-3m)
$
 PHASE BCC_A2 %B 2 1 3 !
 CONST BCC_A2 : SN ZR% : VA : !
$
$ Hcp (hP2, P6_3/mmc) and Me2X (NiAs-type, hP4, P6_3/mmc, B8_1)
$
 PHASE HCP_A3 %A 2 1 0.5 !
 CONST HCP_A3 : SN ZR% : VA: !
$
$ Prototype C (cF8, Fd-3m)
$
 PHASE DIAMOND_A4 % 1 1 !
 CONST DIAMOND_A4 : SN : !
$
$ Prototype beta-Sn (tI4, I4_1/amd)
$
 PHASE BCT_A5 % 1 1 !
 CONST BCT_A5 : SN : !
$
$ Prototype Si2Ti (oF24, Fddd)
$
 PHASE SN2ZR_C54 %  2 2 1 !
 CONST SN2ZR_C54 : SN : ZR : !
$
$ Prototype Ga4Ti5 (hP18, P6_3/mcm), Sn4Zr5
$ and prototype Mn5Si3 (hP16, P6_3/mcm), D8_8, Sn3Zr5
$
 PHASE SN3ZR5_ETA %  3 3 5 1 !
 CONST SN3ZR5_ETA : SN : ZR : SN VA : !
$
$ Prototype Cr3Si (cP8, Pm-3n)
$
 PHASE SNZR4_A15 %  2 1 3 !
 CONST SNZR4_A15 : SN% ZR : SN ZR% : !
$ ------------------------------------------------------------------------------
$ Defaults
$
 DEFINE-SYSTEM-DEFAULT ELEMENT 2 !
 DEFAULT-COM DEFINE_SYSTEM_ELEMENT VA !
 TYPE-DEF % SEQ * !
 TYPE-DEF A GES AMEND_PHASE_DESCRIPTION @ MAGNETIC -3 0.28 !
 TYPE-DEF B GES AMEND_PHASE_DESCRIPTION @ MAGNETIC -1 0.4 !
 FUNCTION ZERO      298.15  0;                                         6000 N !
 FUNCTION UN_ASS    298.15  0;                                         6000 N !
 FUNCTION R         298.15  +8.31451;                                  6000 N !
$ ------------------------------------------------------------------------------
$ Element data
$ ------------------------------------------------------------------------------
$ Sn
$
$ FCC_A1 revised in unary 3.0
$ HCP_A3 revised in unary 4.1
$ TETRAGONAL_A6 added in unary 4.1
$ CBCC_A12 and CUB_A13 added in unary 4.4
$ FCC_A1 modified in unary 5.0
$ DHCP and TET_ALPHA1_A6 added in unary 5.0
$
$ The DHCP phase is labelled D0_24 in 03Liu and alpha-prime in 92Ans. The
$ phase is present between the fcc and hcp phases in the Au-Sn and Au-In
$ systems.
$
 PAR  G(BCT_A5,SN)              100.00  +GHSERSN;                3000 N 91Din !
 PAR  G(DIAMOND_A4,SN)          100.00  +GDIASN;                 3000 N 91Din !
 PAR  G(FCC_A1,SN:VA)           100.00  +GHSERSN+5510-8.46*T;    3000 N 89Fec !
$PAR  G(FCC_A1,SN:VA)           100.00  +GHSERSN+4150-5.2*T;     3000 N 91Din !
 PAR  G(BCC_A2,SN:VA)           100.00  +GHSERSN+4400-6*T;       3000 N 91Din !
 PAR  G(HCP_A3,SN:VA)           100.00  +GHSERSN+3900-7.646*T;   3000 N Ansar !
$PAR  G(HCP_A3,SN:VA)           100.00  +GHSERSN+3900-4.4*T;     3000 N 91Din !
$PAR  G(DHCP,SN)                100.00  +GHSERSN+3803.52-3.46*T; 3000 N 03Liu !
$PAR  G(RHOMBOHEDRAL_A7,SN)     100.00  +GHSERSN+2035;           3000 N 91Din !
$PAR  G(TETRAGONAL_A6,SN)       100.00  +GHSERSN+5387-8.26212*T; 3000 N 99Ans !
$PAR  G(CBCC_A12,SN:VA)         100.00  +GHSERSN+2000;           3000 N 01Mie !
$PAR  G(CUB_A13,SN:VA)          100.00  +GHSERSN+2000;           3000 N 01Mie !
$PAR  G(TET_ALPHA1_A6,SN)       100.00  +GHSERSN+5510-8.46*T;    3000 N 99Ans !
 PAR  G(LIQUID,SN)              100.00  +GLIQSN;                 3000 N 91Din !
$
 PAR  G(SNZR4_A15,SN:SN),,              +4*GHSERSN+30031+19.45*T;,,   N 17Laf !
$
 FUNCTION GHSERSN   100.00  -7958.517+122.765451*T-25.858*T*LN(T)
       +5.1185E-04*T**2-3.192767E-06*T**3+18440*T**(-1);
       250.00  Y  -5855.135+65.443315*T-15.961*T*LN(T)
       -0.0188702*T**2+3.121167E-06*T**3-61960*T**(-1);
       505.08  Y  +2524.724+4.005269*T-8.2590486*T*LN(T)
       -0.016814429*T**2+2.623131E-06*T**3-1081244*T**(-1)-1.2307E+25*T**(-9);
       800.00  Y  -8256.959+138.99688*T-28.4512*T*LN(T)-1.2307E+25*T**(-9);
      3000.00  N !
 FUNCTION GDIASN    100.00  -9579.608+114.007785*T-22.972*T*LN(T)
       -0.00813975*T**2+2.7288E-06*T**3+25615*T**(-1);
       298.15  Y  -9063.001+104.84654*T-21.5750771*T*LN(T)
       -0.008575282*T**2+1.784447E-06*T**3-2544*T**(-1);
       800.00  Y  -10909.351+147.396535*T-28.4512*T*LN(T);
      3000.00  N !
 FUNCTION GLIQSN    100.00  +7103.092-14.087767*T+GHSERSN+1.47031E-18*T**7;
       505.08  Y  +6971.586-13.814383*T+GHSERSN+1.2307E+25*T**(-9);
       800.00  Y  -1285.372+125.182498*T-28.4512*T*LN(T);
      3000.00  N !
 FUNCTION GBCCSN    298.15  +GHSERSN+4400-6*T;                         3000 N !
$ ------------------------------------------------------------------------------
$ Zr
$
$ CUB_A13, CBCC_A12, ORTHORHOMBIC_A20 and TETRAGONAL_U added in unary 4.1
$
 PAR  G(HCP_A3,ZR:VA)           130.00  +GHSERZR;,,                   N 91Din !
 PAR  G(BCC_A2,ZR:VA)           130.00  +GBCCZR;,,                    N 91Din !
$PAR  G(OMEGA,ZR)               130.00  +GOMEZR;,,                    N 91Din !
 PAR  G(FCC_A1,ZR:VA)           130.00  +GHSERZR+7600-0.9*T;,,        N 91Din !
$PAR  G(CBCC_A12,ZR:VA)         130.00  +GHSERZR+4602.2;,,            N 99SGUN !
$PAR  G(CUB_A13,ZR:VA)          130.00  +GHSERZR+7531.2;,,            N 99SGUN !
$PAR  G(ORTHORHOMBIC_A20,ZR)    130.00  +GBCCZR+5000;,,               N 99SGUN !
$PAR  G(TETRAGONAL_U,ZR)        130.00  +GBCCZR+5000;,,               N 99SGUN !
 PAR  G(LIQUID,ZR)              130.00  +GLIQZR;,,                    N 91Din !
$
 PAR  G(SNZR4_A15,ZR:ZR),,              +4*GHSERZR+24444+12*T;,,      N 24Pen !
$
 FUNCTION GHSERZR   130.00  -7827.595+125.64905*T-24.1618*T*LN(T)
       -0.00437791*T**2+34971*T**(-1);
      2128.00  Y  -26085.921+262.724183*T-42.144*T*LN(T)-1.342896E+31*T**(-9);
      6000.00  N !
 FUNCTION GBCCZR    130.00  -525.539+124.9457*T-25.607406*T*LN(T)
       -3.40084E-04*T**2-9.729E-09*T**3+25233*T**(-1)-7.6143E-11*T**4;
      2128.00  Y  -4620.034+1.55998*T+GHSERZR+1.4103476E+32*T**(-9);
      6000.00  N !
 FUNCTION GOMEZR    130.00  -8878.082+144.432234*T-26.8556*T*LN(T)
       -0.002799446*T**2+38376*T**(-1);
      2128.00  Y  -3414.603+2.566675*T+GHSERZR+8.517346E+31*T**(-9);
      6000.00  N !
 FUNCTION GLIQZR    130.00  +18147.69-9.080812*T+GHSERZR+1.6275E-22*T**7;
      2128.00  Y  -8281.26+253.812609*T-42.144*T*LN(T);
      6000.00  N !
$ ------------------------------------------------------------------------------
$ Binary system
$
$ J. Peng, J. Shen, X. Feng, Z. Cheng, Calphad, 85, 102672(2024).
$
$ Checked against paper and author's tdb. Checked at 6000 K.
$
$ Based on 08Jer/19Pen using more DFT calculations. The enthalpies of formation
$ are considerably less negative than 08Jer, but similar to 19Pen. The enthalpy
$ of mxing of the liquid is closer to 08Jer.
$
$ Sn3Zr5 and Sn4Zr5 are modelled as a single phase with a miscibilty gap up to
$ 1340 K. The crystal structures are compatible. The name Sn3Zr5 is kept,
$ because this is the name previously used for the phase.
$
$ The liquid, bcc and hcp interactions have large temperature dependencies.
$
$ There is an inverse miscibility gap with a minimum at 5257 K and x(Zr)=0.83.
$
 PAR  L(LIQUID,SN,ZR;0),,               -154716.95+41.1853*T;,,       N 24Pen !
 PAR  L(LIQUID,SN,ZR;1),,               +37717.929-9.4528*T;,,        N 24Pen !
 PAR  L(LIQUID,SN,ZR;2),,               -4353.4126+9*T;,,             N 24Pen !
$
 PAR  L(BCC_A2,SN,ZR:VA;0),,            -113257.4+9.95397*T;,,        N 24Pen !
 PAR  L(BCC_A2,SN,ZR:VA;1),,            +72800.8-33.7366*T;,,         N 24Pen !
 PAR  L(BCC_A2,SN,ZR:VA;2),,            +35313.9;,,                   N 24Pen !
$
 PAR  L(HCP_A3,SN,ZR:VA;0),,            -119559+52.1503*T;,,          N 24Pen !
 PAR  L(HCP_A3,SN,ZR:VA;1),,            +135157+9.59524*T;,,          N 24Pen !
 PAR  L(HCP_A3,SN,ZR:VA;2),,            +118069-10*T;,,               N 24Pen !
$
 PAR  G(SN2ZR_C54,SN:ZR),,              +2*GHSERSN+GHSERZR
             -125801.094-29.27612*T+6.49528*T*LN(T)-0.00161*T**2
             +2.26E-07*T**3+28.46716*T**(-1);,,                       N 24Pen !
$
 PAR  G(SN3ZR5_ETA,SN:ZR:SN),,          +4*GHSERSN+5*GHSERZR
             -517815.848-76.41002*T+25.36755*T*LN(T)-0.02433*T**2
             +3.35E-06*T**3+20.89573*T**(-1);,,                       N 24Pen !
 PAR  G(SN3ZR5_ETA,SN:ZR:VA),,          +3*GHSERSN+5*GHSERZR
             -461264.219-58.1954*T+21.4127*T*LN(T)-0.01802*T**2
             +2.18E-06*T**3+256.4872*T**(-1);,,                       N 24Pen !
 PAR  L(SN3ZR5_ETA,SN:ZR:SN,VA;0),,     +77100-54*T;,,                N 24Pen !
 PAR  L(SN3ZR5_ETA,SN:ZR:SN,VA;1),,     -129500+83*T;,,               N 24Pen !
$
 PAR  G(SNZR4_A15,SN:ZR),,              +GHSERSN+3*GHSERZR
             -103129.79+14.065*T;,,                                   N 24Pen !
 PAR  G(SNZR4_A15,ZR:SN),,              +GHSERZR+3*GHSERSN
             +91544-20*T;,,                                           N 24Pen !
 PAR  L(SNZR4_A15,SN,ZR:ZR;0),,         -134009.7+32.006*T;,,         N 24Pen !
 PAR  L(SNZR4_A15,SN,ZR:ZR;1),,         -99146;,,                     N 08Jer !
 PAR  L(SNZR4_A15,SN,ZR:ZR;2),,         -199146;,,                    N 24Pen !
$
$ Metastable
$
 PAR  L(FCC_A1,SN,ZR:VA;0),,            -119559+52.1503*T;,,          N Same !
 PAR  L(FCC_A1,SN,ZR:VA;1),,            +135157+9.59524*T;,,          N Same !
 PAR  L(FCC_A1,SN,ZR:VA;2),,            +118069-10*T;,,               N Same !
$ ------------------------------------------------------------------------------
$
 ASSESSED_SYSTEM
  SN-ZR(TDB -* +LIQUID +BCT_A5 +BCC_A2 +HCP_A3 +SN2ZR_C54 +SN3ZR5_ETA
  +SNZR4_A15 ;P3 TMM:300/2300 STP:.3/1500/-2) !
$
$
 LIST-OF-REFERENCE
 NUMBER  SOURCE
  Null   'Unknown source'
  Same   'Same or similar interaction as in the corresponding stable phase'
  Ansar  'Himo Ansara, unpublished, SGTE unary database V.4.1, 1999; Sn'
  89Fec  'H.J. Fecht, M.X. Zhang, Y.A. Chang, J.H. Perepezko,
          Metall. Trans. A, 20A, 795-803(1989),
          SGTE unary database V.3.0, 1996; Sn'
  91Din  'A.T. Dinsdale, Calphad, 15, 317-425(1991).'
  99Ans  'I. Ansara, S.G. Fries, H.L. Lukas, unpublished, 1999,
          SGTE unary database V.5.0, 2009; In, Sn'
  99SGUN 'SGTE unary database V.4.1, 1999.'
  01Mie  'J. Miettinen, Calphad, 25, 43-58(2001),
          SGTE unary database V.4.4, 2001; Sn, Zn'
  03Liu  'H.S. Liu, C.L. Liu, K. Ishida, Z.P. Jin, J. Electron. Mater.,
          32, 1290-96(2003), SGTE unary database V.5.0, 2009; Sn'
  08Jer  'R. Jerlerud Perez, C. Toffolon-Masclet, J.-M. Joubert, B. Sundman,
          Calphad, 32, 593-601(2008); Sn-Zr'
  17Laf  'P. Lafaye, C. Toffolon-Masclet, J.-C. Crivello, J.-M. Joubert,
          Calphad, 57, 37-45(2017); Nb-Sn'
  24Pen  'J. Peng, J. Shen, X. Feng, Z. Cheng, Calphad, 85, 102672(2024); Sn-Zr'
!
