$
$ Database for Cu-Ho from C.P. Wang et al. 2009
$
$ C.P. Wang, S.H. Guo, X.J. Liu, A.T. Tang, F.S. Pan,
$ J. Alloys Compd., 487, 173-78(2009).
$
$ Dataset created 2013.05.30 by Bengt Hallstedt.
$ 2020.12.26: Modified for use with GES6.
$
$ Old data used for bcc and liquid Ho (91Din). Invariants ok.
$
$ Using SGTE unary ver. 4.4:
$ Calculated invariants are up to 13 K higher than given in the paper.
$
$ ------------------------------------------------------------------------------
 TEMP-LIM 298.15 6000.00 !
$
$ELEMENT NAME  REF. STATE               ATOMIC MASS H298-H0    S298    !
$
 ELEMENT VA   VACUUM                      0.0          0.0      0.0    ! 
 ELEMENT CU   FCC_A1                     63.546     5004.      33.15   !
 ELEMENT HO   HCP_A3                    164.9304    7995.624   75.0191 ! 
$ ------------------------------------------------------------------------------
$ Phase definitions
$
 PHASE LIQUID:L % 1 1 !
 CONST LIQUID:L : CU HO : !
$
$ Fcc (cF4, Fm-3m) and MeX (cF8, Fm-3m)
$
 PHASE FCC_A1 %A 2 1 1 !
 CONST FCC_A1 : CU% HO : VA : !
$
$ Bcc (cI2, Im-3m)
$
 PHASE BCC_A2 %B 2 1 3 !
 CONST BCC_A2 : CU HO : VA : !
$
$ Hcp (hP2, P6_3/mmc) and Me2X (NiAs-type, hP4, P6_3/mmc, B8_1)
$
 PHASE HCP_A3 %A 2 1 0.5 !
 CONST HCP_A3 : CU HO% : VA : !
$
$ Prototype AuBe5 (cF24, F-43m), alpha-Cu5Ho
$
 PHASE CU5HO_C15B % 2 5 1 !
 CONST CU5HO_C15B : CU : HO : !
$
$ Prototype CaCu5 (hP6, P6/mmm), beta-Cu5Ho
$
 PHASE CU5HO_D2D % 2 5 1 !
 CONST CU5HO_D2D : CU : HO : !
$
$ Unknown structure
$
 PHASE CU9HO2 % 2 9 2 !
 CONST CU9HO2 : CU : HO : !
$
$ Unknown structure
$
 PHASE CU7HO2 % 2 7 2 !
 CONST CU7HO2 : CU : HO : !
$
$ Prototype Hg2K (oI12, Imma), prototype CeCu2 in paper
$
 PHASE CU2HO % 2 2 1 !
 CONST CU2HO : CU : HO : !
$
$ Prototype CsCl (cP2, Pm-3m)
$
 PHASE CUHO_B2 % 2 1 1 !
 CONST CUHO_B2 : CU : HO : !
$ ------------------------------------------------------------------------------
$ Defaults
$
 DEFINE-SYSTEM-DEFAULT ELEMENT 2 !
 DEFAULT-COM DEFINE_SYSTEM_ELEMENT VA !
 TYPE-DEF % SEQ * !
 TYPE-DEF A GES AMEND_PHASE_DESCRIPTION @ MAGNETIC -3 0.28 !
 TYPE-DEF B GES AMEND_PHASE_DESCRIPTION @ MAGNETIC -1 0.4 !
 FUNCTION ZERO      298.15  0;                                         6000 N !
 FUNCTION UN_ASS    298.15  0;                                         6000 N !
 FUNCTION R         298.15  +8.31451;                                  6000 N !
$ ------------------------------------------------------------------------------
$ Element data
$ ------------------------------------------------------------------------------
$ Cu
$
 PAR  G(FCC_A1,CU:VA),,                 +GHSERCU;                3200 N 91Din !
 PAR  G(BCC_A2,CU:VA),,                 +GHSERCU+4017-1.255*T;   3200 N 91Din !
 PAR  G(HCP_A3,CU:VA),,                 +GHSERCU+600+0.2*T;      3200 N 91Din !
 PAR  G(LIQUID,CU),,                    +GLIQCU;                 3200 N 91Din !
$
 FUNCTION GHSERCU   298.15  -7770.458+130.485235*T-24.112392*T*LN(T)
       -0.00265684*T**2+1.29223E-07*T**3+52478*T**(-1);
      1357.77  Y  -13542.026+183.803828*T-31.38*T*LN(T)+3.64167E+29*T**(-9);
      3200.00  N !
 FUNCTION GLIQCU    298.15  +12964.735-9.511904*T+GHSERCU-5.8489E-21*T**7;
      1357.77  Y  -46.545+173.881484*T-31.38*T*LN(T);
      3200.00  N !
$ ------------------------------------------------------------------------------
$ Ho
$
$ BCC_A2 and LIQUID revised in unary 4.4
$ HCP_A3 modified in unary 5.0
$ (upper T interval added + trailing decimals added)
$
$ FCC_A1 from 03Cac and 09Wan not included in unary; 03Cac to be preferred
$
 PAR  G(HCP_A3,HO:VA),,                 +GHSERHO;                3001 N 91Din !
 PAR  G(FCC_A1,HO:VA),,                 +GHSERHO+5000;           3001 N 09Wan1 !
$PAR  G(FCC_A1,HO:VA),,                 +GHSERHO
$            +2000-0.831451*T;                                   3001 N 03Cac !
 PAR  G(BCC_A2,HO:VA),,                 +GHSERHO
             +4380-2.494353*T;                                   3001 N 00Nor1 !
 PAR  G(LIQUID,HO),,                    +GLIQHO;                 3001 N 00Nor1 !
$
 FUNCTION GHSERHO   298.15  -7612.429+86.593171*T-23.4879*T*LN(T)
       -0.00827315*T**2+2.375467E-06*T**3;
       600.00  Y  -10917.688+182.475691*T-39.6932*T*LN(T)
       +0.01820065*T**2-4.829733E-06*T**3;
       900.00  Y  +46646.188-421.474473*T+48.0595*T*LN(T)
       -0.0424634*T**2+3.233133E-06*T**3-7185900*T**(-1);
      1200.00  Y  +27786.061-156.162846*T+8.28608*T*LN(T)
       -0.01082725*T**2-1.112352E-06*T**3-6183850*T**(-1);
      1703.00  Y  -825364.662+4248.379056*T-558.9506818*T*LN(T)
       +0.139111904*T**2-6.824652E-06*T**3+2.19952973E+08*T**(-1);
      3000.00  Y  -17149.229+235.898104*T-43.932*T*LN(T);
      3001.00  N !
 FUNCTION GLIQHO    298.15  +17383.4216-9.992194*T+GHSERHO;
      1000.00  Y  +124827.5326-994.683024*T+127.9577778*T*LN(T)
       -0.088196514*T**2+8.008222E-6*T**3-15727191*T**(-1);  
      1703.00  Y  -9688.5314+230.793918*T-43.932*T*LN(T);  
      3001.00  N !
$ ------------------------------------------------------------------------------
$ Binary system
$
$ C.P. Wang, S.H. Guo, X.J. Liu, A.T. Tang, F.S. Pan,
$ J. Alloys Compd., 487, 173-78(2009).
$
$ Checked against paper. Checked at 6000 K.
$
$ Old data used for bcc and liquid Ho (91Din). Invariants ok.
$
$ Using SGTE unary ver. 4.4:
$ Calculated invariants are up to 13 K higher than given in the paper.
$
 PAR  L(LIQUID,CU,HO;0),,               -76960+2.84*T;,,              N 09Wan2 !
 PAR  L(LIQUID,CU,HO;1),,               -26040+0.14*T;,,              N 09Wan2 !
 PAR  L(LIQUID,CU,HO;2),,               -16190+7.69*T;,,              N 09Wan2 !
$
 PAR  L(FCC_A1,CU,HO:VA;0),,            +25000;,,                     N 09Wan2 !
 PAR  L(HCP_A3,CU,HO:VA;0),,            +25000;,,                     N 09Wan2 !
$
 PAR  G(CU5HO_C15B,CU:HO),,             +5*GHSERCU+GHSERHO
             -99672+2.4*T;,,                                          N 09Wan2 !
 PAR  G(CU5HO_D2D,CU:HO),,              +5*GHSERCU+GHSERHO
             -98628+1.56*T;,,                                         N 09Wan2 !
 PAR  G(CU9HO2,CU:HO),,                 +9*GHSERCU+2*GHSERHO
             -193820+4.4*T;,,                                         N 09Wan2 !
 PAR  G(CU7HO2,CU:HO),,                 +7*GHSERCU+2*GHSERHO
             -103006.8-54*T;,,                                        N 09Wan2 !
 PAR  G(CU2HO,CU:HO),,                  +2*GHSERCU+GHSERHO
             -71547+6.27*T;,,                                         N 09Wan2 !
 PAR  G(CUHO_B2,CU:HO),,                +GHSERCU+GHSERHO
             -51380+4*T;,,                                            N 09Wan2 !
$ ------------------------------------------------------------------------------
$
$
 LIST-OF-REFERENCE
 NUMBER  SOURCE
  Null   'Unknown source'
  COST   'COST 507 database'
  91Din  'A.T. Dinsdale, Calphad, 15, 317-425(1991).'
  00Nor1 'S. Norgren, J. Phase Equilib., 21, 148-56(2000),
          SGTE unary database V.4.4, 2001; Er, Ho'
  03Cac  'G. Cacciamani, S. De Negri, A. Saccone, R. Ferro,
          Intermetallics, 11, 1135-51(2003); Dy, Gd, Ho'
  09Wan1 'C.P. Wang, H.L. Zhang, S.L. Wang, Z. Lin, X.J. Liu, A.T. Tang,
          F.S. Pan, J. Alloys Compd., 481, 291-95(2009); Ho, Ho-Mn'
  09Wan2 'C.P. Wang, S.H. Guo, X.J. Liu, A.T. Tang, F.S. Pan,
          J. Alloys Compd., 487, 173-78(2009); Cu-Ho'
!
. Ferro,
          Intermetallics, 11, 1135-51(2003); Dy, Gd, Ho'
  09Wan1 'C.P. Wang, H.L. Zhang, S.L. Wang, Z. Lin, X.J. Liu, A.T. Tang,
          F.S. Pan, J. Alloys Compd., 481, 291-95(2009); Ho, Ho-Mn'
  09Wan2 'C.P. Wang, S.H. Guo, X.J. Liu, A.T. Tang, F.S. Pan,
          J. Alloys Compd., 487, 173-78(2009); Cu-Ho'
!
