$
$ Database for Na-Te from Y. Chen et al. 2014.
$
$ Y. Chen, Y. Liu, M. Chu, L. Wang, J. Alloys Compd., 588, 605-10(2014).
$
$ Dataset created 2018.10.20 by Bengt Hallstedt.
$ 2021.01.31: Modified for use with GES6.
$
$ Associate liquid with two associates; Na2Te and NaTe3. The NaTe3 associate
$ makes no sense.
$
$ Invariant equilibria differ by up to 22 K. There seem to be misprints
$ in the liquid parameters.
$
$ ------------------------------------------------------------------------------
 TEMP-LIM 298.15 6000.00 !
$
$ELEMENT NAME  REF. STATE               ATOMIC MASS H298-H0    S298    !
$
 ELEMENT VA   VACUUM                      0.0          0.0      0.0    ! 
 ELEMENT NA   BCC_A2                     22.98977   6460.      51.3000 ! 
 ELEMENT TE   HEXAGONAL_A8              127.60      6080.      49.221  ! 
$ ------------------------------------------------------------------------------
$ Species
$
 SPECIE  NA2TE                              NA2TE1 !
 SPECIE  NATE3                              NA1TE3 !
$ ------------------------------------------------------------------------------
$ Phase definitions
$
 PHASE LIQUID:L % 1 1 !
 CONST LIQUID:L : NA NA2TE NATE3 TE : !
$
$ Fcc (cF4, Fm-3m) and MeX (cF8, Fm-3m)
$
 PHASE FCC_A1 %A 2 1 1 !
 CONST FCC_A1 : NA : VA : !
$
$ Bcc (cI2, Im-3m)
$
 PHASE BCC_A2 %B 2 1 3 !
 CONST BCC_A2 : NA : VA : !
$
$ Hcp (hP2, P6_3/mmc) and Me2X (NiAs-type, hP4, P6_3/mmc, B8_1)
$
 PHASE HCP_A3 %A 2 1 0.5 !
 CONST HCP_A3 : NA : VA: !
$
$ gamma-Se (hP3, P3_121)
$
 PHASE HEXAGONAL_A8 % 1 1 !
 CONST HEXAGONAL_A8 : TE : !
$
$ Prototype CaF2 (cF12, Fm-3m)
$
 PHASE NA2TE_C1 % 2 2 1 !
 CONST NA2TE_C1 : NA : TE : !
$
$ Prototype NaTe (oP48, Pbcn, 60)
$
 PHASE NATE % 2 1 1 !
 CONST NATE : NA : TE : !
$
$ Prototype NaTe3 (hP48, P-3c1, 165)
$
 PHASE NATE3 % 2 1 3 !
 CONST NATE3 : NA : TE : !
$ ------------------------------------------------------------------------------
$ Defaults
$
 DEFINE-SYSTEM-DEFAULT ELEMENT 2 !
 DEFAULT-COM DEFINE_SYSTEM_ELEMENT VA !
 TYPE-DEF % SEQ * !
 TYPE-DEF A GES AMEND_PHASE_DESCRIPTION @ MAGNETIC -3 0.28 !
 TYPE-DEF B GES AMEND_PHASE_DESCRIPTION @ MAGNETIC -1 0.4 !
 FUNCTION ZERO      298.15  0;                                         6000 N !
 FUNCTION UN_ASS    298.15  0;                                         6000 N !
 FUNCTION R         298.15  +8.31451;                                  6000 N !
$ ------------------------------------------------------------------------------
$ Element data
$ ------------------------------------------------------------------------------
$ Na
$
 PAR  G(BCC_A2,NA:VA)           200.00  +GHSERNA;                2300 N 91Din !
 PAR  G(HCP_A3,NA:VA)           200.00  +GHSERNA-104+2*T;        2300 N 91Din !
 PAR  G(FCC_A1,NA:VA)           200.00  +GHSERNA-50+1.3*T;       2300 N 91Din !
 PAR  G(LIQUID,NA)              200.00  +GLIQNA;                 2300 N 91Din !
$
 FUNCTION GHSERNA   200.00  -11989.434+260.548732*T-51.0393608*T*LN(T)
       +0.072306633*T**2-4.3638283E-05*T**3+132154*T**(-1);
       370.87  Y  -11009.884+199.619999*T-38.1198801*T*LN(T)
       +0.009745854*T**2-1.70664E-06*T**3+34342*T**(-1)+1.65071E+23*T**(-9);
      2300.00  N !
 FUNCTION GLIQNA    200.00  +2581.02-6.95218*T+GHSERNA-2.76132E-18*T**7;
       370.87  Y  +2609.444-7.032656*T+GHSERNA-1.65071E+23*T**(-9);
      2300.00  N !
$ ------------------------------------------------------------------------------
$ Te
$
$ HEXAGONAL_A8 and LIQUID revised in unary 3.0
$
 PAR  G(HEXAGONAL_A8,TE),,              +GHSERTE;                1600 N 95Dav !
 PAR  G(LIQUID,TE),,                    +GLIQTE;                 1600 N 95Dav !
$
 FUNCTION GHSERTE   298.15  -10544.679+183.372894*T-35.6687*T*LN(T)
       +0.01583435*T**2-5.240417E-06*T**3+155015*T**(-1);
       722.66  Y  +9160.595-129.265373*T+13.004*T*LN(T)
       -0.0362361*T**2+5.006367E-06*T**3-1286810*T**(-1);
      1150.00  Y  -12781.349+174.901226*T-32.5596*T*LN(T);
      1600.00  N !
 FUNCTION GLIQTE    298.15  -17554.731+685.877639*T-126.318*T*LN(T)
       +0.2219435*T**2-9.42075E-05*T**3+827930*T**(-1);
       626.49  Y  -3165763.48+46756.357*T-7196.41*T*LN(T)
       +7.09775*T**2-0.00130692833*T**3+2.58051E+08*T**(-1);
       722.66  Y  +180326.959-1500.57909*T+202.743*T*LN(T)
       -0.142016*T**2+1.6129733E-05*T**3-24238450*T**(-1);
      1150.00  Y  +19110.036-26.1929273*T+GHSERTE;
      1600.00  N !
$ ------------------------------------------------------------------------------
$ Binary system
$
$ Y. Chen, Y. Liu, M. Chu, L. Wang, J. Alloys Compd., 588, 605-10(2014).
$
$ Checked against paper. Checked at 6000 K.
$
$ Associate liquid with two associates; Na2Te and NaTe3. The NaTe3 associate
$ makes no sense.
$
$ Invariant equilibria differ by up to 22 K. There seem to be misprints
$ in the liquid parameters.
$
 PAR  G(LIQUID,NA2TE),,                 +2*GLIQNA+GLIQTE
             -320000+52*T;,,                                          N 14Che !
 PAR  G(LIQUID,NATE3),,                 +GLIQNA+3*GLIQTE
             -185000+49*T;,,                                          N 14Che !
 PAR  L(LIQUID,NA,NA2TE;0),,            +14000+4*T;,,                 N 14Che !
 PAR  L(LIQUID,NA,NA2TE;1),,            +16000-12*T;,,                N 14Che !
 PAR  L(LIQUID,NA,NA2TE;2),,            +4000;,,                      N 14Che !
 PAR  L(LIQUID,NA2TE,NATE3;0),,         +UN_ASS;,,                    N !
 PAR  L(LIQUID,NATE3,TE;0),,            +UN_ASS;,,                    N !
$ Original parameter in paper below
$PAR  L(LIQUID,NA2TE,TE;0),,            -40000-4*T;,,                 N 14Che !
$ Modified parameter in paper below
 PAR  L(LIQUID,NA2TE,TE;0),,            -45000-4*T;,,                 N 14Che !
 PAR  L(LIQUID,NA2TE,TE;1),,            +2000+4*T;,,                  N 14Che !
$
 PAR  G(NA2TE_C1,NA:TE),,               +2*GHSERNA+GHSERTE
             -330000+39.5*T;,,                                        N 14Che !
 PAR  G(NATE,NA:TE),,                   +GHSERNA+GHSERTE
             -175000+25.6*T;,,                                        N 14Che !
 PAR  G(NATE3,NA:TE),,                  +GHSERNA+3*GHSERTE
             -180000+7.9*T;,,                                         N 14Che !
$ ------------------------------------------------------------------------------
$
$
 LIST-OF-REFERENCE
 NUMBER  SOURCE
  Null   'Unknown source'
  Same   'Same or similar interaction as in the corresponding stable phase'
  COST   'COST 507 database'
  SGCOST 'COST 507 database, SGTE unary database V.3.0, 1996; Al, B, Nd, Ti, Zn'
  91Din  'A.T. Dinsdale, Calphad, 15, 317-425(1991).'
  95Dav  'A.V. Davydov, M.H. Rand, B.B. Argent, Calphad, 19, 375-87(1995),
          SGTE unary database V.3.0, 1996; Te'
  14Che  'Y. Chen, Y. Liu, M. Chu, L. Wang,
          J. Alloys Compd., 588, 605-10(2014); Na-Te'
!
