$
$ Database for Co-O from M. Chen et al. 2003 (included in LB Vol. 5)
$
$ M. Chen, B. Hallstedt, L.J. Gauckler, J. Phase Equilib., 24, 212-27(2003).
$
$ Dataset created 2009.10.18 by Bengt Hallstedt.
$ 2020.12.25: Modified for use with GES6.
$
$ The spinel should be modelled differently.
$
$ ------------------------------------------------------------------------------
 TEMP-LIM 298.15 6000.00 !
$
$ELEMENT NAME  REF. STATE               ATOMIC MASS H298-H0    S298    !
$
 ELEMENT /-   ELECTRON_GAS                0.0          0.0      0.0    ! 
 ELEMENT VA   VACUUM                      0.0          0.0      0.0    ! 
 ELEMENT CO   HCP_A3                     58.9332    4765.567   30.0400 ! 
 ELEMENT O    1/2_MOLE_O2(G)             15.999     4341.0    102.52   ! 
$ ------------------------------------------------------------------------------
$ Species
$
 SPECIE  CO+2                               CO1/+2 !
 SPECIE  CO+3                               CO1/+3 !
 SPECIE  CO2                                CO2 !
 SPECIE  COO                                CO1O1 !
 SPECIE  O-2                                O/-2 !
 SPECIE  O2                                 O2 !
 SPECIE  O3                                 O3 !
$ ------------------------------------------------------------------------------
$ Phase definitions
$
 PHASE LIQUID:L % 1 1 !
 CONST LIQUID:L : CO : !
$
 PHASE ION:Y % 2 1 1 !
 CONST ION:Y : CO+2 CO+3 : O-2 VA : !
$
$ Fcc (cF4, Fm-3m) and MeX (cF8, Fm-3m)
$
 PHASE FCC_A1 %A 2 1 1 !
 CONST FCC_A1 : CO : O VA% : !
$
$ Bcc (cI2, Im-3m)
$
 PHASE BCC_A2 %B 2 1 3 !
 CONST BCC_A2 : CO : O VA% : !
$
$ Hcp (hP2, P6_3/mmc) and Me2X (NiAs-type, hP4, P6_3/mmc, B8_1)
$
 PHASE HCP_A3 %A 2 1 0.5 !
 CONST HCP_A3 : CO : O VA% : !
$
$ Prototype NaCl (cF8, Fm-3m)
$
 PHASE HALITE_B1:I %A 2 1 1 !
 CONST HALITE_B1:I : CO+2 : O-2 : !
$
$ Prototype Al2MgO4 (cF56, Fd-3m)
$
 PHASE SPINEL_H11:I % 3 1 2 4 !
 CONST SPINEL_H11:I : CO+2 CO+3 : CO+2 CO+3 : O-2 : !
$
 PHASE O2GAS % 1 1 !
 CONST O2GAS : O2 :!
$
 PHASE GAS:G % 1 1 !
 CONST GAS:G : CO COO CO2 O O2 O3 : !
$ ------------------------------------------------------------------------------
$ Defaults
$
 DEFINE-SYSTEM-DEFAULT ELEMENT 2 !
 DEFAULT-COM DEFINE_SYSTEM_ELEMENT VA /- !
 DEFAULT-COM REJECT_PHASE LIQUID !
 TYPE-DEF % SEQ * !
 TYPE-DEF A GES AMEND_PHASE_DESCRIPTION @ MAGNETIC -3 0.28 !
 TYPE-DEF B GES AMEND_PHASE_DESCRIPTION @ MAGNETIC -1 0.4 !
 FUNCTION ZERO      298.15  0;                                         6000 N !
 FUNCTION UN_ASS    298.15  0;                                         6000 N !
 FUNCTION R         298.15  +8.31451;                                  6000 N !
 FUNCTION RTLNP     298.15  +8.31451*T*LN(1E-05*P);                    6000 N !
$ ------------------------------------------------------------------------------
$ Element data
$ ------------------------------------------------------------------------------
$ Co
$
 PAR  G(HCP_A3,CO:VA),,                 +GHSERCO;,,                   N 91Din !
 PAR  TC(HCP_A3,CO:VA),,                 1396.00;,,                   N 91Din !
 PAR  BM(HCP_A3,CO:VA),,                    1.35;,,                   N 91Din !
 PAR  G(FCC_A1,CO:VA),,                 +GHSERCO
             +427.591-0.615248*T;,,                                   N 91Din !
 PAR  TC(FCC_A1,CO:VA),,                 1396.00;,,                   N 91Din !
 PAR  BM(FCC_A1,CO:VA),,                    1.35;,,                   N 91Din !
 PAR  G(BCC_A2,CO:VA),,                 +GHSERCO+2938-0.7138*T;,,     N 91Din !
 PAR  TC(BCC_A2,CO:VA),,                 1450.00;,,                   N 91Din !
 PAR  BM(BCC_A2,CO:VA),,                    1.35;,,                   N 91Din !
$PAR  G(CBCC_A12,CO:VA),,               +GHSERCO+4155;,,              N 91Din !
$PAR  G(CUB_A13,CO:VA),,                +GHSERCO+3155;,,              N 91Din !
 PAR  G(LIQUID,CO),,                    +GLIQCO;,,                    N 91Din !
$
 PAR  G(ION,CO+2:VA),,                  +GLIQCO;,,                    N 91Din !
 PAR  G(ION,CO+3:VA),,                  +2*GLIQCO+2*GCOOS+GHSEROO
             -76314+103.63*T-3*GCOOLIQ;,,                             N 03Che !
$
 PAR  G(GAS,CO),,                       +F7261T+RTLNP;,,              N 97SGT !
 PAR  G(GAS,CO2),,                      +F7427T+RTLNP;,,              N 97SGT !
$
 FUNCTION GHSERCO   298.15  +310.241+133.36601*T-25.0861*T*LN(T)
       -0.002654739*T**2-1.7348E-07*T**3+72527*T**(-1);
      1768.00  Y  -17197.666+253.28374*T-40.5*T*LN(T)+9.3488E+30*T**(-9);
      6000.00  N !
 FUNCTION GLIQCO    298.15  +15085.037-8.931932*T+GHSERCO-2.19801E-21*T**7;
      1768.00  Y  -846.61+243.599944*T-40.5*T*LN(T);
      6000.00  N !
 FUNCTION GFCCCO    298.15  +GHSERCO+427.59-0.615248*T;                6000 N !
$ Co(g)
 FUNCTION F7261T    298.15  +416729.448-35.1568065*T-20.78*T*LN(T)
       -0.0080941*T**2+1.95473333E-06*T**3+68440*T**(-1);
       600.00  Y  +415600.439-4.36923762*T-25.919*T*LN(T)
       -3.217E-04*T**2+1.228E-08*T**3+69800*T**(-1);
      1600.00  Y  +404059.607+61.0546568*T-34.475*T*LN(T)
       +0.00226985*T**2-1.11743333E-07*T**3+2845480*T**(-1);
      5300.00  Y  +619409.166-455.074402*T+25.674*T*LN(T)
       -0.00531515*T**2+7.04183333E-08*T**3-1.4391985E+08*T**(-1);
     10000.00  N !
$ Co2(g)
 FUNCTION F7427T    298.15  +739344.569+228.270514*T-75.86201*T*LN(T)
       +0.02653785*T**2-3.82613167E-06*T**3+589055*T**(-1);
       900.00  Y  +766271.805-69.2721005*T-32.277*T*LN(T)
       -0.0051345*T**2+5.3545E-07*T**3-2559210*T**(-1);
      2500.00  Y  +742734.91+122.487528*T-58.296*T*LN(T)
       +0.0049326*T**2-1.22191667E-07*T**3-1487375*T**(-1);
      5800.00  Y  +1148759.49-821.285063*T+51.18*T*LN(T)
       -0.0082646*T**2+1.77621667E-07*T**3-2.8575475E+08*T**(-1);
      6000.00  N !
$ ------------------------------------------------------------------------------
$ O
$
$ GHSEROO modified in unary 3.0
$
 PAR  G(O2GAS,O2),,                     +2*GHSEROO+RTLNP;,,           N 91Din !
$
 PAR  G(GAS,O),,                        +F7397T+RTLNP;,,              N 92SGT !
 PAR  G(GAS,O2),,                       +2*GHSEROO+RTLNP;,,           N 91Din !
 PAR  G(GAS,O3),,                       +F7683T+RTLNP;,,              N 92SGT !
$
$PAR  G(HALITE_B1,VA:O-2),,             +ZERO;,,                      N 91Sun !
$
 FUNCTION GSOLOO    298.15  +GHSEROO+65*T;                             6000 N !
$ 1/2 O2(g)
 FUNCTION GHSEROO   298.15  -3480.87-25.503038*T-11.1355*T*LN(T)
       -0.005098875*T**2+6.61845833E-07*T**3-38365*T**(-1);
      1000.00  Y  -6568.763+12.659879*T-16.8138*T*LN(T)
       -5.957975E-04*T**2+6.781E-09*T**3+262905*T**(-1);
      3300.00  Y  -13986.728+31.259624*T-18.9536*T*LN(T)
       -4.25243E-04*T**2+1.0721E-08*T**3+4383200*T**(-1);
      6000.00  N !
$ O(g)
 FUNCTION F7397T    298.15  +243206.529-42897.0876*T**(-1)-20.7513421*T
       -21.0155542*T*LN(T)+1.26870532E-04*T**2-1.23131285E-08*T**3;
      2950.00  Y  +252301.473-3973170.33*T**(-1)-51.974853*T
       -17.2118798*T*LN(T)-5.41356254E-04*T**2+7.64520703E-09*T**3;
      6000.00  N !
$ O3(g)
 FUNCTION F7683T    298.15  +133772.042-11328.9959*T**(-1)-84.8602165*T
       -19.8314069*T*LN(T)-0.0392015696*T**2+7.90727187E-06*T**3;  
       600.00  Y  +120765.524+997137.156*T**(-1)+120.113376*T
       -51.8410152*T*LN(T)-0.00353983136*T**2+3.20640143E-07*T**3;
      1500.00  Y  +115412.196+1878139.02*T**(-1)+164.679664*T
       -58.069736*T*LN(T)-2.84399032E-04*T**2+5.95650279E-10*T**3;
      6000.00  N !
$ ------------------------------------------------------------------------------
$ Binary system
$
$ From M. Chen et al. 2003 (included in LB Vol. 5)
$
$ M. Chen, B. Hallstedt, L.J. Gauckler, J. Phase Equilib., 24, 212-27(2003).
$
$ Checked against paper and LB. Checked at 6000 K.
$
 PAR  G(ION,CO+2:O-2),,                 +2*GCOOLIQ;,,                 N 03Che !
 PAR  G(ION,CO+3:O-2),,                 +2*GCOOS+GHSEROO
             -76314+103.63*T;,,                                       N 03Che !
 PAR  L(ION,CO+2:O-2,VA;0),,            +182675-30.556*T;,,           N 03Che !
 PAR  L(ION,CO+2:O-2,VA;2),,            +54226-20*T;,,                N 03Che !
$
 PAR  G(FCC_A1,CO:O),,                  +GFCCCO+GHSEROO
             -213318+107.071*T;,,                                     N 03Che !
 PAR  L(FCC_A1,CO:VA,O;0),,             +ZERO;,,                      N 03Che !
$
 PAR  G(HCP_A3,CO:O),,                  +GHSERCO+0.5*GHSEROO
             -122309+66.269*T;,,                                      N 03Che !
 PAR  L(HCP_A3,CO:VA,O;0),,             +ZERO;,,                      N 03Che !
$
 PAR  G(HALITE_B1,CO+2:O-2),,           +GCOOS;,,                     N 03Che !
 PAR  TC(HALITE_B1,CO+2:O-2),,           -870.00;,,                   N 03Che !
 PAR  BM(HALITE_B1,CO+2:O-2),,             +2.00;,,                   N 03Che !
$
 PAR  G(SPINEL_H11,CO+2:CO+3:O-2),,     +NCO3O4;,,                    N 03Che !
 PAR  G(SPINEL_H11,CO+2:CO+2:O-2),,     +NCO3O4+2*ICO3O4
             +23.05272*T;,,                                           N 03Che !
 PAR  G(SPINEL_H11,CO+3:CO+2:O-2),,     +2*ICO3O4+23.05272*T;,,       N 03Che !
 PAR  G(SPINEL_H11,CO+3:CO+3:O-2),,     +ZERO;,,                      N 03Che !
 PAR  L(SPINEL_H11,CO+2,CO+3:CO+2:O-2;0),, -30847+44.249*T;,,         N 03Che !
 PAR  L(SPINEL_H11,CO+2,CO+3:CO+3:O-2;0),, -30847+44.249*T;,,         N 03Che !
$
 PAR  G(GAS,COO),,                      +F7356T+RTLNP;,,              N 97SGT !
$
 FUNCTION GCOOS     298.15  -252530+270.075*T-47.825*T*LN(T)
       -0.005112*T**2+225008*T**(-1);
      6000.00  N !
 FUNCTION GCOOLIQ   298.15  +GCOOS+42060-20*T;                         6000 N !
 FUNCTION NCO3O4    298.15  -969727+915.076*T-150.26*T*LN(T)
       -0.004773*T**2+1358967*T**(-1);
      6000.00  N !
 FUNCTION ICO3O4    298.15  +NCO3O4+95345-85.852*T;                    6000 N !
$ CoO(g)
 FUNCTION F7356T    298.15  +275841.927+24.2052571*T-38.62*T*LN(T)
       +0.0010486*T**2-5.3089E-07*T**3+44960*T**(-1);
      1000.00  Y  +271341.103+44.8779144*T-41.009*T*LN(T)
       -1.055E-05*T**2-9.90866667E-08*T**3+1003100*T**(-1);
      2900.00  Y  +390604.342-373.80702*T+10.233*T*LN(T)
       -0.0095202*T**2+2.18581667E-07*T**3-49953335*T**(-1);
      5600.00  Y  +339256.902-297.681941*T+2.109*T*LN(T)
       -0.00931405*T**2+2.32998333E-07*T**3-1285140*T**(-1);
      6000.00  N !
$ ------------------------------------------------------------------------------
$
 ASSESSED_SYSTEM
  CO-O(TDB -* +GAS +ION +HCP_A3 +FCC_A1 +BCC_A2 +HALITE +SPINEL
  ;G5 C_S:IONIC_LIQ/CO+2:O-2 MAJ:IONIC_LIQ/CO+2:VA 
  ;P3 TMM:500/3000 STP:0.3/2300/1 STP:0.6/2000/2) !
$
$
 LIST-OF-REFERENCE
 NUMBER  SOURCE
  Null   'Unknown source'
  Same   'Same or similar interaction as in the corresponding stable phase'
  REFLAV 'Laves phase convention: G(LAVES,X:X)=+3*GHSERXX+15000'
  91Din  'A.T. Dinsdale, Calphad, 15, 317-425(1991).'
  91Sun  'B. Sundman, J. Phase Equilib., 12, 127-40(1991); Fe-O'
  92SGT  'SGTE Substance Database, version 1992'
  97SGT  'SGTE Substance Database, version 1997'
  03Che  'M. Chen, B. Hallstedt, L.J. Gauckler,
          J. Phase Equilib., 24, 212-27(2003); Co-O'
!
