$
$ Database for Ca-Ga from X. Li et al. 2013.
$
$ X. Li, K. Cheng, X. Yuan, D. Zhao, J. Xin, W. Wang, C. Zhang, Y. Du,
$ Calphad, 43, 52-60(2013).
$
$ Dataset created 2018.03.31 by Bengt Hallstedt.
$ 2020.12.25: Modified for use with GES6.
$
$ Parameters from Table 3 in the paper.
$
$ Bcc is stable above 4600 K at x(Ga)=0.24.
$
$ ------------------------------------------------------------------------------
 TEMP-LIM 298.15 6000.00 !
$
$ELEMENT NAME  REF. STATE               ATOMIC MASS H298-H0    S298    !
$
 ELEMENT VA   VACUUM                      0.0          0.0      0.0    ! 
 ELEMENT CA   FCC_A1                     40.08      5736.0     41.588  ! 
 ELEMENT GA   ORTHORHOMBIC_A11           69.72      5572.0     40.7271 ! 
$ ------------------------------------------------------------------------------
$ Phase definitions
$
 PHASE LIQUID:L % 1 1 !
 CONST LIQUID:L : CA GA : !
$
$ Fcc (cF4, Fm-3m) and MeX (cF8, Fm-3m)
$
 PHASE FCC_A1 %A 2 1 1 !
 CONST FCC_A1 : CA% GA : VA : !
$
$ Bcc (cI2, Im-3m)
$
 PHASE BCC_A2 %B 2 1 3 !
 CONST BCC_A2 : CA% GA : VA : !
$
$ Hcp (hP2, P6_3/mmc) and Me2X (NiAs-type, hP4, P6_3/mmc, B8_1)
$
 PHASE HCP_A3 %A 2 1 0.5 !
 CONST HCP_A3 : CA GA : VA : !
$
$ alpha-Ga (oC8, Cmca)
$
 PHASE ORTHORHOMBIC_A11 % 1 1 !
 CONST ORTHORHOMBIC_A11 : GA : !
$
$ Prototype Ca28Ga11 (oI78, Imm2)
$
 PHASE CA28GA11 % 2 28 11 !
 CONST CA28GA11 : CA : GA : !
$
$ Prototype Cr5B3 (tI32, I4/mcm)
$
 PHASE CA5GA3_D8L % 2 5 3 !
 CONST CA5GA3_D8L : CA : GA : !
$
$ Prototype Ca11Ga7 (cF144, Fm-3m)
$
 PHASE CA11GA7 % 2 11 7 !
 CONST CA11GA7 : CA : GA : !
$
$ Prototype CrB (oC8, Cmcm)
$
 PHASE CAGA_B33 % 2 1 1 !
 CONST CAGA_B33 : CA : GA : !
$
$ Prototype Ca3Ga5 (oC32, Cmcm)
$
 PHASE CA3GA5 % 2 3 5 !
 CONST CA3GA5 : CA : GA : !
$
$ Prototype CaIn2 (hP6, P6_3/mmc)
$
 PHASE CAGA2 % 2 1 2 !
 CONST CAGA2 : CA : GA : !
$
$ Prototype Ca25Ga59 (hP9, P6/mmm)
$
 PHASE CA25GA59 % 2 25 59 !
 CONST CA25GA59 : CA : GA : !
$
$ Prototype Eu3Ga8 (oI22, Immm)
$
 PHASE CA3GA8 % 2 3 8 !
 CONST CA3GA8 : CA : GA : !
$
$ Prototype CaGa4 (mC10, C2/m)
$
 PHASE CAGA4 % 2 1 4 !
 CONST CAGA4 : CA : GA : !
$ ------------------------------------------------------------------------------
$ Defaults
$
 DEFINE-SYSTEM-DEFAULT ELEMENT 2 !
 DEFAULT-COM DEFINE_SYSTEM_ELEMENT VA !
 TYPE-DEF % SEQ * !
 TYPE-DEF A GES AMEND_PHASE_DESCRIPTION @ MAGNETIC -3 0.28 !
 TYPE-DEF B GES AMEND_PHASE_DESCRIPTION @ MAGNETIC -1 0.4 !
 FUNCTION ZERO      298.15  0;                                         6000 N !
 FUNCTION UN_ASS    298.15  0;                                         6000 N !
 FUNCTION R         298.15  +8.31451;                                  6000 N !
$ ------------------------------------------------------------------------------
$ Element data
$ ------------------------------------------------------------------------------
$ Ca
$
$ FCC_A1, BCC_A2, HCP_A3 and LIQUID modified in unary 5.0
$ (upper T interval added + trailing decimals added)
$
 PAR  G(FCC_A1,CA:VA),,                 +GHSERCA;                3001 N 91Din !
 PAR  G(BCC_A2,CA:VA),,                 +GBCCCA;                 3001 N 91Din !
 PAR  G(HCP_A3,CA:VA),,                 +GHSERCA+500+0.7*T;      3001 N 91Din !
 PAR  G(LIQUID,CA),,                    +GLIQCA;                 3001 N 91Din !
$
 FUNCTION GHSERCA   298.15  -4955.062+72.794266*T-16.3138*T*LN(T)
       -0.01110455*T**2-133574*T**(-1);
      1115.00  Y  -107304.428+799.982066*T-114.2922467*T*LN(T)
       +0.023733814*T**2-1.2438E-06*T**3+18245540*T**(-1);
      3000.00  Y  -3703.12+192.63995*T-35.0*T*LN(T);
      3001.00  N !
 FUNCTION GBCCCA    298.15  -7020.852+142.970155*T-28.2541*T*LN(T)
       +0.0072326*T**2-4.500217E-06*T**3+60578*T**(-1);
       716.00  Y  +1640.475+1.999694*T-6.276*T*LN(T)
       -0.0161921*T**2-523000*T**(-1);
      1115.00  Y  -142331.096+1023.549046*T-143.8726979*T*LN(T)
       +0.032543127*T**2-1.704079E-06*T**3+25353771*T**(-1);
      3000.00  Y  +321.63+189.433057*T-35*T*LN(T);
      3001.00  N !
 FUNCTION GLIQCA    298.15  +10799.908-10.310466*T+GHSERCA;
       500.00  Y  +7838.856+18.2979*T-8.9874787*T*LN(T)
       -0.02266537*T**2+3.338303E-06*T**3-230193*T**(-1);
      1115.00  Y  -2654.938+188.9223*T-35*T*LN(T);
      3001.00  N !
$ ------------------------------------------------------------------------------
$ Ga
$
$ DIAMOND_A4 added in unary 5.0
$
$ Changed name from ORTHORHOMBIC_GA to ORTHORHOMBIC_A11
$
 PAR  G(ORTHORHOMBIC_A11,GA)    200.00  +GHSERGA;                4000 N 91Din !
 PAR  G(FCC_A1,GA:VA)           200.00  +GHSERGA+3800-10.2*T;    4000 N 91Din !
 PAR  G(BCC_A2,GA:VA)           200.00  +GHSERGA+4500-11.7*T;    4000 N 91Din !
 PAR  G(HCP_A3,GA:VA)           200.00  +GHSERGA+4500-9.5*T;     4000 N 91Din !
$PAR  G(DIAMOND_A4,GA)          200.00  +GHSERGA+20900-2*T;      4000 N 09SGUN !
$PAR  G(BCT_A5,GA)              200.00  +GHSERGA+3846-9.8*T;     4000 N 91Din !
$PAR  G(TETRAGONAL_A6,GA)       200.00  +GHSERGA+3500-10*T;      4000 N 91Din !
 PAR  G(LIQUID,GA)              200.00  +GLIQGA;                 4000 N 91Din !
$
 FUNCTION GHSERGA   200.00  -21312.331+585.263691*T-108.228783*T*LN(T)
       +0.227155636*T**2-1.18575257E-04*T**3+439954*T**(-1);
       302.91  Y  -7055.643+132.73019*T-26.0692906*T*LN(T)
       +1.506E-04*T**2-4.0173E-08*T**3-118332*T**(-1)+1.64547E+23*T**(-9);
      4000.00  N !
 FUNCTION GLIQGA    200.00  +5491.298-18.073995*T+GHSERGA-7.0171E-17*T**7;
       302.91  Y  +5666.455-18.681147*T+GHSERGA-1.64547E+23*T**(-9);
      4000.00  N !
$ ------------------------------------------------------------------------------
$ Binary system
$
$ X. Li, K. Cheng, X. Yuan, D. Zhao, J. Xin, W. Wang, C. Zhang, Y. Du,
$ Calphad, 43, 52-60(2013).
$
$ Checked against paper and author's tdb. Checked at 6000.
$
$ Parameters from Table 3 in the paper.
$
$ Bcc is stable above 4600 K at x(Ga)=0.24.
$
 PAR  L(LIQUID,CA,GA;0),,               -131656+39.9*T;,,             N 13Li !
 PAR  L(LIQUID,CA,GA;1),,               +20413;,,                     N 13Li !
$
 PAR  G(CA28GA11,CA:GA),,               +28*GHSERCA+11*GHSERGA
             -1222533+366.6*T;,,                                      N 13Li !
 PAR  G(CA5GA3_D8L,CA:GA),,             +5*GHSERCA+3*GHSERGA
             -307440+74.4*T;,,                                        N 13Li !
 PAR  G(CA11GA7,CA:GA),,                +11*GHSERCA+7*GHSERGA
             -711090+171*T;,,                                         N 13Li !
 PAR  G(CAGA_B33,CA:GA),,               +GHSERCA+GHSERGA
             -96368+23.2*T;,,                                         N 13Li !
 PAR  G(CA3GA5,CA:GA),,                 +3*GHSERCA+5*GHSERGA
             -405480+82.4*T;,,                                        N 13Li !
 PAR  G(CAGA2,CA:GA),,                  +GHSERCA+2*GHSERGA
             -146286+23.7*T;,,                                        N 13Li !
 PAR  G(CA25GA59,CA:GA),,               +25*GHSERCA+59*GHSERGA
             -3745896+445.2*T;,,                                      N 13Li !
 PAR  G(CA3GA8,CA:GA),,                 +3*GHSERCA+8*GHSERGA
             -457919+40.7*T;,,                                        N 13Li !
 PAR  G(CAGA4,CA:GA),,                  +GHSERCA+4*GHSERGA-161350;,,  N 13Li !
$ ------------------------------------------------------------------------------
$
$
 LIST-OF-REFERENCE
 NUMBER  SOURCE
  Null   'Unknown source'
  Same   'Same or similar interaction as in the corresponding stable phase'
  COST   'COST 507 database'
  91Din  'A.T. Dinsdale, Calphad, 15, 317-425(1991).'
  07Wan  'J.F. Wang, W.X. Yuan, X. Zhao, W.L. Qian, Z.F. Cai,
          Calphad, 31, 120-24(2007); Ca-Ga'
  09SGUN 'SGTE unary database V.5.0, 2009.'
  13Li   'X. Li, K. Cheng, X. Yuan, D. Zhao, J. Xin, W. Wang, C. Zhang, Y. Du,
          Calphad, 43, 52-60(2013); Ca-Ga'
!
