$
$ Database for Li-Mg from N. Saunders 1990 (included in LB Vol. 3)
$
$ N. Saunders, Calphad, 14, 61-70 (1990).
$
$ Dataset created 2010.02.01 by Bengt Hallstedt.
$ 2021.01.24: Modified for use with GES6.
$
$ There is a newer version than Nigel Saunders' from Braga et al.
$ included in their Cu-Li-Mg assessment. However, the quality of the
$ experimental data can be seriously doubted. Their Li-Mg phase diagram
$ does not look convincing either.
$ There is also a newer version from Gasior et al. (1996), but their
$ parameters fail to reproduce their figures. Otherwise, this might
$ have been the best version.
$
$ The fcc interaction is -6856 in the COST report and +7500 in the database.
$
$ ------------------------------------------------------------------------------
 TEMP-LIM 298.15 6000.00 !
$
$ELEMENT NAME  REF. STATE               ATOMIC MASS H298-H0    S298    !
$
 ELEMENT VA   VACUUM                      0.0          0.0      0.0    ! 
 ELEMENT LI   BCC_A2                      6.941     4632.00    29.12   ! 
 ELEMENT MG   HCP_A3                     24.305     4998.      32.671  !
$ ------------------------------------------------------------------------------
$ Phase definitions
$
 PHASE LIQUID:L % 1 1 !
 CONST LIQUID:L : LI MG : !
$
$ Fcc (cF4, Fm-3m) and MeX (cF8, Fm-3m)
$
 PHASE FCC_A1 % 2 1 1 !
 CONST FCC_A1 : LI MG : VA : !
$
$ Bcc (cI2, Im-3m)
$
 PHASE BCC_A2 % 2 1 3 !
 CONST BCC_A2 : LI% MG : VA : !
$
$ Hcp (hP2, P6_3/mmc) and Me2X (NiAs-type, hP4, P6_3/mmc, B8_1)
$
 PHASE HCP_A3 % 2 1 0.5 !
 CONST HCP_A3 : LI MG% : VA: !
$ ------------------------------------------------------------------------------
$ Defaults
$
 DEFINE-SYSTEM-DEFAULT ELEMENT 2 !
 DEFAULT-COM DEFINE_SYSTEM_ELEMENT VA !
 TYPE-DEF % SEQ * !
 FUNCTION ZERO      298.15  0;                                         6000 N !
 FUNCTION UN_ASS    298.15  0;                                         6000 N !
$ ------------------------------------------------------------------------------
$ Element data
$ ------------------------------------------------------------------------------
$ Li
$
 PAR  G(BCC_A2,LI:VA)           200.00  +GHSERLI;                3000 N 91Din !
 PAR  G(FCC_A1,LI:VA)           200.00  +GHSERLI-108+1.3*T;      3000 N 91Din !
 PAR  G(HCP_A3,LI:VA)           200.00  +GHSERLI-154+2*T;        3000 N 91Din !
 PAR  G(LIQUID,LI)              200.00  +GLIQLI;                 3000 N 91Din !
$
$PAR  G(ALLI_B32,LI:LI),,               +2*GHSERLI+2;,,               N 89Sau !
$PAR  G(ALLI_B32,LI:VA),,               +GHSERLI+50000;,,             N 89Sau !
$PAR  G(C15_LAVES,LI:LI),,              +3*GHSERLI+15000;,,           N 00Bra !
$
 FUNCTION GHSERLI   200.00  -10583.817+217.637482*T-38.940488*T*LN(T)
       +0.035466931*T**2-1.9869816E-05*T**3+159994*T**(-1);
       453.60  Y  -559579.123+10547.8799*T-1702.88865*T*LN(T)
       +2.25832944*T**2-5.71066077E-04*T**3+33885874*T**(-1);
       500.00  Y  -9062.994+179.278285*T-31.2283718*T*LN(T)
       +0.002633221*T**2-4.38058E-07*T**3-102387*T**(-1);
      3000.00  N !
 FUNCTION GLIQLI    200.00  +2700.205-5.795621*T+GHSERLI;
       250.00  Y  +12015.027-362.187078*T+61.6104424*T*LN(T)
       -0.182426463*T**2+6.3955671E-05*T**3-559968*T**(-1);
       453.60  Y  -6057.31+172.652183*T-31.2283718*T*LN(T)
       +0.002633221*T**2-4.38058E-07*T**3-102387*T**(-1);
       500.00  Y  +3005.684-6.626102*T+GHSERLI;
      3000.00  N !
$ ------------------------------------------------------------------------------
$ Mg
$
 PAR  G(FCC_A1,MG:VA),,                 +GHSERMG+2600-0.9*T;     3000 N 91Din !
 PAR  G(BCC_A2,MG:VA),,                 +GHSERMG+3100-2.1*T;     3000 N 91Din !
 PAR  G(HCP_A3,MG:VA),,                 +GHSERMG;                3000 N 91Din !
 PAR  G(LIQUID,MG),,                    +GLIQMG;                 3000 N 91Din !
$
$PAR  G(ALLI_B32,MG:MG),,               +2*GBCCMG;,,                  N 98Sau7 !
$PAR  G(ALLI_B32,MG:VA),,               +GBCCMG+50000;,,              N 98Sau7 !
$PAR  G(ALLI_B32,MG:VA),,               +GHSERMG+25000;,,             N COST !
$PAR  G(AL12MG17_A12,MG:MG:MG),,        +58*GHSERMG+290000;,,         N 90Sau !
$PAR  G(C14_LAVES,MG:MG),,              +3*GHSERMG+15000;,,           N REFLAV !
$PAR  G(C15_LAVES,MG:MG),,              +3*GHSERMG+15000;,,           N REFLAV !
$PAR  G(C36_LAVES,MG:MG),,              +3*GHSERMG+15000;,,           N REFLAV !
$
 FUNCTION GHSERMG   298.15  -8367.34+143.675547*T-26.1849782*T*LN(T)
       +4.858E-04*T**2-1.393669E-06*T**3+78950*T**(-1);
       923.00  Y  -14130.185+204.716215*T-34.3088*T*LN(T)+1.038192E+28*T**(-9);
      3000.00  N !
 FUNCTION GLIQMG    298.15  +8202.243-8.83693*T+GHSERMG-8.0176E-20*T**7;
       923.00  Y  -5439.869+195.324057*T-34.3088*T*LN(T);
      3000.00  N !
 FUNCTION GBCCMG    298.15  +GHSERMG+3100-2.1*T;                       3000 N !
$ ------------------------------------------------------------------------------
$ Binary system
$
$ From Saunders 1990 (included in LB Vol. 3)
$
$ N. Saunders, Calphad, 14, 61-70 (1990).
$
$ Checked against LB and paper. Checked at 6000 K.
$
$ There is a newer version than Nigel Saunders' from Braga et al.
$ included in their Cu-Li-Mg assessment. However, the quality of the
$ experimental data can be seriously doubted. Their Li-Mg phase diagram
$ does not look convincing either.
$ There is also a newer version from Gasior et al. (1996), but their
$ parameters fail to reproduce their figures. Otherwise, this might
$ have been the best version.
$
$ The fcc interaction is -6856 in the COST report and +7500 in the database.
$
 PAR  L(LIQUID,LI,MG;0),,               -14935+10.371*T;,,            N 90Sau !
 PAR  L(LIQUID,LI,MG;1),,               -1789+1.143*T;,,              N 90Sau !
 PAR  L(LIQUID,LI,MG;2),,               +6533-6.6915*T;,,             N 90Sau !
$
 PAR  L(BCC_A2,LI,MG:VA;0),,            -18335+8.49*T;,,              N 90Sau !
 PAR  L(BCC_A2,LI,MG:VA;1),,            +3481;,,                      N 90Sau !
 PAR  L(BCC_A2,LI,MG:VA;2),,            +2658-0.114*T;,,              N 90Sau !
$
 PAR  L(HCP_A3,LI,MG:VA;0),,            -6856;,,                      N 90Sau !
 PAR  L(HCP_A3,LI,MG:VA;1),,            +4000;,,                      N 90Sau !
 PAR  L(HCP_A3,LI,MG:VA;2),,            +4000;,,                      N 90Sau !
$
$ Metastable
$
 PAR  L(FCC_A1,LI,MG:VA;0),,            +7500;,,                     N 98Sau12 !
$PAR  L(FCC_A1,LI,MG:VA;0),,            -6856;,,                     N 98Sau12 !
$
$PAR  G(ALLI_B32,LI:MG),,               +GHSERLI+GBCCMG-9168+4.2*T;,, N 98Sau7 !
$PAR  G(ALLI_B32,MG:LI),,               +GHSERLI+GBCCMG-9168+4.2*T;,, N 98Sau7 !
$
$PAR  G(AL12MG17_A12,LI:LI:MG),,        +34*GHSERLI+24*GHSERMG
$            +290000;,,                                               N 98Sau7 !
$PAR  G(AL12MG17_A12,MG:LI:MG),,        +10*GHSERLI+48*GHSERMG
$            +290000;,,                                               N 98Sau7 !
$PAR  G(AL12MG17_A12,LI:MG:MG),,        +24*GHSERLI+34*GHSERLI
$            +290000;,,                                               N 98Sau7 !
$
$PAR  G(C15_LAVES,LI:MG),,              +2*GHSERLI+GHSERMG
$            +33902.278;,,                                            N 00Bra !
$PAR  G(C15_LAVES,MG:LI),,              +GHSERLI+2*GHSERMG
$            -3902.278;,,                                             N 00Bra !
$ ------------------------------------------------------------------------------
$
 ASSESSED_SYSTEM
  LI-MG(TDB -* +LIQUID +BCC_A2 +HCP_A3 ;G5 MAJ:BCC/ZR:VA C_S:BCC/NB:VA
  ;P3 TMM:300/1000 STP:.4/700) !
$
$
 LIST-OF-REFERENCE
 NUMBER  SOURCE
  Null   'Unknown source'
  COST   'COST 507 database'
  REFLAV 'Laves phase convention: G(LAVES,X:X)=+3*GHSERXX+15000'
  89Sau  'N. Saunders, Z. Metallkd., 80, 894-903 (1989); Al-Li'
  90Sau  'N. Saunders, Calphad, 14, 61-70 (1990); Al-Mg, Li-Mg'
  91Din  'A.T. Dinsdale, Calphad, 15, 317-425(1991).'
  98Sau12 'N. Saunders, COST 507, Final report round 2, 1998; Li-Mg'
  98Sau7 'N. Saunders, COST 507, Final report round 2, 1998; Al-Li-Mg'
  00Bra  'M.H. Braga, L.F. Malheiros, M. Hamalainen,
          Thermochim. Acta, 344, 47-54 (2000); Cu-Li-Mg'
!
