$
$ Database for Os-C from J. Korb and T. Jantzen 2004 (Included in LB Vol. 5)
$
$ J. Korb, T. Jantzen, unpublished work, GTT, 2004.
$
$ Dataset created 2015.03.22 by Bengt Hallstedt.
$ 2021.02.03: Modified for use with GES6.
$
$ ------------------------------------------------------------------------------
 TEMP-LIM 298.15 6000.00 !
$
$ELEMENT NAME  REF. STATE               ATOMIC MASS H298-H0    S298    !
$
 ELEMENT VA   VACUUM                      0.0          0.0      0.0    ! 
 ELEMENT C    GRAPHITE                   12.011     1054.0      5.7423 ! 
 ELEMENT OS   HCP_A3                    190.20         0.      32.6352 ! 
$ ------------------------------------------------------------------------------
$ Phase definitions
$
 PHASE LIQUID:L % 1 1 !
 CONST LIQUID:L : C OS : !
$
$ Fcc (cF4, Fm-3m) and MeX (cF8, Fm-3m)
$
 PHASE FCC_A1 %A 2 1 1 !
 CONST FCC_A1 : OS : C VA% : !
$
$ Bcc (cI2, Im-3m)
$
 PHASE BCC_A2 %B 2 1 3 !
 CONST BCC_A2 : OS : C VA% : !
$
$ Hcp (hP2, P6_3/mmc) and Me2X (NiAs-type, hP4, P6_3/mmc, B8_1)
$
 PHASE HCP_A3 %A 2 1 0.5 !
 CONST HCP_A3 : OS : C VA% : !
$
$ Prototype C (cF8, Fd-3m)
$
 PHASE DIAMOND_A4 % 1 1 !
 CONST DIAMOND_A4 : C : !
$
$ Prototype C (hP4, P6_3/mmc)
$
 PHASE GRAPHITE_A9 % 1 1 !
 CONST GRAPHITE_A9 : C : !
$ ------------------------------------------------------------------------------
$ Defaults
$
 DEFINE-SYSTEM-DEFAULT ELEMENT 2 !
 DEFAULT-COM DEFINE_SYSTEM_ELEMENT VA !
 TYPE-DEF % SEQ * !
 TYPE-DEF A GES AMEND_PHASE_DESCRIPTION @ MAGNETIC -3 0.28 !
 TYPE-DEF B GES AMEND_PHASE_DESCRIPTION @ MAGNETIC -1 0.4 !
 FUNCTION ZERO      298.15  0;                                         6000 N !
 FUNCTION UN_ASS    298.15  0;                                         6000 N !
 FUNCTION R         298.15  +8.31451;                                  6000 N !
$ ------------------------------------------------------------------------------
$ Element data
$ ------------------------------------------------------------------------------
$ C
$
 PAR  G(GRAPHITE_A9,C),,                +GHSERCC;,,                   N 91Din !
 PAR  G(DIAMOND_A4,C),,                 +GDIACC;,,                    N 91Din !
 PAR  G(LIQUID,C),,                     +GHSERCC+117369-24.63*T;,,    N 91Din !
$
 FUNCTION GHSERCC   298.15  -17368.441+170.73*T-24.3*T*LN(T)
       -4.723E-04*T**2+2562600*T**(-1)-2.643E+08*T**(-2)+1.2E+10*T**(-3);
      6000.00  N !
 FUNCTION GDIACC    298.15  -16359.441+175.61*T-24.31*T*LN(T)
       -4.723E-04*T**2+2698000*T**(-1)-2.61E+08*T**(-2)+1.11E+10*T**(-3);
      6000.00  N !
$ ------------------------------------------------------------------------------
$ Os
$
$ BCC_A2 revised in unary 4.4
$
 PAR  G(HCP_A3,OS:VA),,                 +GHSEROS;                5500 N 91Din !
 PAR  G(FCC_A1,OS:VA),,                 +GHSEROS+13000-2.5*T;    5500 N 91Din !
 PAR  G(BCC_A2,OS:VA),,                 +GHSEROS+27500-4.4*T;    5500 N 01SGUN !
$PAR  G(BCC_A2,OS:VA),,                 +GHSEROS+43500-9*T;      5500 N 91Din !
 PAR  G(LIQUID,OS),,                    +GLIQOS;                 5500 N 91Din !
$
 FUNCTION GHSEROS   298.15  -7196.978+126.369531*T-23.5710242*T*LN(T)
       -0.00190427*T**2;
      3306.00  Y  +644910.07-1935.2137*T+224.998034*T*LN(T)
       -0.042489827*T**2+1.173861E-06*T**3-3.12569031E+08*T**(-1);
      5500.00  N !
 FUNCTION GLIQOS    298.15  +36460.17-8.473743*T+GHSEROS;
      1000.00  Y  +68715.318-198.324341*T+19.9382156*T*LN(T)
       -0.020464464*T**2+1.014279E-06*T**3-6237261*T**(-1);
      3306.00  Y  -15903.192+336.874526*T-50*T*LN(T);
      5500.00  N !
$ ------------------------------------------------------------------------------
$ Binary system
$
$ From J. Korb and T. Jantzen 2004 (Included in LB Vol. 5)
$
$ J. Korb, T. Jantzen, unpublished work, GTT, 2004.
$
$ Checked against LB. Checked at 6000K.
$
 PAR  L(LIQUID,C,OS;0),,                -3800;,,                      N 04Kor !
$
 PAR  G(HCP_A3,OS:C),,                  +GHSEROS+0.5*GHSERCC
             +52633.3-4.636531*T;,,                                   N 04Kor !
$ ------------------------------------------------------------------------------
$
 ASSESSED_SYSTEM
  C-OS(TDB -* +LIQUID +GRAPH +HCP_A3 ;P3 TMM:500/3500 *) !
$
$
 LIST-OF-REFERENCE
 NUMBER  SOURCE
  Null   'Unknown source'
  Same   'Same or similar interaction as in the corresponding stable phase'
  REFLAV 'Laves phase convention: G(LAVES,X:X)=+3*GHSERXX+15000'
  COST   'COST 507 database'
  91Din  'A.T. Dinsdale, Calphad, 15, 317-425(1991).'
  01SGUN 'SGTE unary database V.4.4, 2001.'
  04Kor  'J. Korb, T. Jantzen, unpublished work, GTT, 2004; Os-C'
!
