$
$ Database for Fe-Si from Y. Yuan et al. 2014
$
$ Y. Yuan, F. Pan, D. Li, A. Watson, Calphad, 44, 54-61(2014).
$
$ Dataset created 2016.01.31 by Bengt Hallstedt.
$ 2021.01.02: Modified for use with GES6.
$
$ Modified from the 91Lac assessment.
$
$ There is a small shift in the gamma loop when comparing to the author's tdb.
$ This is caused by a small error in the fcc interaction in their tdb.
$
$ ------------------------------------------------------------------------------
 TEMP-LIM 298.15 6000.00 !
$
$ELEMENT NAME  REF. STATE               ATOMIC MASS H298-H0    S298    !
$
 ELEMENT VA   VACUUM                      0.0          0.0      0.0    ! 
 ELEMENT FE   BCC_A2                     55.847     4489.0     27.2797 ! 
 ELEMENT SI   DIAMOND_A4                 28.0855    3217.      18.81   ! 
$ ------------------------------------------------------------------------------
$ Phase definitions
$
 PHASE LIQUID:L % 1 1 !
 CONST LIQUID:L : FE SI : !
$
$ Fcc (cF4, Fm-3m) and MeX (cF8, Fm-3m)
$
 PHASE FCC_A1 %A 2 1 1 !
 CONST FCC_A1 : FE SI : VA : !
$
$ Bcc (cI2, Im-3m)
$
 PHASE BCC_A2 %B 2 1 3 !
 CONST BCC_A2 : FE SI : VA : !
$
$ Disordered part of B2_BCC, identical to BCC_A2
$
 PHASE A2_BCC %B 2 1 3 !
 CONST A2_BCC : FE SI : VA : !
$
$ Prototype CsCl (cP2, Pm-3m)
$
 PHASE B2_BCC %BO 3 0.5 0.5 3 !
 CONST B2_BCC : FE% SI : FE SI% : VA : !
$
$ Hcp (hP2, P6_3/mmc) and Me2X (NiAs-type, hP4, P6_3/mmc, B8_1)
$
 PHASE HCP_A3 % 2 1 0.5 !
 CONST HCP_A3 : FE SI : VA : !
$
$ Prototype C (cF8, Fd-3m)
$
 PHASE DIAMOND_A4 % 1 1 !
 CONST DIAMOND_A4 : SI : !
$
$ Prototype AlNi2 (hP6, P-3m1)
$
 PHASE FE2SI % 2 0.666667 0.333333 !
 CONST FE2SI : FE : SI : !
$
$ Prototype Mn5Si3 (hP16, P6_3/mcm)
$
 PHASE M5SI3_D88 % 2 5 3 !
 CONST M5SI3_D88 : FE : SI : !
$
$ Prototype FeSi (cP8, P2_13)
$
 PHASE MSI_B20 % 2 1 1 !
 CONST MSI_B20 : FE : SI : !
$
$ Prototype FeSi2-h (oC48, Cmca)
$
 PHASE FESI2_H % 2 0.3 0.7 !
 CONST FESI2_H : FE : SI : !
$
$ Prototype FeSi2-l (tP3, P4/mmm)
$
 PHASE FESI2_L % 2 0.333333 0.666667 !
 CONST FESI2_L : FE : SI : !
$ ------------------------------------------------------------------------------
$ Defaults
$
 DEFINE-SYSTEM-DEFAULT ELEMENT 2 !
 DEFAULT-COM DEFINE_SYSTEM_ELEMENT VA !
 DEFAULT_COM REJECT_PHASE BCC_A2 !
 TYPE-DEF % SEQ * !
 TYPE-DEF A GES AMEND_PHASE_DESCRIPTION @ MAGNETIC -3 0.28 !
 TYPE-DEF B GES AMEND_PHASE_DESCRIPTION @ MAGNETIC -1 0.4 !
 TYPE-DEF O GES AMEND_PHASE_DESCRIPTION B2_BCC DIS_PART A2_BCC !
 FUNCTION ZERO      298.15  0;                                         6000 N !
 FUNCTION UN_ASS    298.15  0;                                         6000 N !
 FUNCTION R         298.15  +8.31451;                                  6000 N !
$ ------------------------------------------------------------------------------
$ Element data
$ ------------------------------------------------------------------------------
$ Fe
$
$ ORTHORHOMBIC_A20 and TETRAGONAL_U added im unary 4.1
$
 PAR  G(BCC_A2,FE:VA),,                 +GHSERFE;,,                   N 91Din !
 PAR  TC(BCC_A2,FE:VA),,                 1043.00;,,                   N 91Din !
 PAR  BM(BCC_A2,FE:VA),,                    2.22;,,                   N 91Din !
 PAR  G(A2_BCC,FE:VA),,                 +GHSERFE;,,                   N 91Din !
 PAR  TC(A2_BCC,FE:VA),,                 1043.00;,,                   N 91Din !
 PAR  BM(A2_BCC,FE:VA),,                    2.22;,,                   N 91Din !
 PAR  G(FCC_A1,FE:VA),,                 +GFCCFE;,,                    N 91Din !
 PAR  TC(FCC_A1,FE:VA),,                 -201.00;,,                   N 91Din !
 PAR  BM(FCC_A1,FE:VA),,                   -2.10;,,                   N 91Din !
 PAR  G(HCP_A3,FE:VA),,                 +GHCPFE;,,                    N 91Din !
$PAR  G(CBCC_A12,FE:VA),,               +GHSERFE+4745;,,              N 91Din !
$PAR  G(CUB_A13,FE:VA),,                +GHSERFE+3745;,,              N 91Din !
$PAR  G(ORTHORHOMBIC_A20,FE),,          +GHSERFE+5000;,,              N 99SGUN !
$PAR  G(TETRAGONAL_U,FE),,              +GHSERFE+5000;,,              N 99SGUN !
 PAR  G(LIQUID,FE),,                    +GLIQFE;,,                    N 91Din !
$
 FUNCTION GHSERFE   298.15  +1225.7+124.134*T-23.5143*T*LN(T)
       -0.00439752*T**2-5.8927E-08*T**3+77359*T**(-1);
      1811.00  Y  -25383.581+299.31255*T-46*T*LN(T)+2.29603E+31*T**(-9);
      6000.00  N !
 FUNCTION GFCCFE    298.15  -1462.4+8.282*T-1.15*T*LN(T)
       +6.4E-04*T**2+GHSERFE;
      1811.00  Y  -1713.815+0.940009*T+GHSERFE+4.9251E+30*T**(-9);
      6000.00  N !
 FUNCTION GHCPFE    298.15  -3705.78+12.591*T-1.15*T*LN(T)
       +6.4E-04*T**2+GHSERFE;
      1811.00  Y  -3957.195+5.249009*T+GHSERFE+4.9251E+30*T**(-9);
      6000.00  N !
 FUNCTION GLIQFE    298.15  +12040.17-6.55843*T+GHSERFE-3.67516E-21*T**7;
      1811.00  Y  -10838.83+291.302*T-46*T*LN(T);
      6000.00  N !
$ ------------------------------------------------------------------------------
$ Si
$
 PAR  G(DIAMOND_A4,SI),,                +GHSERSI;                3600 N 91Din !
 PAR  G(FCC_A1,SI:VA),,                 +GHSERSI+51000-21.8*T;   3600 N 91Din !
 PAR  G(BCC_A2,SI:VA),,                 +GHSERSI+47000-22.5*T;   3600 N 91Din !
 PAR  G(A2_BCC,SI:VA),,                 +GHSERSI+47000-22.5*T;   3600 N 91Din !
 PAR  G(HCP_A3,SI:VA),,                 +GHSERSI+49200-20.8*T;   3600 N 91Din !
$PAR  G(CBCC_A12,SI:VA),,               +GHSERSI+50208-20.377*T; 3600 N 91Din !
$PAR  G(CUB_A13,SI:VA),,                +GHSERSI+47279-20.377*T; 3600 N 91Din !
 PAR  G(LIQUID,SI),,                    +GLIQSI;                 3600 N 91Din !
$
$PAR  G(CR3SI_A15,SI:SI),,              +4*GHSERSI+24543.3+4*T;,,     N 91Ans !
$PAR  G(CR3SI_A15,SI:SI),,              +4*GHSERSI+208000-80*T;,,     N 94Cou !
$
 FUNCTION GHSERSI   298.15  -8162.609+137.236859*T-22.8317533*T*LN(T)
       -0.001912904*T**2-3.552E-09*T**3+176667*T**(-1);
      1687.00  Y  -9457.642+167.281367*T-27.196*T*LN(T)-4.20369E+30*T**(-9);
      3600.00  N !
 FUNCTION GLIQSI    298.15  +50696.36-30.099439*T+GHSERSI+2.09307E-21*T**7;
      1687.00  Y  +40370.523+137.722298*T-27.196*T*LN(T);
      3600.00  N !
 FUNCTION GBCCSI    298.15  +GHSERSI+47000-22.5*T;               3600 N 91Din !
$ ------------------------------------------------------------------------------
$ Binary system
$
$ Y. Yuan, F. Pan, D. Li, A. Watson, Calphad, 44, 54-61(2014).
$
$ Checked against paper and author's tdb. Checked at 6000 K.
$
$ Modified from the 91Lac assessment.
$
$ There is a small shift in the gamma loop when comparing to the author's tdb.
$ This is caused by a small error in the fcc interaction in their tdb.
$
 PAR  L(LIQUID,FE,SI;0),,               -144641+28.5969*T;,,          N 14Yua !
 PAR  L(LIQUID,FE,SI;1),,               -24950.8-5.5107*T;,,          N 14Yua !
 PAR  L(LIQUID,FE,SI;2),,               +30805.7-9.0087*T;,,          N 14Yua !
 PAR  L(LIQUID,FE,SI;3),,               +17196.1;,,                   N 14Yua !
$
 PAR  L(FCC_A1,FE,SI:VA;0),,            -125248+41.116*T;,,           N 91Lac !
 PAR  L(FCC_A1,FE,SI:VA;1),,            -142708;,,                    N 91Lac !
 PAR  L(FCC_A1,FE,SI:VA;2),,            +89907;,,                     N 91Lac !
$
 PAR  L(BCC_A2,FE,SI:VA;0),,            +4*L0BCC-4*FESIW1;,,          N 91Lac !
 PAR  L(BCC_A2,FE,SI:VA;1),,            +8*L1BCC;,,                   N 91Lac !
 PAR  L(BCC_A2,FE,SI:VA;2),,            +16*L2BCC;,,                  N 91Lac !
 PAR  TC(BCC_A2,FE,SI:VA;1),,           +8*ETCFESI;,,                 N 91Lac !
$
 PAR  L(A2_BCC,FE,SI:VA;0),,            +4*L0BCC-4*FESIW1;,,          N 91Lac !
 PAR  L(A2_BCC,FE,SI:VA;1),,            +8*L1BCC;,,                   N 91Lac !
 PAR  L(A2_BCC,FE,SI:VA;2),,            +16*L2BCC;,,                  N 91Lac !
 PAR  TC(A2_BCC,FE,SI:VA;1),,           +8*ETCFESI;,,                 N 91Lac !
$
 PAR  G(B2_BCC,SI:FE:VA),,              -2*FESIW1;,,                  N 91Lac !
 PAR  G(B2_BCC,FE:SI:VA),,              -2*FESIW1;,,                  N 91Lac !
$
 PAR  G(FE2SI,FE:SI),,                  +0.6666667*GHSERFE
             +0.3333333*GHSERSI-24515.9-2.9684*T;,,                   N 14Yua !
 PAR  G(M5SI3_D88,FE:SI),,              +5*GHSERFE+3*GHSERSI
             -240508.8+1.8632*T;,,                                    N 14Yua !
 PAR  G(MSI_B20,FE:SI),,                +GHSERFE+GHSERSI
             -69805.4+1.9288*T;,,                                     N 14Yua !
 PAR  G(FESI2_H,FE:SI),,                +0.3*GHSERFE+0.7*GHSERSI
             -19298.2-1.14796*T;,,                                    N 14Yua !
 PAR  G(FESI2_L,FE:SI),,                +0.333333*GHSERFE
             +0.666667*GHSERSI-25988.9+2.4595*T;,,                    N 14Yua !
$
$ Metastable
$
 PAR  L(HCP_A3,FE,SI:VA;0),,            -123468+41.116*T;,,           N 93For !
 PAR  L(HCP_A3,FE,SI:VA;1),,            -142708;,,                    N 93For !
 PAR  L(HCP_A3,FE,SI:VA;2),,            +89907;,,                     N 93For !
$
$PAR  L(CBCC_A12,FE,SI:VA;0),,          -153141+46.48*T;,,            N 93For !
$PAR  L(CBCC_A12,FE,SI:VA;1),,          -92352;,,                     N 93For !
$PAR  L(CBCC_A12,FE,SI:VA;2),,          +62240;,,                     N 93For !
$
$PAR  L(CUB_A13,FE,SI:VA;0),,           -153141+46.48*T;,,            N 93For !
$PAR  L(CUB_A13,FE,SI:VA;1),,           -92352;,,                     N 93For !
$PAR  L(CUB_A13,FE,SI:VA;2),,           +62240;,,                     N 93For !
$
$PAR  G(M3SI_D03,FE:SI),,               +3*GHSERFE+GHSERSI
$            -94274-3.56*T;,,                                         N 93For !
$PAR  G(CR3SI_A15,FE:SI),,              +3*GHSERFE+GHSERSI
$            -94274-3.56*T+80923;,,                                   N 95Lee !
$PAR  G(CR5SI3_D8M,FE:SI),,             +8*GFE5SI3+97868;,,           N 95Lee !
$
 FUNCTION FESIW1    298.15  +1260*R;                                   6000 N !
 FUNCTION L0BCC     298.15  -27809+11.62*T;                            6000 N !
 FUNCTION L1BCC     298.15  -11544;                                    6000 N !
 FUNCTION L2BCC     298.15  +3890;                                     6000 N !
 FUNCTION ETCFESI   298.15  +63;                                       6000 N !
$ ------------------------------------------------------------------------------
$
 ASSESSED_SYSTEM
  FE-SI(TDB -* +LIQUID +FCC_A1 +A2_BCC +B2_BCC +MSI_B20 +FE2SI +M5SI3_D88
  +FESI2_H +FESI2_L +DIAMOND ;P3 TMM:300/2300 STP:0.4/700/1 STP:.01/1500/1) !
$
$
 LIST-OF-REFERENCE
 NUMBER  SOURCE
  Null   'Unknown source'
  91Ans  'I Ansara, unpublished, 1991; Cr-Si'
  91Din  'A.T. Dinsdale, Calphad, 15, 317-425(1991).'
  91Lac  'J. Lacaze, B. Sundman,
          Metall. Mater. Trans. A, 22A, 2211-23(1991); Fe-Si'
  93For  'A. Forsberg, J. Agren, J. Phase Equilib., 14, 354-63(1993); Fe-Mn-Si'
  94Cou  'C.A. Coughanowr, I. Ansara, H.L. Lukas,
          Calphad, 18, 125-40(1994); Cr-Si'
  95Lee  'B.-J. Lee, unpublished, 1993-95; Cr-Si'
  99SGUN 'SGTE unary database V.4.1, 1999.'
  14Yua  'Y. Yuan, F. Pan, D. Li, A. Watson, Calphad, 44, 54-61(2014); Fe-Si'
!
