$
$ Database for Pb-Sn from A.V. Khvan et al. 2022.
$
$ A.V. Khvan, A.T. Dinsdale, Q. Chen, Calphad, 76, 102396(2022).
$
$ Dataset created 2021.11.21 by Bengt Hallstedt.
$
$ This database cannot be used with GES6. It does not understand the THETA
$ identifier.
$
$ 3rd generation modelling.
$
$ Bct-A5 has two Einstein temperatures with a weighting of 0.64684 and 0.35316
$ in Gibbs energy. This makes a tricky definition of this phase necessary.
$ The definition is for 1.545977367 mol (=1/0.64684), but THETA(BCT_A5;SN) is
$ apparently defined for one (!) mol irrespective of the phase definition.
$ This is needed in order to ba able to write a THETA(BCT_A5,PB,SN) interaction
$ parameter, (which is also defined for one mol of atoms/constituents). The
$ other Einstein temperature is only used for the pure elements.
$
$ ------------------------------------------------------------------------------
 TEMP-LIM   0.01 6000.00 !
$
$ELEMENT NAME  REF. STATE               ATOMIC MASS H298-H0    S298    !
$
 ELEMENT VA   VACUUM                      0.0          0.0      0.0    ! 
 ELEMENT PB   FCC_A1                    207.2       6870.      64.80   ! 
 ELEMENT SN   BCT_A5                    118.69      6323.      51.18   ! 
$ ------------------------------------------------------------------------------
$ Phase definitions
$
 PHASE LIQUID:L % 1 1 !
 CONST LIQUID:L : PB SN : !
$
$ Fcc (cF4, Fm-3m) and MeX (cF8, Fm-3m)
$
 PHASE FCC_A1 %A 2 1 1 !
 CONST FCC_A1 : PB% SN : VA : !
$
$ Bcc (cI2, Im-3m)
$
$PHASE BCC_A2 %B 2 1 3 !
$CONST BCC_A2 : PB SN : VA : !
$
$ Hcp (hP2, P6_3/mmc) and Me2X (NiAs-type, hP4, P6_3/mmc, B8_1)
$
 PHASE HCP_A3 %A 2 1 0.5 !
 CONST HCP_A3 : PB SN : VA : !
$
$ Prototype C (cF8, Fd-3m)
$
 PHASE DIAMOND_A4 % 1 1 !
 CONST DIAMOND_A4 : SN : !
$
$ Prototype beta-Sn (tI4, I4_1/amd)
$
 PHASE BCT_A5 % 1 1.545977367 !
 CONST BCT_A5 : PB SN% : !
$ ------------------------------------------------------------------------------
$ Defaults
$
 DEFINE-SYSTEM-DEFAULT ELEMENT 2 !
 DEFAULT-COM DEFINE_SYSTEM_ELEMENT VA !
 TYPE-DEF % SEQ * !
 TYPE-DEF A GES AMEND_PHASE_DESCRIPTION @ MAGNETIC -3 0.28 !
 TYPE-DEF B GES AMEND_PHASE_DESCRIPTION @ MAGNETIC -1 0.4 !
 FUNCTION ZERO        0.01  0;                                         6000 N !
 FUNCTION UN_ASS      0.01  0;                                         6000 N !
 FUNCTION R           0.01  +8.31451;                                  6000 N !
 FUNCTION TINV        0.01  +T**(-1);                                  6000 N !
 FUNCTION RTINV       0.01  +R**(-1)*TINV;                             6000 N !
$ ------------------------------------------------------------------------------
$ Element data
$ ------------------------------------------------------------------------------
$ Pb
$
 PAR  THETA(FCC_A1,PB:VA),,             +LN(63.63059);,,              N 18Khv !
 PAR  G(FCC_A1,PB:VA),,                 -7697.6474+GCORPB;,,          N 18Khv !
 PAR  THETA(HCP_A3,PB:VA),,             +LN(66.23341165);,,           N 22Khv !
 PAR  G(HCP_A3,PB:VA),,                 -7397.6474+GCORPB;,,          N 22Khv !
 PAR  THETA(BCT_A5,PB),,                +LN(80.9020691);,,            N 22Khv !
 PAR  G(BCT_A5,PB),,                    +GBCTPB;,,                    N 22Khv !
 PAR  THETA(LIQUID,PB),,                +LN(63.63059);,,              N 18Khv !
 PAR  G(LIQUID,PB),,                    -5391;,,                      N 18Khv !
 PAR  GD(LIQUID,PB),,                   +7000-4.518*T-T*LN(T);,,      N 18Khv !
$
 FUNCTION GCORPB      0.01  -0.5*COEFF1PB*T**2-0.1666667*COEFF2PB*T**3
       -0.0833333*COEFF3PB*T**4-0.05*COEFF4PB*T**5;
       600.61  Y  -1001.34+26.16438*T-4.05647*T*LN(T)-5.938E+15*T**(-5)
       +4.82E+31*T**(-11);
      6000.00  N !
 FUNCTION COEFF1PB    0.01  +3.926E-03;                                6000 N !
 FUNCTION COEFF2PB    0.01  +1.225E-05;                                6000 N !
 FUNCTION COEFF3PB    0.01  -3.663E-08;                                6000 N !
 FUNCTION COEFF4PB    0.01  +4.705E-11;                                6000 N !
 FUNCTION GBCTPB      0.01  +1.545977367*E0BCTPB+GE2SUMPB
       +1.545977367*GCORPB;
      6000.00  N !
$ bct-Pb
 FUNCTION E0BCTPB     0.01  -7208.6474;                                6000 N !
 FUNCTION GE2SUMPB    0.01  +GE2F1PB+GE2F2PB;                          6000 N !
 FUNCTION GE2F1PB     0.01  +12.47169*E2PB*ALF2PB;                     6000 N !
 FUNCTION E2PB        0.01  +61.12222;                                 6000 N ! 
 FUNCTION ALF2PB      0.01  +0.545977367;                              6000 N !
 FUNCTION GE2F2PB     0.01  +24.94338*T*ALF2PB*LN(ETEPB2);             6000 N !
 FUNCTION TEPB2       0.01  -E2PB*TINV;                                6000 N !
 FUNCTION ETEPB2      0.01  +1-EXP(TEPB2);                             6000 N !
$ ------------------------------------------------------------------------------
$ Sn
$
 PAR  THETA(BCT_A5,SN),,                +LN(159.07493);,,             N 19Khv !
 PAR  G(BCT_A5,SN),,                    +GBCTSN;,,                    N 19Khv !
 PAR  G(DIAMOND_A4,SN),,                +GDIASN;,,                    N 19Khv !
 PAR  THETA(FCC_A1,SN:VA),,             +LN(80.83248023);,,           N 22Khv !
 PAR  G(FCC_A1,SN:VA),,                 -2363.56153+GCORSN;,,         N 22Khv !
 PAR  THETA(HCP_A3,SN:VA),,             +LN(83.51385789);,,           N 22Khv !
 PAR  G(HCP_A3,SN:VA),,                 -3973.5615+GCORSN;,,          N 22Khv !
 PAR  THETA(LIQUID,SN),,                +LN(107.0238);,,              N 19Khv !
 PAR  G(LIQUID,SN),,                    -3974.00518;,,                N 19Khv !
 PAR  GD(LIQUID,SN),,                   +7317.41566-18.3219791*T;,,   N 19Khv !
$
 FUNCTION GBCTSN      0.01  +1.545977367*E0SN+GE2SUMSN
       +1.545977367*GCORSN;
      6000.00  N !
 FUNCTION GDIASN      0.01  +E0ASN+GE1SUASN+GE2SUASN+GCORASN;          6000 N !
 FUNCTION GLIQSN    100.00  +7103.092-14.087767*T+GHSERSN+1.47031E-18*T**7;
       505.08  Y  +6971.586-13.814383*T+GHSERSN+1.2307E+25*T**(-9);
       800.00  Y  -1285.372+125.182498*T-28.4512*T*LN(T);
      3000.00  N !
 FUNCTION GBCCSN    298.15  +GHSERSN+4400-6*T;                         3000 N !
$ bct-Sn
 FUNCTION E0SN        0.01  -7873.56153;                               6000 N !
 FUNCTION GE2SUMSN    0.01  +GE2F1SN+GE2F2SN;                          6000 N !
 FUNCTION GE2F1SN     0.01  +12.47169*E2SN*ALF2SN;                     6000 N !
 FUNCTION E2SN        0.01  +61.12222;                                 6000 N ! 
 FUNCTION ALF2SN      0.01  +0.545977367;                              6000 N !
 FUNCTION GE2F2SN     0.01  +24.94338*T*ALF2SN*LN(ETESN2);             6000 N !
 FUNCTION TESN2       0.01  -E2SN*TINV;                                6000 N !
 FUNCTION ETESN2      0.01  +1-EXP(TESN2);                             6000 N !
 FUNCTION GCORSN      0.01  -0.5*COEFF1SN*T**2-0.1666667*COEFF2SN*T**3;
       505.08  Y  +144.6411036+16.88719177*T-2.99662*T*LN(T)
       -3.48163E+15*T**(-5)+6.91728E+30*T**(-11);
      6000.00  N !
 FUNCTION COEFF1SN    0.01  +0.00396944725927489;                      6000 N !
 FUNCTION COEFF2SN    0.01  +1.55634375763732E-05;                     6000 N !
$ diamond-Sn
 FUNCTION E0ASN       0.01  -9.84974990E+03;                           6000 N !
 FUNCTION GE1SUASN    0.01  +GE1F1ASN+GE1F2ASN;                        6000 N !
 FUNCTION GE1F1ASN    0.01  +12.47169*E1ASN*ALF1ASN;                   6000 N !
 FUNCTION E1ASN       0.01  +218.4858;                                 6000 N ! 
 FUNCTION ALF1ASN     0.01  +0.67374;                                  6000 N ! 
 FUNCTION GE1F2ASN    0.01  +24.94338*T*ALF1ASN*LN(ETEASN1);           6000 N !
 FUNCTION TEASN1      0.01  -E1ASN*TINV;                               6000 N !
 FUNCTION ETEASN1     0.01  +1-1*EXP(TEASN1);                          6000 N !
 FUNCTION GE2SUASN    0.01  +GE2F1ASN+GE2F2ASN;                        6000 N !
 FUNCTION GE2F1ASN    0.01  +12.47169*E2ASN*ALF2ASN;                   6000 N !
 FUNCTION E2ASN       0.01  +61.9652;                                  6000 N ! 
 FUNCTION ALF2ASN     0.01  +0.32626;                                  6000 N !
 FUNCTION GE2F2ASN    0.01  +24.94338*T*ALF2ASN*LN(ETEASN2);           6000 N !
 FUNCTION TEASN2      0.01  -E2ASN*TINV;                               6000 N !
 FUNCTION ETEASN2     0.01  +1-1*EXP(TEASN2);                          6000 N !
 FUNCTION GCORASN     0.01  -0.5*COEF1ASN*T**2;
       505.08  Y  +241.721315-0.731164278*T-6.93646E+14*T**(-5)
       +1.40929E+30*T**(-11);
      6000.00  N !
 FUNCTION COEF1ASN    0.01  +0.00114537024702243;                      6000 N !
$ ------------------------------------------------------------------------------
$ Binary system
$
$ A.V. Khvan, A.T. Dinsdale, Q. Chen, Calphad, 76, 102396(2022).
$
$ Checked against paper and author's tdb. Checked at 6000 K.
$
$ This database cannot be used with GES6. It does not understand the THETA
$ identifier.
$
$ 3rd generation modelling.
$
$ Bct-A5 has two Einstein temperatures with a weighting of 0.64684 and 0.35316
$ in Gibbs energy. This makes a tricky definition of this phase necessary.
$ The definition is for 1.545977367 mol (=1/0.64684), but THETA(BCT_A5;SN) is
$ apparently defined for one (!) mol irrespective of the phase definition.
$ This is needed in order to ba able to write a THETA(BCT_A5,PB,SN) interaction
$ parameter, (which is also defined for one mol of atoms/constituents). The
$ other Einstein temperature is only used for the pure elements.
$
 PAR  L(LIQUID,PB,SN;0),,               +5263.92992;,,                N 22Khv !
 PAR  THETA(LIQUID,PB,SN;0),,           +0.0264485281;,,              N 22Khv !
 PAR  L(LIQUID,PB,SN;1),,               +127.97957;,,                 N 22Khv !
 PAR  THETA(LIQUID,PB,SN;1),,           +0.00874035466;,,             N 22Khv !
$
 PAR  L(FCC_A1,PB,SN:VA;0),,            +6824.14206;,,                N 22Khv !
 PAR  THETA(FCC_A1,PB,SN:VA;0),,        -0.0635561869;,,              N 22Khv !
$
 PAR  L(BCT_A5,PB,SN;0),,               +30455.75413;,,               N 22Khv !
 PAR  THETA(BCT_A5,PB,SN;0),,           -0.984908201;,,               N 22Khv !
$
$ Metastable
$
 PAR  L(HCP_A3,PB,SN:VA;0),,            +10000;,,                     N 22Khv !
 PAR  THETA(HCP_A3,PB,SN:VA;0),,        -0.080186032;,,               N 22Khv !
$ ------------------------------------------------------------------------------
$
 ASSESSED_SYSTEM
  PB-SN(TDB -* +LIQUID +FCC_A1 +BCT_A5 ;P3 TMM:300/1000 *) !
$
$
 LIST-OF-REFERENCE
 NUMBER  SOURCE
  Null   'Unknown source'
  Same   'Same or similar interaction as in the corresponding stable phase'
  18Khv  'A.V. Khvan, A.T. Dinsdale, I.A. Uspenskaya, M. Zhilin, T. Babkina
          A.M. Phiri, Calphad, 60, 144-55(2018); Pb'
  19Khv  'A.V. Khvan, T. Babkina, A.T. Dinsdale, I.A. Uspenskaya,
          I.V. Fartushna, A.I. Druzhinina, A.B. Syzdykova, M.P. Belov,
          I.A. Abrikosov, Calphad, 65, 50-72(2019); Sn'
  22Khv  'A.V. Khvan, A.T. Dinsdale, Q. Chen,
          Calphad, 76, 102396(2022); Pb, Sn, Pb-Sn'
!
