$
$ Database for Er-Ho from S. Norgren 2000 (included in LB Vol. 3)
$
$ S. Norgren, J. Phase Equilib., 21, 148-56(2000).
$
$ Dataset created 2013.05.30 by Bengt Hallstedt.
$ 2020.12.26: Modified for use with GES6.
$
$ ------------------------------------------------------------------------------
 TEMP-LIM 298.15 6000.00 !
$
$ELEMENT NAME  REF. STATE               ATOMIC MASS H298-H0    S298    !
$
 ELEMENT VA   VACUUM                      0.0          0.0      0.0    ! 
 ELEMENT ER   HCP_A3                    167.26      7392.2912  73.17816! 
 ELEMENT HO   HCP_A3                    164.9304    7995.624   75.0191 ! 
$ ------------------------------------------------------------------------------
$ Phase definitions
$
 PHASE LIQUID:L % 1 1 !
 CONST LIQUID:L : ER HO : !
$
$ Fcc (cF4, Fm-3m) and MeX (cF8, Fm-3m)
$
 PHASE FCC_A1 %A 2 1 1 !
 CONST FCC_A1 : ER HO : VA : !
$
$ Bcc (cI2, Im-3m)
$
 PHASE BCC_A2 %B 2 1 3 !
 CONST BCC_A2 : ER HO : VA : !
$
$ Hcp (hP2, P6_3/mmc) and Me2X (NiAs-type, hP4, P6_3/mmc, B8_1)
$
 PHASE HCP_A3 %A 2 1 0.5 !
 CONST HCP_A3 : ER% HO% : VA : !
$ ------------------------------------------------------------------------------
$ Defaults
$
 DEFINE-SYSTEM-DEFAULT ELEMENT 2 !
 DEFAULT-COM DEFINE_SYSTEM_ELEMENT VA !
 TYPE-DEF % SEQ * !
 TYPE-DEF A GES AMEND_PHASE_DESCRIPTION @ MAGNETIC -3 0.28 !
 TYPE-DEF B GES AMEND_PHASE_DESCRIPTION @ MAGNETIC -1 0.4 !
 FUNCTION ZERO      298.15  0;                                         6000 N !
 FUNCTION UN_ASS    298.15  0;                                         6000 N !
 FUNCTION R         298.15  +8.31451;                                  6000 N !
$ ------------------------------------------------------------------------------
$ Element data
$ ------------------------------------------------------------------------------
$ Er
$
$ BCC_A2 added in unary 4.4
$
$ FCC_A1 from 02Cac not included in unary (but it should be)
$
 PAR  G(HCP_A3,ER:VA),,                 +GHSERER;                3200 N 91Din !
 PAR  G(FCC_A1,ER:VA),,                 +GHSERER
             +1950-0.831451*T;                                   3200 N 02Cac !
 PAR  G(BCC_A2,ER:VA),,                 +GHSERER
             +4600-2.494353*T;                                   3200 N 00Nor1 !
 PAR  G(LIQUID,ER),,                    +GLIQER;                 3200 N 91Din !
$
 FUNCTION GHSERER   298.15  -8489.136+116.698964*T-28.3846744*T*LN(T)
       +9.95792E-04*T**2-9.52557E-07*T**3+9581*T**(-1);
      1802.00  Y  -445688.206+2233.10212*T-298.135131*T*LN(T)
       +0.065950553*T**2-3.041405E-06*T**3+1.23973199E+08*T**(-1);
      3200.00  N !
 FUNCTION GLIQER    298.15  +19382.102-10.241846*T+GHSERER;
       500.00  Y  +17912.678+0.355564*T-12.0761776*T*LN(T)
       -0.014414687*T**2+1.316517E-06*T**3-528122*T**(-1);
      1802.00  Y  +747.131+187.623024*T-38.702*T*LN(T);
      3200.00  N !
$ ------------------------------------------------------------------------------
$ Ho
$
$ BCC_A2 and LIQUID revised in unary 4.4
$ HCP_A3 modified in unary 5.0
$ (upper T interval added + trailing decimals added)
$
$ FCC_A1 from 03Cac and 09Wan not included in unary; 03Cac to be preferred
$
 PAR  G(HCP_A3,HO:VA),,                 +GHSERHO;                3001 N 91Din !
 PAR  G(BCC_A2,HO:VA),,                 +GHSERHO
             +4380-2.494353*T;                                   3001 N 00Nor1 !
$PAR  G(FCC_A1,HO:VA),,                 +GHSERHO+5000;           3001 N 09Wan !
 PAR  G(FCC_A1,HO:VA),,                 +GHSERHO
             +2000-0.831451*T;                                   3001 N 03Cac !
 PAR  G(LIQUID,HO),,                    +GLIQHO;                 3001 N 00Nor1 !
$
 FUNCTION GHSERHO   298.15  -7612.429+86.593171*T-23.4879*T*LN(T)
       -0.00827315*T**2+2.375467E-06*T**3;
       600.00  Y  -10917.688+182.475691*T-39.6932*T*LN(T)
       +0.01820065*T**2-4.829733E-06*T**3;
       900.00  Y  +46646.188-421.474473*T+48.0595*T*LN(T)
       -0.0424634*T**2+3.233133E-06*T**3-7185900*T**(-1);
      1200.00  Y  +27786.061-156.162846*T+8.28608*T*LN(T)
       -0.01082725*T**2-1.112352E-06*T**3-6183850*T**(-1);
      1703.00  Y  -825364.662+4248.379056*T-558.9506818*T*LN(T)
       +0.139111904*T**2-6.824652E-06*T**3+2.19952973E+08*T**(-1);
      3000.00  Y  -17149.229+235.898104*T-43.932*T*LN(T);
      3001.00  N !
 FUNCTION GLIQHO    298.15  +17383.4216-9.992194*T+GHSERHO;
      1000.00  Y  +124827.5326-994.683024*T+127.9577778*T*LN(T)
       -0.088196514*T**2+8.008222E-6*T**3-15727191*T**(-1);  
      1703.00  Y  -9688.5314+230.793918*T-43.932*T*LN(T);  
      3001.00  N !
$ ------------------------------------------------------------------------------
$ Binary system
$
$ From S. Norgren 2000 (included in LB Vol. 3)
$
$ S. Norgren, J. Phase Equilib., 21, 148-56(2000).
$
$ Checked against LB and paper. Checked at 6000 K.
$
 PAR  L(LIQUID,ER,HO;0),,               +ZERO;,,                      N 00Nor1 !
$
 PAR  L(HCP_A3,ER,HO:VA;0),,            +ZERO;,,                      N 00Nor1 !
$
$ Metastable
$
 PAR  L(BCC_A2,ER,HO:VA;0),,            +ZERO;,,                      N 00Nor1 !
$ ------------------------------------------------------------------------------
$
 ASSESSED_SYSTEM
  ER-HO(TDB -* +LIQUID +HCP_A3 ;P3 TMM:300/3000 *) !
$
$
 LIST-OF-REFERENCE
 NUMBER  SOURCE
  Null   'Unknown source'
  COST   'COST 507 database'
  91Din  'A.T. Dinsdale, Calphad, 15, 317-425(1991).'
  00Nor1 'S. Norgren, J. Phase Equilib., 21, 148-56(2000),
          SGTE unary database V.4.4, 2001; Er, Ho'
  02Cac  'G. Cacciamani, A. Saccone, S. De Negri, R. Ferro,
          J. Phase Equilib., 23, 38-50(2002); Er, Al-Er'
  03Cac  'G. Cacciamani, S. De Negri, A. Saccone, R. Ferro,
          Intermetallics, 11, 1135-51(2003); Ho, Al-Ho'
  09Wan  'C.P. Wang, H.L. Zhang, S.L. Wang, Z. Lin, X.J. Liu, A.T. Tang,
          F.S. Pan, J. Alloys Compd., 481, 291-95(2009); Ho'
!
