$
$ Database for La-Si from K. Xu et al. 2020.
$
$ K. Xu, K. Chang, X. Zhou, L. Chen, J. Liu, Z. Deng, F.Huang, Q. Huang,
$ J. Am. Ceram. Soc., 103, 3812-25(2020).
$
$ Dataset created 2020.01.11 by Bengt Hallstedt.
$
$ ------------------------------------------------------------------------------
 TEMP-LIM 298.15 6000.00 !
$
$ELEMENT NAME  REF. STATE               ATOMIC MASS H298-H0    S298    !
$
 ELEMENT VA   VACUUM                      0.0          0.0      0.0    ! 
 ELEMENT LA   DHCP                      138.9055    6665.112   56.9024 ! 
 ELEMENT SI   DIAMOND_A4                 28.0855    3217.      18.81   ! 
$ ------------------------------------------------------------------------------
$ Phase definitions
$
 PHASE LIQUID:L % 1 1 !
 CONST LIQUID:L : LA SI : !
$
$ Fcc (cF4, Fm-3m) and MeX (cF8, Fm-3m)
$
 PHASE FCC_A1 %A 2 1 1 !
 CONST FCC_A1 : LA% SI : VA : !
$
$ Bcc (cI2, Im-3m)
$
 PHASE BCC_A2 %B 2 1 3 !
 CONST BCC_A2 : LA% SI : VA : !
$
$ Hcp (hP2, P6_3/mmc) and Me2X (NiAs-type, hP4, P6_3/mmc, B8_1)
$
 PHASE HCP_A3 %A 2 1 0.5 !
 CONST HCP_A3 : SI : VA : !
$
$ Prototype alpha-La (hP4, P6_3/mmc)
$
 PHASE DHCP % 1 1 !
 CONST DHCP : LA : !
$
$ Prototype C (cF8, Fd-3m)
$
 PHASE DIAMOND_A4 % 1 1 !
 CONST DIAMOND_A4 : SI : !
$
$ Prototype Cr5B3 (tI32, I4/mcm)
$
 PHASE LA5SI3_D8L % 2 5 3 !
 CONST LA5SI3_D8L : LA : SI : !
$
$ Prototype Si2U3 (tP10, P4/mbm)
$
 PHASE LA3SI2_D5A % 2 3 2 !
 CONST LA3SI2_D5A : LA : SI : !
$
$ Prototype Si4Zr5 (tP36, P4_12_12)
$
 PHASE LA5SI4 % 2 5 4 !
 CONST LA5SI4 : LA : SI : !
$
$ Prototype FeB (oP8, Pnma)
$
 PHASE LASI_B27 % 2 1 1 !
 CONST LASI_B27 : LA : SI : !
$
$ Prototype GdSi1.4 (oI12, Imma)
$
 PHASE LA3SI5 % 2 3 5 !
 CONST LA3SI5 : LA : SI : !
$
$ Prototype Si2Th (tI12, I4_1/amd)
$
 PHASE LASI2_CC % 2 1 2 !
 CONST LASI2_CC : LA : SI : !
$ ------------------------------------------------------------------------------
$ Defaults
$
 DEFINE-SYSTEM-DEFAULT ELEMENT 2 !
 DEFAULT-COM DEFINE_SYSTEM_ELEMENT VA !
 TYPE-DEF % SEQ * !
 TYPE-DEF A GES AMEND_PHASE_DESCRIPTION @ MAGNETIC -3 0.28 !
 TYPE-DEF B GES AMEND_PHASE_DESCRIPTION @ MAGNETIC -1 0.4 !
 FUNCTION ZERO      298.15  0;                                         6000 N !
 FUNCTION UN_ASS    298.15  0;                                         6000 N !
 FUNCTION R         298.15  +8.31451;                                  6000 N !
$ ------------------------------------------------------------------------------
$ Element data
$ ------------------------------------------------------------------------------
$ La
$
 PAR  G(DHCP,LA),,                      +GHSERLA;                4000 N 91Din !
 PAR  G(FCC_A1,LA:VA),,                 +GFCCLA;                 4000 N 91Din !
 PAR  G(BCC_A2,LA:VA),,                 +GBCCLA;                 4000 N 91Din !
 PAR  G(LIQUID,LA),,                    +GLIQLA;                 4000 N 91Din !
$
 FUNCTION GHSERLA   298.15  -7968.403+120.284604*T-26.34*T*LN(T)
       -0.001295165*T**2;
       550.00  Y  -3381.413+59.06113*T-17.1659411*T*LN(T)
       -0.008371705*T**2+6.8932E-07*T**3-399448*T**(-1);
      2000.00  Y  -15608.882+181.390071*T-34.3088*T*LN(T);
      4000.00  N !
 FUNCTION GFCCLA    298.15  -6109.797+89.878761*T-21.7919*T*LN(T)
       -0.004045175*T**2-5.25865E-07*T**3;
      1134.00  Y  -124598.976+955.878375*T-139.346741*T*LN(T)
       +0.042032405*T**2-3.066199E-06*T**3+20994153*T**(-1);
      2000.00  Y  +3009.496-2.846081*T+GHSERLA;
      4000.00  N !
 FUNCTION GBCCLA    298.15  -3952.161+88.072353*T-21.7919*T*LN(T)
       -0.004045175*T**2-5.25865E-07*T**3;
       800.00  Y  +321682.673-3565.08252*T+513.440708*T*LN(T)
       -0.387295093*T**2+4.9547989E-05*T**3-36581228*T**(-1);
      1134.00  Y  -16377.894+218.492988*T-39.5388*T*LN(T);
      1193.00  Y  -136609.91+1123.34397*T-163.413074*T*LN(T)
       +0.053968535*T**2-4.056395E-06*T**3+21167204*T**(-1);
      2000.00  Y  +7402.894-6.553756*T+GHSERLA;
      4000.00  N !
 FUNCTION GLIQLA    298.15  +5332.653+18.23012*T-11.0188191*T*LN(T)
       -0.020171603*T**2+2.93775E-06*T**3-133541*T**(-1);
     1134.00  Y  -3942.004+171.018431*T-34.3088*T*LN(T);
      4000.00  N !
$ ------------------------------------------------------------------------------
$ Si
$
 PAR  G(DIAMOND_A4,SI),,                +GHSERSI;                3600 N 91Din !
 PAR  G(FCC_A1,SI:VA),,                 +GHSERSI+51000-21.8*T;   3600 N 91Din !
 PAR  G(BCC_A2,SI:VA),,                 +GHSERSI+47000-22.5*T;   3600 N 91Din !
 PAR  G(HCP_A3,SI:VA),,                 +GHSERSI+49200-20.8*T;   3600 N 91Din !
$PAR  G(CBCC_A12,SI:VA),,               +GHSERSI+50208-20.377*T; 3600 N 91Din !
$PAR  G(CUB_A13,SI:VA),,                +GHSERSI+47279-20.377*T; 3600 N 91Din !
 PAR  G(LIQUID,SI),,                    +GLIQSI;                 3600 N 91Din !
$
 FUNCTION GHSERSI   298.15  -8162.609+137.236859*T-22.8317533*T*LN(T)
       -0.001912904*T**2-3.552E-09*T**3+176667*T**(-1);
      1687.00  Y  -9457.642+167.281367*T-27.196*T*LN(T)-4.20369E+30*T**(-9);
      3600.00  N !
 FUNCTION GLIQSI    298.15  +50696.36-30.099439*T+GHSERSI+2.09307E-21*T**7;
      1687.00  Y  +40370.523+137.722298*T-27.196*T*LN(T);
      3600.00  N !
 FUNCTION GBCCSI    298.15  +GHSERSI+47000-22.5*T;                     3600 N !
$ ------------------------------------------------------------------------------
$ Binary system
$
$ K. Xu, K. Chang, X. Zhou, L. Chen, J. Liu, Z. Deng, F.Huang, Q. Huang,
$ J. Am. Ceram. Soc., 103, 3812-25(2020).
$
$ Checked against paper. Checked at 6000 K.
$
 PAR  L(LIQUID,LA,SI;0),,               -220000+20*T;,,               N 20Xu !
 PAR  L(LIQUID,LA,SI;1),,               +21500;,,                     N 20Xu !
 PAR  L(LIQUID,LA,SI;2),,               +11000;,,                     N 20Xu !
$
 PAR  L(FCC_A1,LA,SI:VA;0),,            -145000;,,                    N 20Xu !
 PAR  L(BCC_A2,LA,SI:VA;0),,            -152000;,,                    N 20Xu !
$
 PAR  G(LA5SI3_D8L,LA:SI),,             -540000+1067.1*T-205.94*T*LN(T)
             -0.005995*T**2+116744*T**(-1);,,                         N 20Xu !
 PAR  G(LA3SI2_D5A,LA:SI),,             -350000+598.6*T-117.71*T*LN(T)
             -0.008482*T**2+19062.5*T**(-1);,,                        N 20Xu !
 PAR  G(LA5SI4,LA:SI),,                 -680000+1265*T-235.82*T*LN(T)
             -0.006573*T**2+574190*T**(-1);,,                         N 20Xu !
 PAR  G(LASI_B27,LA:SI),,               -154000+247.3*T-46.88*T*LN(T)
             -0.004299*T**2+57119*T**(-1);,,                          N 20Xu !
 PAR  G(LA3SI5,LA:SI),,                 +3*GHSERLA+5*GHSERSI
             -490000-9.2*T;,,                                         N 20Xu !
 PAR  G(LASI2_CC,LA:SI),,               -194000+371.4*T-69.05*T*LN(T)
             -0.0069*T**2+198808*T**(-1);,,                           N 20Xu !
$ ------------------------------------------------------------------------------
$
$
 LIST-OF-REFERENCE
 NUMBER  SOURCE
  Null   'Unknown source'
  Same   'Same or similar interaction as in the corresponding stable phase'
  REFLAV 'Laves phase convention: G(LAVES,X:X)=+3*GHSERXX+15000'
  91Din  'A.T. Dinsdale, Calphad, 15, 317-425(1991).'
  20Xu   'K. Xu, K. Chang, X. Zhou, L. Chen, J. Liu, Z. Deng, F.Huang,
          Q. Huang, J. Am. Ceram. Soc., 103, 3812-25(2020); La-Si'
!
