$
$ Database for Dy-Fe from M.H. Rong et al. 2017.
$
$ M.H. Rong, X.L. Chen, J. Wang, G.H. Rao, H.Y. Zhou, Calphad, 59, 154-63(2017).
$
$ Dataset created 2021.07.04 by Bengt Hallstedt.
$
$ Invariant equilibria differ by up to 19 K. The reason for this is not clear.
$ The Liquid L1 and/or L2 parameters are candidates. L0 was corrected.
$
$ ------------------------------------------------------------------------------
 TEMP-LIM 298.15 6000.00 !
$
$ELEMENT NAME  REF. STATE               ATOMIC MASS H298-H0    S298    !
$
 ELEMENT VA   VACUUM                      0.0          0.0      0.0    ! 
 ELEMENT DY   HCP_A3                    162.50      8865.896   74.9559 ! 
 ELEMENT FE   BCC_A2                     55.847     4489.0     27.2797 ! 
$ ------------------------------------------------------------------------------
$ Phase definitions
$
 PHASE LIQUID:L % 1 1 !
 CONST LIQUID:L : DY FE : !
$
$ Fcc (cF4, Fm-3m) and MeX (cF8, Fm-3m)
$
 PHASE FCC_A1 %A 2 1 1 !
 CONST FCC_A1 : DY FE% : VA : !
$
$ Bcc (cI2, Im-3m)
$
 PHASE BCC_A2 %B 2 1 3 !
 CONST BCC_A2 : DY FE : VA : !
$
$ Hcp (hP2, P6_3/mmc) and Me2X (NiAs-type, hP4, P6_3/mmc, B8_1)
$
 PHASE HCP_A3 % 2 1 0.5 !
 CONST HCP_A3 : DY% FE : VA : !
$
$ Prototype Cu2Mg (cF24, Fd-3m)
$
 PHASE DYFE2_C15 %A 2 1 2 !
 CONST DYFE2_C15 : DY : FE : !
$
$ Prototype Ni3Pu (hR12, R-3m)
$
 PHASE DYFE3 %A 2 1 3 !
 CONST DYFE3 : DY : FE : !
$
$ Prototype Mn23Th6 (cF116, Fm-3m)
$
 PHASE DY6FE23_D8A %A 2 6 23 !
 CONST DY6FE23_D8A : DY : FE : !
$
$ Prototype Ni17Th2 (hP38, P6_3/mmc)
$
 PHASE DY2FE17 %A 2 2 17 !
 CONST DY2FE17 : DY : FE : !
$ ------------------------------------------------------------------------------
$ Defaults
$
 DEFINE-SYSTEM-DEFAULT ELEMENT 2 !
 DEFAULT-COM DEFINE_SYSTEM_ELEMENT VA !
 TYPE-DEF % SEQ * !
 TYPE-DEF A GES AMEND_PHASE_DESCRIPTION @ MAGNETIC -3 0.28 !
 TYPE-DEF B GES AMEND_PHASE_DESCRIPTION @ MAGNETIC -1 0.4 !
 FUNCTION ZERO      298.15  0;                                         6000 N !
 FUNCTION UN_ASS    298.15  0;                                         6000 N !
 FUNCTION R         298.15  +8.31451;                                  6000 N !
$ ------------------------------------------------------------------------------
$ Element data
$ ------------------------------------------------------------------------------
$ Dy
$
$ HCP_A3, BCC_A2 and LIQUID revised in unary 3.0
$
$ FCC_A1 from 94Lan not included in unary
$ FCC_A1 from 03Cac not included in unary (but it should be)
$
 PAR  G(HCP_A3,DY:VA)           100.00  +GHSERDY;                3000 N 95She1 !
 PAR  TC(HCP_A3,DY:VA)          100.00    179;                   3000 N 95She1 !
 PAR  BMAG(HCP_A3,DY:VA)        100.00      3.0;                 3000 N 95She1 !
 PAR  G(BCC_A2,DY:VA)           100.00  +GBCCDY;                 3000 N 95She1 !
$PAR  G(FCC_A1,DY:VA)           298.15  +GHSERDY
$            +1300-0.6651608*T;                                  3000 N 03Cac !
 PAR  G(FCC_A1,DY:VA)           298.15  +GHSERDY+5000;           3000 N 94Lan !
 PAR  G(LIQUID,DY)              100.00  +GLIQDY;                 3000 N 95She1 !
$
 FUNCTION GHSERDY   100.00  -7937.16586+102.307412*T-26.3917167*T*LN(T)
       -7.61683657E-04*T**2-5.86914125E-07*T**3+4010.90565*T**(-1);
      1000.00  Y  -13733.328+214.012934*T-43.8283359*T*LN(T)
       +0.0166909801*T**2-3.49702836E-06*T**3+0.0173619874*T**(-1);
      1654.15  Y  -404681.371+2032.1415*T-272.123952*T*LN(T)
       +0.0578301681*T**2-2.76169148E-06*T**3+1.09616238E+08*T**(-1);
      3000.00  N !
 FUNCTION GBCCDY    100.00  +1508.1802-0.566616181*T+GHSERDY;
      1000.00  Y  +327500.062-2868.04585*T+391.515418*T*LN(T)
       -0.224042148*T**2+2.04076075E-05*T**3-48652656.5*T**(-1);
      1654.15  Y  -33708.7949+291.409631*T-50.208*T*LN(T);
      1685.15  Y  -40775.4966+330.318068*T-55.2811171*T*LN(T)
       +0.0015254673*T**2-7.7437116E-08*T**3+1776589.32*T**(-1);
      3000.00  N !
 FUNCTION GLIQDY    100.00  +13196.6185-7.5443643*T+GHSERDY;
      1000.00  Y  +300126.971-2519.78614*T+341.302578*T*LN(T)
       -0.196153225*T**2+1.76197799E-05*T**3-43071677.5*T**(-1);
      1685.15  Y  -21864.7344+282.205014*T-49.9151*T*LN(T);
      3000.00  N !
$ ------------------------------------------------------------------------------
$ Fe
$
$ ORTHORHOMBIC_A20 and TETRAGONAL_U added im unary 4.1
$
 PAR  G(BCC_A2,FE:VA),,                 +GHSERFE;,,                   N 91Din !
 PAR  TC(BCC_A2,FE:VA),,                 1043.00;,,                   N 91Din !
 PAR  BMAG(BCC_A2,FE:VA),,                  2.22;,,                   N 91Din !
 PAR  G(FCC_A1,FE:VA),,                 +GFCCFE;,,                    N 91Din !
 PAR  TC(FCC_A1,FE:VA),,                 -201.00;,,                   N 91Din !
 PAR  BMAG(FCC_A1,FE:VA),,                 -2.10;,,                   N 91Din !
 PAR  G(HCP_A3,FE:VA),,                 +GHCPFE;,,                    N 91Din !
$PAR  G(CBCC_A12,FE:VA),,               +GHSERFE+4745;,,              N 91Din !
$PAR  G(CUB_A13,FE:VA),,                +GHSERFE+3745;,,              N 91Din !
$PAR  G(ORTHORHOMBIC_A20,FE),,          +GHSERFE+5000;,,              N 99SGUN !
$PAR  G(TETRAGONAL_U,FE),,              +GHSERFE+5000;,,              N 99SGUN !
 PAR  G(LIQUID,FE),,                    +GLIQFE;,,                    N 91Din !
$
 FUNCTION GHSERFE   298.15  +1225.7+124.134*T-23.5143*T*LN(T)
       -0.00439752*T**2-5.8927E-08*T**3+77359*T**(-1);
      1811.00  Y  -25383.581+299.31255*T-46*T*LN(T)+2.29603E+31*T**(-9);
      6000.00  N !
 FUNCTION GFCCFE    298.15  -1462.4+8.282*T-1.15*T*LN(T)
       +6.4E-04*T**2+GHSERFE;
      1811.00  Y  -1713.815+0.940009*T+GHSERFE+4.9251E+30*T**(-9);
      6000.00  N !
 FUNCTION GHCPFE    298.15  -3705.78+12.591*T-1.15*T*LN(T)
       +6.4E-04*T**2+GHSERFE;
      1811.00  Y  -3957.195+5.249009*T+GHSERFE+4.9251E+30*T**(-9);
      6000.00  N !
 FUNCTION GLIQFE    298.15  +12040.17-6.55843*T+GHSERFE-3.67516E-21*T**7;
      1811.00  Y  -10838.83+291.302*T-46*T*LN(T);
      6000.00  N !
$ ------------------------------------------------------------------------------
$ Binary system
$
$ M.H. Rong, X.L. Chen, J. Wang, G.H. Rao, H.Y. Zhou, Calphad, 59, 154-63(2017).
$
$ Checked against paper. Checked at 6000 K.
$
$ Invariant equilibria differ by up to 19 K. The reason for this is not clear.
$ The Liquid L1 and/or L2 parameters are candidates. L0 was corrected.
$
 PAR  L(LIQUID,DY,FE;0),,               -32524.7907+10.5074*T;,,      N 17Ron !
 PAR  L(LIQUID,DY,FE;1),,               +14150.2192-1.6225*T;,,       N 17Ron !
 PAR  L(LIQUID,DY,FE;2),,               -422.595-6.1633*T;,,          N 17Ron !
$
 PAR  L(FCC_A1,DY,FE:VA;0),,            +38000;,,                     N 17Ron !
 PAR  L(BCC_A2,DY,FE:VA;0),,            +38000;,,                     N 17Ron !
 PAR  L(HCP_A3,DY,FE:VA;0),,            +100000;,,                    N 17Ron !
$
 PAR  G(DYFE2_C15,DY:FE),,              +GHSERDY+2*GHSERFE
             -45100+26.48*T-T*LN(T)-0.008*T**2-100000*T**(-1)
             +3E-07*T**3;,,                                           N 17Ron !
 PAR  TC(DYFE2_C15,DY:FE),,               635.00;,,                   N 17Ron !
 PAR  BMAG(DYFE2_C15,DY:FE),,               5.75;,,                   N 17Ron !
$
 PAR  G(DYFE3,DY:FE),,                  +GHSERDY+3*GHSERFE
             -62000+13.1662*T;,,                                      N 17Ron !
 PAR  TC(DYFE3,DY:FE),,                   606.00;,,                   N 17Ron !
 PAR  BMAG(DYFE3,DY:FE),,                   3.97;,,                   N 17Ron !
$
 PAR  G(DY6FE23_D8A,DY:FE),,            +6*GHSERDY+23*GHSERFE
             -475000+132.5*T;,,                                       N 17Ron !
 PAR  TC(DY6FE23_D8A,DY:FE),,             534.00;,,                   N 17Ron !
 PAR  BMAG(DY6FE23_D8A,DY:FE),,            14.90;,,                   N 17Ron !
$
 PAR  G(DY2FE17,DY:FE),,                +2*GHSERDY+17*GHSERFE
             -250000+80.0448*T;,,                                     N 17Ron !
 PAR  TC(DY2FE17,DY:FE),,                 371.00;,,                   N 17Ron !
 PAR  BMAG(DY2FE17,DY:FE),,                16.10;,,                   N 17Ron !
$ ------------------------------------------------------------------------------
$
$
 LIST-OF-REFERENCE
 NUMBER  SOURCE
  Null   'Unknown source'
  Same   'Same or similar interaction as in the corresponding stable phase'
  REFLAV 'Laves phase convention: G(LAVES,X:X)=+3*GHSERXX+15000'
  91Din  'A.T. Dinsdale, Calphad, 15, 317-425(1991).'
  94Lan  'S. Landin, J. Agren,
          J. Alloys Compd., 207-208, 449-53(1994); Dy, Tb'
  95She1 'H. Shen, W. Zhang, G. Liu, R. Wang, Z. Du, Report F-95-01,
          University of Science and Technology, Beijing, May 1995,
          SGTE unary database V.3.0, 1996; Dy'
  99SGUN 'SGTE unary database V.4.1, 1999.'
  03Cac  'G. Cacciamani, S. De Negri, A. Saccone, R. Ferro,
          Intermetallics, 11, 1135-51(2003); Dy'
  17Ron  'M.H. Rong, X.L. Chen, J. Wang, G.H. Rao, H.Y. Zhou,
          Calphad, 59, 154-63(2017); Dy-Fe'
!
