$
$ Database for Be-Pu from Y.X. Huang et al. 2016.
$
$ Y.X. Huang, Y. Lu, Q. He, Y. Wang, W. Fang, X.J. Liu, J.P. Jia, C.P. Wang,
$ Calphad, 52, 120-24(2016).
$
$ Dataset created 2019.10.19 by Bengt Hallstedt.
$
$ ------------------------------------------------------------------------------
 TEMP-LIM 298.15 6000.00 !
$
$ELEMENT NAME  REF. STATE               ATOMIC MASS H298-H0    S298    !
$
 ELEMENT VA   VACUUM                      0.0          0.0      0.0    ! 
 ELEMENT BE   HCP_A3                      9.01218   1950.0      9.50   ! 
 ELEMENT PU   ALPHA_PU                  244.        6902.0     54.4610 ! 
$ ------------------------------------------------------------------------------
$ Phase definitions
$
 PHASE LIQUID:L % 1 1 !
 CONST LIQUID:L : BE PU : !
$
$ Fcc (cF4, Fm-3m) and MeX (cF8, Fm-3m), delta
$
 PHASE FCC_A1 %A 2 1 1 !
 CONST FCC_A1 : BE PU% : VA : !
$
$ Bcc (cI2, Im-3m), epsilon
$
 PHASE BCC_A2 %B 2 1 3 !
 CONST BCC_A2 : BE% PU% : VA : !
$
$ Hcp (hP2, P6_3/mmc) and Me2X (NiAs-type, hP4, P6_3/mmc, B8_1)
$
 PHASE HCP_A3 %A 2 1 0.5 !
 CONST HCP_A3 : BE : VA : !
$
$ Prototype In (tI2, I4/mmm), delta-prime
$
 PHASE TETRAGONAL_A6 % 1 1 !
 CONST TETRAGONAL_A6 : PU : !
$
$ Prototype alpha-Pu (mP16, P2_1/m)
$
 PHASE ALPHA_PU % 1 1 !
 CONST ALPHA_PU : PU : !
$
$ Prototype beta-Pu (mC34, C2/m)
$
 PHASE BETA_PU % 1 1 !
 CONST BETA_PU : PU : !
$
$ Prototype gamma-Pu (oF8, Fddd)
$
 PHASE GAMMA_PU % 1 1 !
 CONST GAMMA_PU : PU : !
$
$ Prototype NaZn13 (cF112, Fm-3c)
$
 PHASE BE13PU_D23 % 2 13 1 !
 CONST BE13PU_D23 : BE : PU : !
$ ------------------------------------------------------------------------------
$ Defaults
$
 DEFINE-SYSTEM-DEFAULT ELEMENT 2 !
 DEFAULT-COM DEFINE_SYSTEM_ELEMENT VA !
 TYPE-DEF % SEQ * !
 TYPE-DEF A GES AMEND_PHASE_DESCRIPTION @ MAGNETIC -3 0.28 !
 TYPE-DEF B GES AMEND_PHASE_DESCRIPTION @ MAGNETIC -1 0.4 !
 FUNCTION ZERO      298.15  0;                                         6000 N !
 FUNCTION UN_ASS    298.15  0;                                         6000 N !
 FUNCTION R         298.15  +8.31451;                                  6000 N !
$ ------------------------------------------------------------------------------
$ Element data
$ ------------------------------------------------------------------------------
$ Be
$
 PAR  G(HCP_A3,BE:VA),,                 +GHSERBE;                3000 N 91Din !
 PAR  G(BCC_A2,BE:VA),,                 +GBCCBE;                 3000 N 91Din !
 PAR  G(FCC_A1,BE:VA),,                 +GHSERBE+6349-1.085*T;   3000 N 91Din !
 PAR  G(LIQUID,BE),,                    +GLIQBE;                 3000 N 91Din !
$
 FUNCTION GHSERBE   298.15  -8553.651+137.560219*T-21.204*T*LN(T)
       -0.00284715*T**2-1.60413E-07*T**3+293690*T**(-1);
      1527.00  Y  -121305.858+772.405844*T-103.9843*T*LN(T)
       +0.021078651*T**2-1.119065E-06*T**3+27251743*T**(-1);
      3000.00  N !
 FUNCTION GBCCBE    298.15  -1076.057+109.411712*T-17.1727841*T*LN(T)
       -0.008672487*T**2+9.61427E-07*T**3+242309*T**(-1);
      1527.00  Y  -6970.378+196.411689*T-30*T*LN(T);
      1560.00  Y  -2609.973+178.131722*T-27.7823769*T*LN(T)
       -1.03629E-04*T**2-5.9331E-08*T**3-1250847*T**(-1);
      3000.00  N !
 FUNCTION GLIQBE    298.15  +7511.838+120.362788*T-20.0497038*T*LN(T)
       -0.004821347*T**2+4.15958E-07*T**3+281044*T**(-1);
      1560.00  Y  +5364.713+156.961141*T-25.486*T*LN(T)
       -0.0010572*T**2-1.117E-09*T**3+15920*T**(-1);
      3000.00  N !
$ ------------------------------------------------------------------------------
$ Pu
$
 PAR  G(ALPHA_PU,PU),,                  +GHSERPU;                3000 N 91Din !
 PAR  G(BCC_A2,PU:VA),,                 +GBCCPU;                 3000 N 91Din !
 PAR  G(BETA_PU,PU),,                   +GBETPU;                 3000 N 91Din !
 PAR  G(FCC_A1,PU:VA),,                 +GFCCPU;                 3000 N 91Din !
 PAR  G(GAMMA_PU,PU),,                  +GGAMPU;                 3000 N 91Din !
 PAR  G(TETRAGONAL_A6,PU),,             +GTETPU;                 3000 N 91Din !
 PAR  G(LIQUID,PU),,                    +GHSERPU
             +6608.1-12.5133*T;                                  3000 N 91Din !
$
 FUNCTION GHSERPU   298.15  -7396.309+80.301382*T-18.1258*T*LN(T)
       -0.02241*T**2;
       400.00  Y  -16605.962+236.786603*T-42.4187*T*LN(T)
       -0.00134493*T**2+2.63443E-07*T**3+579325*T**(-1);
       944.00  Y  -14462.156+232.961553*T-42.248*T*LN(T);
      3000.00  N !
 FUNCTION GBCCPU    298.15  -1358.984+116.603882*T-27.094*T*LN(T)
       -0.009105*T**2+2.061667E-06*T**3+20863*T**(-1);
       745.00  Y  -2890.817+156.878957*T-33.72*T*LN(T);
       956.00  Y  +29313.619-132.788248*T+6.921*T*LN(T)
       -0.02023305*T**2+1.426922E-06*T**3-4469245*T**(-1);
      2071.00  Y  -938.429-5.539698*T+GHSERPU;
      3000.00  N !
 FUNCTION GBETPU    298.15  -4873.654+123.249151*T-27.416*T*LN(T)
       -0.00653*T**2;
       679.50  Y  +2435.094+43.566585*T-15.7351*T*LN(T)
       -0.0154772*T**2+1.524942E-06*T**3-864940*T**(-1);
      1464.00  Y  +503.094-4.739938*T+GHSERPU;
      3000.00  N !
 FUNCTION GFCCPU    298.15  -3920.781+127.586536*T-28.4781*T*LN(T)
       -0.0054035*T**2;
       990.00  Y  +3528.208+41.52572*T-15.7351*T*LN(T)
       -0.0154772*T**2+1.524942E-06*T**3-864940*T**(-1);
      1464.00  Y  +1596.208-6.780803*T+GHSERPU;
      3000.00  N !
 FUNCTION GGAMPU    298.15  -16766.303+419.402655*T-77.5802*T*LN(T)
       +0.0816415*T**2-2.8103833E-05*T**3+574825*T**(-1);
       487.90  Y  -2942.77+88.325069*T-22.0233*T*LN(T)-0.0114795*T**2;
       593.90  Y  -9336.967+160.314641*T-32.3405*T*LN(T)
       -0.0070383*T**2+6.92887E-07*T**3+630600*T**(-1);
      1179.00  Y  +2026.406-6.829936*T+GHSERPU;
      3000.00  N !
 FUNCTION GTETPU    298.15  -496.178+54.586547*T-16.43*T*LN(T)
       -0.024006*T**2+5.166667E-06*T**3-158470*T**(-1);
       736.00  Y  -6122.307+173.35008*T-35.56*T*LN(T);
       757.00  Y  +3982.078+63.890352*T-19.756*T*LN(T)
       -0.00937295*T**2+6.59882E-07*T**3-1112565*T**(-1);
      2157.00  Y  -738.383-4.905143*T+GHSERPU;
      3000.00  N !
$ ------------------------------------------------------------------------------
$ Binary system
$
$ Y.X. Huang, Y. Lu, Q. He, Y. Wang, W. Fang, X.J. Liu, J.P. Jia, C.P. Wang,
$ Calphad, 52, 120-24(2016).
$
$ Checked against paper and author's tdb. Checked at 6000 K.
$
 PAR  L(LIQUID,BE,PU;0),,               +13000;,,                     N 16Hua !
 PAR  L(LIQUID,BE,PU;1),,               +2800;,,                      N 16Hua !
$
 PAR  L(FCC_A1,BE,PU:VA;0),,            +50000;,,                     N 16Hua !
$
 PAR  L(BCC_A2,BE,PU:VA;0),,            +25000-2.5*T;,,               N 16Hua !
 PAR  L(BCC_A2,BE,PU:VA;1),,            -6300+15.5*T;,,               N 16Hua !
$
 PAR  G(BE13PU_D23,BE:PU),,             +13*GHSERBE+GHSERPU
             -151200+0.14*T;,,                                        N 16Hua !
$ ------------------------------------------------------------------------------
$
$
 LIST-OF-REFERENCE
 NUMBER  SOURCE
  Null   'Unknown source'
  Same   'Same or similar interaction as in the corresponding stable phase'
  COST   'COST 507 database'
  91Din  'A.T. Dinsdale, Calphad, 15, 317-425(1991).'
  16Hua  'Y.X. Huang, Y. Lu, Q. He, Y. Wang, W. Fang, X.J. Liu, J.P. Jia,
          C.P. Wang, Calphad, 52, 120-24(2016); Be-Pu'
!
