$
$ Database for Au-Sc from S.L. Wang et al. 2016.
$
$ K. Xu, S. Liu, F. Zhang, Y. Du, Z. Jin, Calphad, 54, 158-64(2016).
$
$ Dataset created 2018.03.31 by Bengt Hallstedt.
$ 2020.12.22: Modified for use with GES6.
$
$ ------------------------------------------------------------------------------
 TEMP-LIM 298.15 6000.00 !
$
$ELEMENT NAME  REF. STATE               ATOMIC MASS H298-H0    S298    !
$
 ELEMENT VA   VACUUM                      0.0          0.0      0.0    ! 
 ELEMENT AU   FCC_A1                    196.9665    6016.592   47.4884 ! 
 ELEMENT SC   HCP_A3                     44.9559    5217.448   34.6435 ! 
$ ------------------------------------------------------------------------------
$ Phase definitions
$
 PHASE LIQUID:L % 1 1 !
 CONST LIQUID:L : AU SC : !
$
$ Fcc (cF4) and MeX (cF8)
$
 PHASE FCC_A1 %A 2 1 1 !
 CONST FCC_A1 : AU% SC : VA : !
$
$ Bcc (cI2, Im-3m)
$
 PHASE BCC_A2 %B 2 1 3 !
 CONST BCC_A2 : AU SC% : VA : !
$
$ Hcp (hP2, P6_3/mmc) and Me2X (NiAs-type, hP4, P6_3/mmc, B8_1), zeta
$
 PHASE HCP_A3 %A 2 1 0.5 !
 CONST HCP_A3 : AU SC% : VA : !
$
$ Prototype MoNi4 (tI10, I4/m)
$
 PHASE AU4SC_D1A % 2 4 1 !
 CONST AU4SC_D1A : AU : SC : !
$
$ Prototype Cu3Ti (oP8, Pmmn)
$
 PHASE AU3SC_D0A % 2 3 1 !
 CONST AU3SC_D0A : AU : SC : !
$
$ Prototype MoSi2 (tI6, I4/mmm)
$
 PHASE AU2SC_C11B % 2 2 1 !
 CONST AU2SC_C11B : AU : SC : !
$
$ Prototype CsCl (cP2, Pm3m)
$
 PHASE AUSC_B2 % 2 1 1 !
 CONST AUSC_B2 : AU : SC : !
$
$ Prototype Co2Si (oP12, Pnma)
$
 PHASE AUSC2_C37 % 2 1 2 !
 CONST AUSC2_C37 : AU : SC : !
$
$ Prototype Au2Sc7 (oI142, Immm)
$
 PHASE AU2SC7 % 2 2 7 !
 CONST AU2SC7 : AU : SC : !
$ ------------------------------------------------------------------------------
$ Defaults
$
 DEFINE-SYSTEM-DEFAULT ELEMENT 2 !
 DEFAULT-COM DEFINE_SYSTEM_ELEMENT VA !
 TYPE-DEF % SEQ * !
 TYPE-DEF A GES AMEND_PHASE_DESCRIPTION @ MAGNETIC -3 0.28 !
 TYPE-DEF B GES AMEND_PHASE_DESCRIPTION @ MAGNETIC -1 0.4 !
 FUNCTION ZERO      298.15  0;                                         6000 N !
 FUNCTION UN_ASS    298.15  0;                                         6000 N !
 FUNCTION R         298.15  +8.31451;                                  6000 N !
$ ------------------------------------------------------------------------------
$ Element data
$ ------------------------------------------------------------------------------
$ Au
$
$ DHCP added in unary 5.0
$ DHCP replaced by the value from 92Ans in SGSOL 5.0
$
$ HCP_A3 and BCT_A5 from 88Che1 not included in unary
$
$ The DHCP phase is labelled D0_24 in 03Liu and alpha-prime in 92Ans. The
$ phase is present between the fcc and hcp phases in the Au-Sn and Au-In
$ systems. The value for DHCP from 92Ans was used to model these systems,
$ thus this value must be included in the unary database and not the 04Du
$ value.
$
 PAR  G(FCC_A1,AU:VA),,                 +GHSERAU;                3200 N 91Din !
 PAR  G(HCP_A3,AU:VA),,                 +GHSERAU+240.75+1.6*T;   3200 N 91Din !
$PAR  G(HCP_A3,AU:VA),,                 +GHSERAU+550+0.3*T;      3200 N 88Che1 !
 PAR  G(BCC_A2,AU:VA),,                 +GHSERAU+4250-1.1*T;     3200 N 91Din !
$PAR  G(BCT_A5,AU),,                    +GHSERAU+4184;           3200 N 88Che1 !
$PAR  G(DHCP,AU),,                      +GHSERAU+125+0.79*T;     3200 N 92Ans !
$PAR  G(DHCP,AU),,                      +GHSERAU+5000;           3200 N 04Du !
 PAR  G(LIQUID,AU),,                    +GHSERAU
             +12552-9.385866*T;                                  3200 N 91Din !
$
 FUNCTION GHSERAU   298.15  -6938.856+106.830098*T-22.75455*T*LN(T)
       -0.00385924*T**2+3.79625E-07*T**3-25097*T**(-1);
       929.40  Y  -93586.481+1021.69543*T-155.706745*T*LN(T)
       +0.08756015*T**2-1.1518713E-05*T**3+10637210*T**(-1);
      1337.33  Y  +314067.829-2016.37825*T+263.252259*T*LN(T)
       -0.118216828*T**2+8.923844E-06*T**3-67999832*T**(-1);
      1735.80  Y  -12133.783+165.272524*T-30.9616*T*LN(T);
      3200.00  N !
$ ------------------------------------------------------------------------------
$ Sc
$
$ FCC_A1 and DHCP added in unary 4.4
$
 PAR  G(HCP_A3,SC:VA),,                 +GHSERSC;                3200 N 91Din !
 PAR  G(BCC_A2,SC:VA),,                 +GBCCSC;                 3200 N 91Din !
 PAR  G(FCC_A1,SC:VA),,                 +GHSERSC+5000;           3200 N 99Cac !
$PAR  G(DHCP,SC),,                      +GHSERSC
$            +1200+0.4157255*T;                                  3200 N 00Nor2 !
 PAR  G(LIQUID,SC),,                    +GLIQSC;                 3200 N 91Din !
$
 FUNCTION GHSERSC   298.15  -8689.547+153.48097*T-28.1882*T*LN(T)
       +0.00321892*T**2-1.64531E-06*T**3+72177*T**(-1);
       800.00  Y  -7511.295+132.759582*T-24.9132*T*LN(T)
       -5.73295E-04*T**2-8.59345E-07*T**3;
      1608.00  Y  +261143.04-1817.92245*T+241.441051*T*LN(T)
       -0.117529396*T**2+8.7398E-06*T**3-50607159*T**(-1);
      2000.00  Y  -30515.246+286.474338*T-44.2249*T*LN(T);
      3200.00  N !
 FUNCTION GBCCSC    298.15  +1979.728-1.024135*T+GHSERSC;
      1000.00  Y  +230161.408-2004.05469*T+276.76664*T*LN(T)
       -0.167120107*T**2+1.5637371E-05*T**3-33783257*T**(-1);
      1608.00  Y  -25928.011+283.642312*T-44.2249*T*LN(T);
      2000.00  Y  +4587.235-2.832026*T+GHSERSC;
      3200.00  N !
 FUNCTION GLIQSC    298.15  +6478.66+45.427539*T-10.7967803*T*LN(T)
       -0.020636524*T**2+2.13106E-06*T**3-158106*T**(-1);
      1608.00  Y  -11832.111+275.871695*T-44.2249*T*LN(T);
      3200.00  N !
$ ------------------------------------------------------------------------------
$ Binary system
$
$ K. Xu, S. Liu, F. Zhang, Y. Du, Z. Jin, Calphad, 54, 158-64(2016).
$
$ Checked against paper and author's tdb. Checked at 6000 K.
$
 PAR  L(LIQUID,AU,SC;0),,               -229326.82+8.12*T;,,          N 16Xu !
 PAR  L(LIQUID,AU,SC;1),,               -37303.77-14.29*T;,,          N 16Xu !
 PAR  L(LIQUID,AU,SC;2),,               +3441.85+2.39*T;,,            N 16Xu !
$
 PAR  L(FCC_A1,AU,SC:VA;0),,            -175520.06-22.02*T;,,         N 16Xu !
 PAR  L(FCC_A1,AU,SC:VA;1),,            -65519.78;,,                  N 16Xu !
$
 PAR  L(BCC_A2,AU,SC:VA;0),,            +UN_ASS;,,                    N !
 PAR  L(HCP_A3,AU,SC:VA;0),,            +UN_ASS;,,                    N !
$
 PAR  G(AU4SC_D1A,AU:SC),,              +4*GHSERAU+GHSERSC
             -270000+23.25*T;,,                                       N 16Xu !
 PAR  G(AU3SC_D0A,AU:SC),,              +3*GHSERAU+GHSERSC
             -240000+13*T;,,                                          N 16Xu !
 PAR  G(AU2SC_C11B,AU:SC),,             +2*GHSERAU+GHSERSC
             -200959.29+1.62*T;,,                                     N 16Xu !
 PAR  G(AUSC_B2,AU:SC),,                +GHSERAU+GHSERSC
             -152200+7.4*T;,,                                         N 16Xu !
 PAR  G(AUSC2_C37,AU:SC),,              +GHSERAU+2*GHSERSC
             -189000+23.16*T;,,                                       N 16Xu !
 PAR  G(AU2SC7,AU:SC),,                 +2*GHSERAU+7*GHSERSC
             -477000+112.5*T;,,                                       N 16Xu !
$ ------------------------------------------------------------------------------
$
$
 LIST-OF-REFERENCE
 NUMBER  SOURCE
  Null   'Unknown source'
  Same   'Same or similar interaction as in the corresponding stable phase'
  COST   'COST 507 database'
  88Che1 'P.-Y. Chevalier, Thermochim. Acta, 130, 1-13(1988); Au, Sn'
  91Din  'A.T. Dinsdale, Calphad, 15, 317-425(1991).'
  92Ans  'I. Ansara, J.-Ph. Nabot, Calphad, 16, 13-18(1992); Au'
  99Cac  'G. Cacciamani, P. Riani, G. Borzone, N. Parodi, A. Saccone, R. Ferro,
          A. Pisch, R. Schmid-Fetzer, Intermetallics, 7, 101-8(1999),
          SGTE unary database V.4.4, 2001; Sc'
  00Nor2 'S. Norgren, PhD Thesis, KTH, Stockholm, 2000,
          SGTE unary database V.4.4, 2001; Nd, Sc'
  04Du   'Z. Du, C. Guo, D. Lu, J. Alloys Compd., 364, 117-20(2004),
          SGTE unary database V.5.0, 2009; Au'
  16Xu   'K. Xu, S. Liu, F. Zhang, Y. Du, Z. Jin,
          Calphad, 54, 158-64(2016); Au-Sc'
!
