$
$ Database for Mo-O from C. Zhang et al. 2014.
$
$ C. Zhang, M.C. Gao, Y. Yang, F. Zhang, Calphad, 45, 178-87(2014).
$
$ Dataset created 2018.11.25 by Bengt Hallstedt.
$ 2021.01.31: Modified for use with GES6.
$
$ The modelling of the liquid is questionable.
$
$ ------------------------------------------------------------------------------
 TEMP-LIM 298.15 6000.00 !
$
$ELEMENT NAME  REF. STATE               ATOMIC MASS H298-H0    S298    !
$
 ELEMENT VA   VACUUM                      0.0          0.0      0.0    ! 
 ELEMENT MO   BCC_A2                     95.94      4589.0     28.56   ! 
 ELEMENT O    1/2_MOLE_O2(G)             15.999     4341.0    102.52   ! 
$ ------------------------------------------------------------------------------
$ Species
$
 SPECIE  MO2                                MO2 !
 SPECIE  MOO                                MO1O1 !
 SPECIE  MOO2                               MO1O2 !
 SPECIE  MOO3                               MO1O3 !
 SPECIE  MO2O6                              MO2O6 !
 SPECIE  MO3O9                              MO3O9 !
 SPECIE  MO4O12                             MO4O12 !
 SPECIE  MO5O15                             MO5O15 !
 SPECIE  O2                                 O2 !
 SPECIE  O3                                 O3 !
$ ------------------------------------------------------------------------------
$ Phase definitions
$
 PHASE LIQUID:L % 1 1 !
 CONST LIQUID:L : MO O : !
$
 PHASE OXIDE_L % 1 1 !
 CONST OXIDE_L : MOO2 MOO3 : !
$
$ Fcc (cF4, Fm-3m) and MeX (cF8, Fm-3m)
$
 PHASE FCC_A1 %A 2 1 1 !
 CONST FCC_A1 : MO : VA : !
$
$ Bcc (cI2, Im-3m)
$
 PHASE BCC_A2 %B 2 1 3 !
 CONST BCC_A2 : MO% O : VA : !
$
$ Hcp (hP2, P6_3/mmc) and Me2X (NiAs-type, hP4, P6_3/mmc, B8_1)
$
 PHASE HCP_A3 %A 2 1 0.5 !
 CONST HCP_A3 : MO : VA : !
$
$ Prototype VO2 (mP12, P2_1/c)
$
 PHASE MOO2 % 2 1 2 !
 CONST MOO2 : MO% O : MO O% : !
$
$ Prototype Mo4O11 (oP60, Pna2_1)
$
 PHASE MO4O11 % 2 1 2.75 !
 CONST MO4O11 : MO : O : !
$
$ Prototype Mo8O23 (mP62, P2/c)
$
 PHASE MO8O23 % 2 1 2.875 !
 CONST MO8O23 : MO : O : !
$
$ Prototype Mo9O26 (mP70, P2/c)
$
 PHASE MO9O26 % 2 1 2.889 !
 CONST MO9O26 : MO : O : !
$
$ Prototype MoO3 (oP16, Pnma) alpha
$ Prototype MoO3 (mP22, P2_1/c) beta
$ Prototype WO3 (mP32, P2_1/c) beta-prime
$
 PHASE MOO3 % 2 1 3 !
 CONST MOO3 : MO : O : !
$
 PHASE O2GAS % 1 1 !
 CONST O2GAS : O2 :!
$
 PHASE GAS:G % 1 1 !
 CONST GAS:G : MO MO2 MOO MOO2 MOO3 MO2O6 MO3O9 MO4O12 MO5O15 O O2 O3 : !
$ ------------------------------------------------------------------------------
$ Defaults
$
 DEFINE-SYSTEM-DEFAULT ELEMENT 2 !
 DEFAULT-COM DEFINE_SYSTEM_ELEMENT VA !
 DEFAULT-COM REJECT_PHASE GAS !
 TYPE-DEF % SEQ * !
 TYPE-DEF A GES AMEND_PHASE_DESCRIPTION @ MAGNETIC -3 0.28 !
 TYPE-DEF B GES AMEND_PHASE_DESCRIPTION @ MAGNETIC -1 0.4 !
 FUNCTION ZERO      298.15  0;                                         6000 N !
 FUNCTION UN_ASS    298.15  0;                                         6000 N !
 FUNCTION R         298.15  +8.31451;                                  6000 N !
 FUNCTION RTLNP     298.15  +8.31451*T*LN(1E-05*P);                    6000 N !
$ ------------------------------------------------------------------------------
$ Element data
$ ------------------------------------------------------------------------------
$ Mo
$
 PAR  G(BCC_A2,MO:VA),,                 +GHSERMO;                5000 N 91Din !
 PAR  G(FCC_A1,MO:VA),,                 +GHSERMO+15200+0.63*T;   5000 N 91Din !
 PAR  G(HCP_A3,MO:VA),,                 +GHSERMO+11550;          5000 N 91Din !
 PAR  G(LIQUID,MO),,                    +GLIQMO;                 5000 N 91Din !
$
 PAR  G(MOO2,MO:MO),,                   +3*GHSERMO+34486+53*T;,,      N 14Zha !
$
 PAR  G(GAS,MO),,                       +F12831T+RTLNP;,,             N 97SUB !
 PAR  G(GAS,MO2),,                      +F12904T+RTLNP;,,             N 97SUB !
$
 FUNCTION GHSERMO   298.15  -7746.302+131.9197*T-23.56414*T*LN(T)
       -0.003443396*T**2+5.66283E-07*T**3+65812*T**(-1)-1.30927E-10*T**4;
      2896.00  Y  -30556.41+283.559746*T-42.63829*T*LN(T)-4.849315E+33*T**(-9);
      5000.00  N !
 FUNCTION GLIQMO    298.15  +41831.347-14.694912*T+GHSERMO+4.24519E-22*T**7;
      2896.00  Y  +3538.963+271.6697*T-42.63829*T*LN(T);
      5000.00  N !
 FUNCTION GFCCMO    298.15  +GHSERMO+15200+0.63*T;                     6000 N !
$ Mo(g)
 FUNCTION F12831T   298.15  +651326.983-41.0946081*T-21.0437*T*LN(T)
       +0.00027252545*T**2-4.77857833E-08*T**3+5594.93*T**(-1);
      1600.00  Y  +633752.125+83.3186552*T-37.98605*T*LN(T)
       +0.007623775*T**2-6.52545667E-07*T**3+3471277.5*T**(-1);
      3500.00  Y  +1134689.66-1617.69443*T+169.6658*T*LN(T)
       -0.03080567*T**2+6.87557667E-07*T**3-224033800*T**(-1);
      5000.00  Y  +1008188.16-1437.30781*T+150.7395*T*LN(T)
       -0.03086233*T**2+7.54569333E-07*T**3-106017750*T**(-1);
      6200.00  Y  -929123.768+2587.60477*T-309.2377*T*LN(T)
       +0.017761425*T**2-2.10949167E-07*T**3+1426406000*T**(-1);
     10000.00  N !
$ Mo2(g)
 FUNCTION F12904T   298.15  +892320.138+5.95304372*T-37.156*T*LN(T)
       +3.61E-05*T**2-1.10858333E-07*T**3+113615*T**(-1);
      1000.00  Y  +878307.025+162.383892*T-60.077*T*LN(T)
       +0.0165846*T**2-2.3378E-06*T**3+1706980*T**(-1);
      1800.00  Y  +1105100.83-1223.34666*T+124.219*T*LN(T)
       -0.05020415*T**2+2.21706167E-06*T**3-50788800*T**(-1);
      3100.00  Y  +641365.422+619.744903*T-105.798*T*LN(T)
       +0.00065385*T**2+1.02916667E-07*T**3+125079000*T**(-1);
      6000.00  N !
$ ------------------------------------------------------------------------------
$ O
$
$ GHSEROO modified in unary 3.0
$
 PAR  G(O2GAS,O2),,                     +2*GHSEROO+RTLNP;,,           N 91Din !
 PAR  G(LIQUID,O),,                     +GHSEROO-2648.9+31.44*T;,,    N 91Din !
 PAR  G(BCC_A2,O:VA),,                  +GHSEROO+30000;,,             N 91Din !
$PAR  G(FCC_A1,O:VA),,                  +GHSEROO+30000;,,             N 91Din !
$
 PAR  G(MOO2,O:O),,                     +3*GHSEROO+8000;,,            N 14Zha !
$
 PAR  G(GAS,O),,                        +F7397T+RTLNP;,,              N 92SUB !
 PAR  G(GAS,O2),,                       +2*GHSEROO+RTLNP;,,           N 91Din !
 PAR  G(GAS,O3),,                       +F7683T+RTLNP;,,              N 92SUB !
$
$ 1/2 O2(g)
 FUNCTION GHSEROO   298.15  -3480.87-25.503038*T-11.1355*T*LN(T)
       -0.005098875*T**2+6.61845833E-07*T**3-38365*T**(-1);
      1000.00  Y  -6568.763+12.659879*T-16.8138*T*LN(T)
       -5.957975E-04*T**2+6.781E-09*T**3+262905*T**(-1);
      3300.00  Y  -13986.728+31.259624*T-18.9536*T*LN(T)
       -4.25243E-04*T**2+1.0721E-08*T**3+4383200*T**(-1);
      6000.00  N !
$ O(g)
 FUNCTION F7397T    298.15  +243206.529-42897.0876*T**(-1)-20.7513421*T
       -21.0155542*T*LN(T)+1.26870532E-04*T**2-1.23131285E-08*T**3;
      2950.00  Y  +252301.473-3973170.33*T**(-1)-51.974853*T
       -17.2118798*T*LN(T)-5.41356254E-04*T**2+7.64520703E-09*T**3;
      6000.00  N !
$ O3(g)
 FUNCTION F7683T    298.15  +133772.042-11328.9959*T**(-1)-84.8602165*T
       -19.8314069*T*LN(T)-0.0392015696*T**2+7.90727187E-06*T**3;  
       600.00  Y  +120765.524+997137.156*T**(-1)+120.113376*T
       -51.8410152*T*LN(T)-0.00353983136*T**2+3.20640143E-07*T**3;
      1500.00  Y  +115412.196+1878139.02*T**(-1)+164.679664*T
       -58.069736*T*LN(T)-2.84399032E-04*T**2+5.95650279E-10*T**3;
      6000.00  N !
$ ------------------------------------------------------------------------------
$ Binary system
$
$ C. Zhang, M.C. Gao, Y. Yang, F. Zhang, Calphad, 45, 178-87(2014).
$
$ Checked against paper and author's tdb.
$
$ The modelling of the liquid is questionable.
$
 PAR  L(LIQUID,MO,O;0),,                -160000;,,                    N 14Zha !
$
 PAR  G(OXIDE_L,MOO2),,                 +F12857T+78000-29*T;,,        N 14Zha !
 PAR  G(OXIDE_L,MOO3),,                 +F12873T
             +48700-45.3023256*T;,,                                   N 14Zha !
 PAR  L(OXIDE_L,MOO2,MOO3;0),,          -97150+50*T;,,                N 14Zha !
$
 PAR  L(BCC_A2,MO,O:VA;0),,             -20000;,,                     N 14Zha !
$
 PAR  G(MOO2,MO:O),,                    +F12857T;,,                   N 97SUB !
 PAR  G(MOO2,O:MO),,                    +ZERO;,,                      N 14Zha !
 PAR  L(MOO2,MO,O:MO;0),,               -10000;,,                     N 14Zha !
$
 PAR  G(MO4O11,MO:O),,                  +F12859T;,,                   N 97SUB !
 PAR  G(MO8O23,MO:O),,                  +GMO8O23;,,                   N 14Zha !
 PAR  G(MO9O26,MO:O),,                  +F12865T;,,                   N 97SUB !
 PAR  G(MOO3,MO:O),,                    +F12873T;,,                   N 97SUB !
$
 PAR  G(GAS,MOO),,                      +F12851T+RTLNP;,,             N 97SUB !
 PAR  G(GAS,MOO2),,                     +F12868T+RTLNP;,,             N 97SUB !
 PAR  G(GAS,MOO3),,                     +F12881T+RTLNP;,,             N 97SUB !
 PAR  G(GAS,MO2O6),,                    +F12914T+RTLNP;,,             N 97SUB !
 PAR  G(GAS,MO3O9),,                    +F12921T+RTLNP-19000;,,       N 14Zha !
 PAR  G(GAS,MO4O12),,                   +F12927T+RTLNP;,,             N 97SUB !
 PAR  G(GAS,MO5O15),,                   +F12931T+RTLNP;,,             N 97SUB !
$
$ MoO2(s)
 FUNCTION F12857T   298.15  -617279.692+462.340685*T-74.52171*T*LN(T)
       +0.000468436*T**2-1.5889975E-06*T**3+852479*T**(-1);
      3000  N !
$ Mo4O11(s)
 FUNCTION F12859T   298.15  -737914.48+498.826364*T-83.772*T*LN(T)
       +0.00127165*T**2-3.76915E-06*T**3+661760*T**(-1);
       800.00  Y  -727049.309+357.003784*T-62.391*T*LN(T)
       -0.01753945*T**2-6.51193333E-07*T**3-380915*T**(-1);
      1500.00  N !
$ Mo8O23(s)
 FUNCTION GMO8O23   298.15  -744437+347*T-61.603*T*LN(T)
       -0.0194438*T**2-6.12506667E-07*T**3-553705*T**(-1);
      1500.00  N !
$ Mo9O26(s)
 FUNCTION F12865T   298.15  -759648.196+516.479362*T-87.136*T*LN(T)
       +0.00259145*T**2-4.30271667E-06*T**3+671715*T**(-1);
       800.00  Y  -746850.031+349.150033*T-61.903*T*LN(T)
       -0.0196438*T**2-6.12506667E-07*T**3-553705*T**(-1);
      1500.00  N !
$ MoO3(s)
 FUNCTION F12873T   298.15  -770709.73+429.565328*T-73.51818*T*LN(T)
       -0.01744741*T**2-8.33756833E-10*T**3+393450.8*T**(-1);
      1075.00  Y  -807305.95+818.499025*T-127*T*LN(T);
      3000.00  N !
$ MoO(g)
 FUNCTION F12851T   298.15  +346724.694-14.4162898*T-34.19564*T*LN(T)
       -0.0023071915*T**2+2.67388667E-07*T**3+589.6985*T**(-1);
      1300.00  Y  +344769.594+14.2189634*T-38.46843*T*LN(T)
       +0.0009023255*T**2-1.376527E-07*T**3+29712.79*T**(-1);
      3900.00  Y  +405552.207-231.021687*T-7.917452*T*LN(T)
       -0.00561629*T**2+1.15094683E-07*T**3-21023455*T**(-1);
      8600.00  Y  -32256.1765+515.633032*T-91.14493*T*LN(T)
       +0.0014422145*T**2+2.59522333E-09*T**3+413221300*T**(-1);
     10000.00  N !
$ MoO2(g)
 FUNCTION F12868T   298.15  -29214.2558-18.2585839*T-36.21138*T*LN(T)
       -0.02000383*T**2+3.52112833E-06*T**3+189514.45*T**(-1);
       700.00  Y  -38502.2711+114.501443*T-56.53743*T*LN(T)
       -0.0002916212*T**2-5.32984E-08*T**3+982861.5*T**(-1);
      3900.00  Y  -1708.96675-29.7265541*T-38.59226*T*LN(T)
       -0.004131674*T**2+9.85369833E-08*T**3-13058890*T**(-1);
      6000.00  N !
$ MoO3(g)
 FUNCTION F12881T   298.15  -385452.75+111.238018*T-55.14262*T*LN(T)
       -0.025763795*T**2+4.57728333E-06*T**3+380793.5*T**(-1);
       700.00  Y  -399048.407+295.089953*T-83.06149*T*LN(T)
       +0.00016539945*T**2-2.29327833E-08*T**3+1641495*T**(-1);
      3600.00  Y  -365295.293+210.184114*T-73.23294*T*LN(T)
       -0.000800648*T**2-2.14918833E-08*T**3-17719045*T**(-1);
      6000.00  N !
$ Mo2O6(g)
 FUNCTION F12914T   298.15  -1196515.3+475.148267*T-122.7186*T*LN(T)
       -0.0555182*T**2+9.881975E-06*T**3+905237.5*T**(-1);
       700.00  Y  -1224927.81+862.847979*T-181.6815*T*LN(T)
       -0.00025878435*T**2+9.21776833E-09*T**3+3510247*T**(-1);
      6000.00  N !
$ Mo3O9(g)
 FUNCTION F12921T   298.15  -1973406.71+821.17695*T-189.5329*T*LN(T)
       -0.08545285*T**2+1.514856E-05*T**3+1204267*T**(-1);
       700.00  Y  -2017565.22+1421.04602*T-280.6938*T*LN(T)
       -0.0004180418*T**2+1.488785E-08*T**3+5275200*T**(-1);
      6000.00  N !
$ Mo4O12(g)
 FUNCTION F12927T   298.15  -2723570.91+1223.62426*T-261.8078*T*LN(T)
       -0.1108959*T**2+1.96875E-05*T**3+1666596*T**(-1);
       700.00  Y  -2780675.44+2000.63179*T-379.9209*T*LN(T)
       -0.0005325365*T**2+1.89757833E-08*T**3+6920375*T**(-1);
      6000.00  N !
$ Mo5O15(g)
 FUNCTION F12931T   298.15  -3453009.31+1610.12421*T-331.4199*T*LN(T)
       -0.13861135*T**2+2.46066667E-05*T**3+2099000*T**(-1);
       700.00  Y  -3524391.16+2581.37543*T-479.0592*T*LN(T)
       -0.000664948*T**2+2.36668E-08*T**3+8666450*T**(-1);
      6000.00  N !
$ ------------------------------------------------------------------------------
$
$
 LIST-OF-REFERENCE
 NUMBER  SOURCE
  Null   'Unknown source'
  91Din  'A.T. Dinsdale, Calphad, 15, 317-425(1991).'
  92SUB  'SGTE Substance Database, version 1992'
  94SUB  'SGTE Substance Database, version 1994'
  97SUB  'SGTE Substance Database, version 1997'
  14Zha  'C. Zhang, M.C. Gao, Y. Yang, F. Zhang,
          Calphad, 45, 178-87(2014); Mo-O'
!
