$
$ Database for Co-Cr from N. Zhao et al. 2020.
$
$ N. Zhao, W. Liu, J.-J. Wang, X.-G. Lu, L. Zhang, Calphad, 71, 101996(2020).
$
$ Dataset created 2021.04.18 by Bengt Hallstedt.
$
$ There are no thermodynamic parameters in the paper. They are only given in a
$ supplemental tdb.
$
$ ------------------------------------------------------------------------------
 TEMP-LIM 298.15 6000.00 !
$
$ELEMENT NAME  REF. STATE               ATOMIC MASS H298-H0    S298    !
$
 ELEMENT VA   VACUUM                      0.0          0.0      0.0    ! 
 ELEMENT CO   HCP_A3                     58.9332    4765.567   30.0400 ! 
 ELEMENT CR   BCC_A2                     51.996     4050.0     23.5429 ! 
$ ------------------------------------------------------------------------------
$ Phase definitions
$
 PHASE LIQUID:L % 1 1 !
 CONST LIQUID:L : CO CR : !
$
$ Fcc (cF4, Fm-3m) and MeX (cF8, Fm-3m)
$
 PHASE FCC_A1 %A 2 1 1 !
 CONST FCC_A1 : CO% CR : VA : !
$
$ Bcc (cI2, Im-3m)
$
 PHASE BCC_A2 %B 2 1 3 !
 CONST BCC_A2 : CO CR% : VA : !
$
$ Hcp (hP2, P6_3/mmc) and Me2X (NiAs-type, hP4, P6_3/mmc, B8_1)
$
 PHASE HCP_A3 %A 2 1 0.5 !
 CONST HCP_A3 : CO% CR : VA : !
$
$ Prototype CrFe (tP30, P4_2/mnm)
$
 PHASE SIGMA_D8B %A 3 10 4 16 !
 CONST SIGMA_D8B : CO% CR : CO CR% : CO CR : !
$ ------------------------------------------------------------------------------
$ Defaults
$
 DEFINE-SYSTEM-DEFAULT ELEMENT 2 !
 DEFAULT-COM DEFINE_SYSTEM_ELEMENT VA !
 TYPE-DEF % SEQ * !
 TYPE-DEF A GES AMEND_PHASE_DESCRIPTION @ MAGNETIC -3 0.28 !
 TYPE-DEF B GES AMEND_PHASE_DESCRIPTION @ MAGNETIC -1 0.4 !
 FUNCTION ZERO      298.15  0;                                         6000 N !
 FUNCTION UN_ASS    298.15  0;                                         6000 N !
 FUNCTION R         298.15  +8.31451;                                  6000 N !
$ ------------------------------------------------------------------------------
$ Element data
$ ------------------------------------------------------------------------------
$ Co
$
 PAR  G(HCP_A3,CO:VA),,                 +GHSERCO;,,                   N 91Din !
 PAR  TC(HCP_A3,CO:VA),,                 1396.00;,,                   N 91Din !
 PAR  BM(HCP_A3,CO:VA),,                    1.35;,,                   N 91Din !
 PAR  G(FCC_A1,CO:VA),,                 +GHSERCO
             +427.591-0.615248*T;,,                                   N 91Din !
 PAR  TC(FCC_A1,CO:VA),,                 1396.00;,,                   N 91Din !
 PAR  BM(FCC_A1,CO:VA),,                    1.35;,,                   N 91Din !
 PAR  G(BCC_A2,CO:VA),,                 +GHSERCO+2938-0.7138*T;,,     N 91Din !
 PAR  TC(BCC_A2,CO:VA),,                 1450.00;,,                   N 91Din !
 PAR  BM(BCC_A2,CO:VA),,                    1.35;,,                   N 91Din !
$PAR  G(CBCC_A12,CO:VA),,               +GHSERCO+4155;,,              N 91Din !
$PAR  G(CUB_A13,CO:VA),,                +GHSERCO+3155;,,              N 91Din !
 PAR  G(LIQUID,CO),,                    +GLIQCO;,,                    N 91Din !
$
 PAR  G(SIGMA_D8B,CO:CO:CO),,           +30*GHCO+925000;,,            N 20Zha !
$
 FUNCTION GHSERCO   298.15  +310.241+133.36601*T-25.0861*T*LN(T)
       -0.002654739*T**2-1.7348E-07*T**3+72527*T**(-1);
      1768.00  Y  -17197.666+253.28374*T-40.5*T*LN(T)+9.3488E+30*T**(-9);
      6000.00  N !
 FUNCTION GLIQCO    298.15  +15085.037-8.931932*T+GHSERCO-2.19801E-21*T**7;
      1768.00  Y  -846.61+243.599944*T-40.5*T*LN(T);
      6000.00  N !
 FUNCTION GFCCCO    298.15  +GHSERCO+427.59-0.615248*T;                6000 N !
 FUNCTION GBCCCO    298.15  +GHSERCO+2938-0.7138*T;                    6000 N !
 FUNCTION GHCO      298.15  +GHSERCO-16200-2.47*T;                     6000 N !
$ ------------------------------------------------------------------------------
$ Cr
$
 PAR  G(BCC_A2,CR:VA),,                 +GHSERCR;,,                   N 91Din !
 PAR  TC(BCC_A2,CR:VA),,                 -311.50;,,                   N 91Din !
 PAR  BM(BCC_A2,CR:VA),,                   -0.008;,,                  N 91Din !
 PAR  G(FCC_A1,CR:VA),,                 +GHSERCR+7284+0.163*T;,,      N 91Din !
 PAR  TC(FCC_A1,CR:VA),,                -1109.00;,,                   N 91Din !
 PAR  BM(FCC_A1,CR:VA),,                   -2.46;,,                   N 91Din !
 PAR  G(HCP_A3,CR:VA),,                 +GHSERCR+4438;,,              N 91Din !
 PAR  TC(HCP_A3,CR:VA),,                -1109.00;,,                   N 91Din !
 PAR  BM(HCP_A3,CR:VA),,                   -2.46;,,                   N 91Din !
$PAR  G(CBCC_A12,CR:VA),,               +GHSERCR+11087+2.7196*T;,,    N 91Din !
$PAR  G(CUB_A13,CR:VA),,                +GHSERCR+15899+0.6276*T;,,    N 91Din !
 PAR  G(LIQUID,CR),,                    +GLIQCR;,,                    N 91Din !
$
 PAR  G(SIGMA_D8B,CR:CR:CR),,           +30*GHCR+362300;,,            N 20Zha !
$
 FUNCTION GHSERCR   298.15  -8856.94+157.48*T-26.908*T*LN(T)
       +0.00189435*T**2-1.47721E-06*T**3+139250*T**(-1);
      2180.00  Y  -34869.344+344.18*T-50*T*LN(T)-2.88526E+32*T**(-9);
      6000.00  N !
 FUNCTION GLIQCR    298.15  +24339.955-11.420225*T+GHSERCR+2.37615E-21*T**7;
      2180.00  Y  -16459.984+335.616316*T-50*T*LN(T);
      6000.00  N !
 FUNCTION GFCCCR    298.15  +GHSERCR+7284+0.163*T;                     6000 N !
 FUNCTION GHCR      298.15  +GHSERCR-100-2.52*T;                       6000 N !
$ ------------------------------------------------------------------------------
$ Binary system
$
$ N. Zhao, W. Liu, J.-J. Wang, X.-G. Lu, L. Zhang, Calphad, 71, 101996(2020).
$
$ Checked against paper and author's tdb. Checked at 6000 K.
$
$ There are no thermodynamic parameters in the paper. They are only given in a
$ supplemental tdb.
$
$ It seems that the sigma phase has been adjusted be optimizing the elemental
$ offsets GHCO and GHCR. In addition there are two (very small) B*T parameters
$ and several (also small) interactions. The offsets are probably a
$ compensation for the magnetic contributions to the element Gibbs energies.
$
 PAR  L(LIQUID,CO,CR;0),,               -11700-0.404*T;,,             N 20Zha !
 PAR  L(LIQUID,CO,CR;1),,               -6000+3.3*T;,,                N 20Zha !
$
 PAR  L(FCC_A1,CO,CR:VA;0),,            +1600-9.592*T;,,              N 20Zha !
 PAR  L(FCC_A1,CO,CR:VA;1),,            -3600+1*T;,,                  N 20Zha !
 PAR  TC(FCC_A1,CO,CR:VA;0),,           -8684;,,                      N 16Li !
 PAR  TC(FCC_A1,CO,CR:VA;1),,           +7463;,,                      N 16Li !
$
 PAR  L(BCC_A2,CO,CR:VA;0),,            +17500-13.7*T;,,              N 20Zha !
 PAR  L(BCC_A2,CO,CR:VA;1),,            -4700-2.2*T;,,                N 20Zha !
$
 PAR  L(HCP_A3,CO,CR:VA;0),,            -6250;,,                      N 20Zha !
 PAR  L(HCP_A3,CO,CR:VA;1),,            -2436;,,                      N 20Zha !
 PAR  TC(HCP_A3,CO,CR:VA;0),,           -7546;,,                      N 16Li !
 PAR  TC(HCP_A3,CO,CR:VA;1),,           +7422;,,                      N 16Li !
$
 PAR  G(SIGMA_D8B,CO:CO:CR),,           +14*GHCO+16*GHCR+248494;,,    N 20Zha !
 PAR  G(SIGMA_D8B,CO:CR:CO),,           +26*GHCO+4*GHCR+594867;,,     N 20Zha !
 PAR  G(SIGMA_D8B,CO:CR:CR),,           +10*GHCO+20*GHCR
             +90780+30*T;,,                                           N 20Zha !
 PAR  G(SIGMA_D8B,CR:CO:CO),,           +20*GHCO+10*GHCR
             +500565-4*T;,,                                           N 20Zha !
 PAR  G(SIGMA_D8B,CR:CO:CR),,           +4*GHCO+26*GHCR+505532;,,     N 20Zha !
 PAR  G(SIGMA_D8B,CR:CR:CO),,           +16*GHCO+14*GHCR+362287;,,    N 20Zha !
 PAR  L(SIGMA_D8B,CO,CR:CR:CR;0),,      -120000;,,                    N 20Zha !
 PAR  L(SIGMA_D8B,CO,CR:CR:CO;0),,      -180000;,,                    N 20Zha !
 PAR  L(SIGMA_D8B,CO:CR:CO,CR;0),,      -25000;,,                     N 20Zha !
 PAR  L(SIGMA_D8B,CR:CR:CO,CR;0),,      -90000;,,                     N 20Zha !
$ ------------------------------------------------------------------------------
$
 ASSESSED_SYSTEM
  CO-CR(TDB -* +LIQ +HCP_A3 +BCC_A2 +FCC_A1 +SIGMA_D8B
  ;G5 C_S:FCC/CO:VA ;P3 TMM:300/3000 STP:.1/1100) !
$
$
 LIST-OF-REFERENCE
 NUMBER  SOURCE
  Null   'Unknown source'
  Same   'Same or similar interaction as in the corresponding stable phase'
  REFLAV 'Laves phase convention: G(LAVES,X:X)=+3*GHSERXX+15000'
  91Din  'A.T. Dinsdale, Calphad, 15, 317-425(1991).'
  16Li   'Z. Li, H. Mao, P.A. Korzhavyi, M. Selleby,
          Calphad, 52, 1-7(2016); Co-Cr'
  20Zha  'N. Zhao, W. Liu, J.-J. Wang, X.-G. Lu, L. Zhang,
          Calphad, 71, 101996(2020); Co-Cr'
!
