$
$ Database for Zn-S from P.-W. Guan et al. 2017.
$
$ P.-W. Guan, S.-L. Shang, G. Lindwall, T. Anderson, Z.-K. Liu,
$ Calphad, 59, 171-81(2017).
$
$ Dataset created 2019.03.17 by Bengt Hallstedt.
$ 2021.02.07: Modified for use with GES6.
$
$ Terminal solubilities are modelled in the paper, but the corresponding
$ parameters make no sense and no relevant data or calculations are shown.
$ Terminal solubilities are not included in this dataset.
$
$ The defect modelling for ZNS_B3 seems unnecessarily complicated.
$
$ ------------------------------------------------------------------------------
 TEMP-LIM 298.15 6000.00 !
$
$ELEMENT NAME  REF. STATE               ATOMIC MASS H298-H0    S298    !
$
 ELEMENT /-   ELECTRON_GAS                0.0          0.0      0.0    ! 
 ELEMENT VA   VACUUM                      0.0          0.0      0.0    ! 
 ELEMENT S    ORTHORHOMBIC_A16           32.06      4412.0     32.07   ! 
 ELEMENT ZN   HCP_A3                     65.38      5657.0     41.63   ! 
$ ------------------------------------------------------------------------------
$ Species
$
 SPECIE  S-2                                S/-2 !
 SPECIE  S2                                 S2 !
 SPECIE  S3                                 S3 !
 SPECIE  S4                                 S4 !
 SPECIE  S5                                 S5 !
 SPECIE  S6                                 S6 !
 SPECIE  S7                                 S7 !
 SPECIE  S8                                 S8 !
 SPECIE  ZN+2                               ZN/+2 !
 SPECIE  ZNS                                ZN1S1 !
 SPECIE  ZN2S+2                             ZN2S1/+2 !
 SPECIE  VA-1                               VA/-1 !
 SPECIE  VA+1                               VA/+1 !
$ ------------------------------------------------------------------------------
$ Phase definitions
$
 PHASE LIQUID:L % 1 1 !
 CONST LIQUID:L : S ZN ZNS : !
$
$ Fcc (cF4, Fm-3m) and MeX (cF8, Fm-3m)
$
 PHASE FCC_A1 %A 2 1 1 !
 CONST FCC_A1 : ZN : VA : !
$
$ Bcc (cI2, Im-3m)
$
 PHASE BCC_A2 %B 2 1 3 !
 CONST BCC_A2 : ZN : VA : !
$
$ Hcp (hP2, P6_3/mmc) and Me2X (NiAs-type, hP4, P6_3/mmc, B8_1)
$
 PHASE HCP_A3 %A 2 1 0.5 !
 CONST HCP_A3 : ZN : VA : !
$
$ Prototype alpha-S (oF128, Fddd)
$
 PHASE ORTHORHOMBIC_A16 % 1 1 !
 CONST ORTHORHOMBIC_A16 : S : !
$
$ Prototype beta-S (mP48, P2_1/a)
$
 PHASE MONOCLINIC_S % 1 1 !
 CONST MONOCLINIC_S : S : !
$
$ Prototype ZnS 3C (cF8, F-43m), Zincblende
$
 PHASE ZNS_B3:I % 2 1 1 !
 CONST ZNS_B3:I : ZNS ZN ZN+2 S-2 ZN2S+2 : VA VA-1 VA+1 : !
$
$ Prototype ZnS 2H (hP4, P6_3mc), Wurtzite
$
 PHASE ZNS_B4 % 2 1 1 !
 CONST ZNS_B4 : ZN : S : !
$
 PHASE GAS:G % 1 1 !
 CONST GAS:G : S S2 S3 S4 S5 S6 S7 S8 ZN ZNS : !
$ ------------------------------------------------------------------------------
$ Defaults
$
 DEFINE-SYSTEM-DEFAULT ELEMENT 2 !
 DEFAULT-COM DEFINE_SYSTEM_ELEMENT VA /- !
 TYPE-DEF % SEQ * !
 TYPE-DEF A GES AMEND_PHASE_DESCRIPTION @ MAGNETIC -3 0.28 !
 TYPE-DEF B GES AMEND_PHASE_DESCRIPTION @ MAGNETIC -1 0.4 !
 FUNCTION ZERO      298.15  0;                                         6000 N !
 FUNCTION UN_ASS    298.15  0;                                         6000 N !
 FUNCTION R         298.15  +8.31451;                                  6000 N !
 FUNCTION RTLNP     298.15  +8.31451*T*LN(1E-05*P);                    6000 N !
$ ------------------------------------------------------------------------------
$ Element data
$ ------------------------------------------------------------------------------
$ S
$
$ FCC_A1 and BCC_A2 revised in unary 3.0
$ ORTHORHOMBIC_A16 and LIQUID modified in unary 4.1
$ MONOCLINIC revised in unary 4.1
$ ORTHORHOMBIC_A16 and LIQUID revised in unary 4.4
$
$ HEXAGONAL_A8 from 17Gua not included in unary
$
$ If gas is not included S becomes stable as HEXAGONAL_A8 above 1308 K.
$
 PAR  G(ORTHORHOMBIC_A16,S),,           +GHSERSS;                1300 N 01SGUN !
 PAR  G(MONOCLINIC,S),,                 +GMONSS;                 1300 N 01SGUN !
$PAR  G(FCC_A1,S:VA),,                  +GHSERSS+105000;         1300 N Sundm !
$PAR  G(FCC_A1,S:VA),,                  +GHSERSS+30000+32*T;     1300 N 91Din !
$PAR  G(BCC_A2,S:VA),,                  +GHSERSS+105000;         1300 N Sundm !
$PAR  G(BCC_A2,S:VA),,                  +GHSERSS+31000+32*T;     1300 N 91Din !
$PAR  G(HEXAGONAL_A8,S),,               +GHSERSS+3013.008-1.319*T
$            +0.4*T*LN(T)-0.00916*T**2;                          1300 N 17Gua1 !
 PAR  G(LIQUID,S),,                     +GLIQSS;                 1300 N 01SGUN !
$
 PAR  G(GAS,S),,                        +F14852T+RTLNP;,,             N 97SUB !
 PAR  G(GAS,S2),,                       +F14964T+RTLNP;,,             N 97SUB !
 PAR  G(GAS,S3),,                       +F15022T+RTLNP;,,             N 97SUB !
 PAR  G(GAS,S4),,                       +F15041T+RTLNP;,,             N 97SUB !
 PAR  G(GAS,S5),,                       +F15047T+RTLNP;,,             N 97SUB !
 PAR  G(GAS,S6),,                       +F15052T+RTLNP;,,             N 97SUB !
 PAR  G(GAS,S7),,                       +F15057T+RTLNP;,,             N 97SUB !
 PAR  G(GAS,S8),,                       +F15061T+RTLNP;,,             N 97SUB !
$
 FUNCTION GHSERSS   298.15  -5198.294+53.913855*T-10.726*T*LN(T)
       -0.0273801*T**2+8.179537E-6*T**3; 
       368.30  Y  -6475.706+94.182332*T-17.8693298*T*LN(T)
       -0.010936877*T**2+1.406467E-6*T**3+36871*T**(-1); 
      1300.00  Y  -12485.546+188.304687*T-32*T*LN(T); 
      1301.00  N !
 FUNCTION GMONSS    298.15  -5725.422+89.544275*T-17.413*T*LN(T)
       -0.00993935*T**2-0.070062E-6*T**3+1250*T**(-1); 
       388.36  Y  -7455.008+114.782945*T-21.1531404*T*LN(T)
       -0.008566163*T**2+1.112484E-6*T**3+122167*T**(-1); 
      1300.00  Y  -11779.415+186.699065*T-32*T*LN(T); 
      1301.00  N !
 FUNCTION GLIQSS    298.15  -4196.575+85.63027*T-17.413*T*LN(T)
       -0.00993935*T**2-0.070062E-6*T**3+1250*T**(-1); 
       335.00  Y  1790361.982-44195.451432*T+7511.6194258*T*LN(T)
       -13.985517511*T**2+4838.738601E-6*T**3-79880891*T**(-1); 
       388.36  Y  -876313.954+23366.872986*T-4028.756*T*LN(T)
       +7.954595*T**2-2908.513333E-6*T**3+33980035*T**(-1); 
       432.25  Y  454088.687-7814.670231*T+1237.001*T*LN(T)
       -1.5607295*T**2+359.883667E-6*T**3-31765395*T**(-1); 
       500.00  Y  18554.561-144.895285*T+16.535*T*LN(T)
       -0.0454119*T**2+8.327402E-6*T**3-2705030*T**(-1); 
       700.00  Y  21243.126-113.298877*T+9.944*T*LN(T)
       -0.0288384*T**2+3.791365E-6*T**3-3507570*T**(-1); 
       900.00  Y  16117.849-32.79523*T-2.425*T*LN(T)
       -0.01712545*T**2+1.84974E-6*T**3-3215170*T**(-1); 
      1300.00  Y  -6461.814+175.590536*T-32*T*LN(T); 
      1301.00  N !
$ S(g)
 FUNCTION F14852T   298.15  +269797.373+2.2810296*T-25.70471*T*LN(T)
       +0.003751372*T**2-5.48887167E-07*T**3+3450.3165*T**(-1);
      1000.00  Y  +273925.002-38.4958652*T-19.81748*T*LN(T)
       -2.300353E-04*T**2-1.18709967E-08*T**3-570436.5*T**(-1);
      3400.00  Y  +257401.532-.943966729*T-24.05931*T*LN(T)
       -5.98546E-07*T**2+2.02961167E-09*T**3+9368165*T**(-1);
     10000.00  N !
$ S2(g)
 FUNCTION F14964T   298.15  +117374.548+2.98629624*T-34.09678*T*LN(T)
       -0.002325464*T**2+1.85480167E-07*T**3+128593.6*T**(-1);
      1000.00  Y  +117352.438+2.50383325*T-34.04744*T*LN(T)
       -0.0021150245*T**2+9.16602333E-08*T**3+175718.45*T**(-1);
      3400.00  Y  +124361.091+14.5182901*T-36.1923*T*LN(T)
       -5.930925E-04*T**2-7.54259333E-09*T**3-7484105*T**(-1);
      6000.00  N !
$ S3(g)
 FUNCTION F15022T   298.15  +126744.315+83.8435689*T-52.94561*T*LN(T)
       -0.0043385055*T**2+6.68300333E-07*T**3+276938.3*T**(-1);
      1000.00  Y  +123958.871+118.720436*T-58.16242*T*LN(T)
       -7.29079E-06*T**2+2.42566833E-10*T**3+558805*T**(-1);
      6000.00  N !
$ S4(g)
 FUNCTION F15041T   298.15  +109847.438+203.904963*T-72.67966*T*LN(T)
       -0.009041155*T**2+1.47148883E-06*T**3+505278*T**(-1);
       900.00  Y  +104526.08+272.793563*T-83.05028*T*LN(T)
       -1.828101E-05*T**2+6.19803333E-10*T**3+1023588.5*T**(-1);
      6000.00  N !
$ S5(g)
 FUNCTION F15047T   298.15  +106276.072+170.263399*T-74.99022*T*LN(T)
       -0.035336475*T**2+5.76872833E-06*T**3+227070.6*T**(-1);
       900.00  Y  +75139.8847+544.891054*T-130.537*T*LN(T)
       +0.007879015*T**2-4.32610333E-07*T**3+3425257*T**(-1);
      2800.00  Y  +114904.753+339.945759*T-103.9801*T*LN(T)
       +2.25877E-05*T**2-7.925025E-10*T**3-7832715*T**(-1);
      6000.00  N !
$ S6(g)
 FUNCTION F15052T   298.15  +57214.7948+523.24074*T-130.1838*T*LN(T)
       -4.152356E-04*T**2-4.27131667E-07*T**3+779118.5*T**(-1);
      1600.00  Y  +8925.72335+728.509037*T-155.3363*T*LN(T)
       +0.002031178*T**2-1.776135E-08*T**3+14908280*T**(-1);
      4200.00  Y  +43158.7838+657.511854*T-147.3935*T*LN(T)
       +0.0015928905*T**2-3.34608333E-08*T**3-8046775*T**(-1);
      6000.00  N !
$ S7(g)
 FUNCTION F15057T   298.15  +59623.0027+634.182529*T-153.2939*T*LN(T)
       -0.003102847*T**2+3.66153167E-07*T**3+940068*T**(-1);
      1500.00  Y  +56671.3245+666.288106*T-157.9591*T*LN(T)
       -2.441417E-06*T**2+7.28532E-11*T**3+1284129.5*T**(-1);
      6000.00  N !
$ S8(g)
 FUNCTION F15061T   298.15  +45619.0277+695.996674*T-166.1987*T*LN(T)
       -0.0109886*T**2-1.38875683E-06*T**3+753634*T**(-1);
       800.00  Y  +22301.584+822.41812*T-181.0091*T*LN(T)
       -0.020252625*T**2+3.04543E-06*T**3+4785936*T**(-1);
      1500.00  Y  +28125.3352+992.470207*T-208.7199*T*LN(T)
       +0.006139635*T**2-2.57977667E-07*T**3-2943090*T**(-1);
      3900.00  Y  +82396.4096+766.112131*T-180.3439*T*LN(T)
       -2.580219E-04*T**2+5.17172833E-09*T**3-21845450*T**(-1);
      6000.00  N !
 FUNCTION GS2GAS    298.15  +F14964T;                                  6000 N !
$ ------------------------------------------------------------------------------
$ Zn
$
$ BCT_A5 and DIAMOND_A4 added in unary 3.0
$ HCP_A3 revised in unary 4.1 (due to introduction of HCP_ZN)
$ RHOMBOHEDRAL_A7 and TETRAGONAL_A6 added in unary 4.1
$ TETRAGONAL_A6 revised in unary 4.4
$ CBCC_A12 and CUB_A13 added in unary 4.4
$ HCP_A3 and LIQUID modified in unary 5.0 (melting T and coefficients adjusted)
$ RHOMBO_A10 added in unary 5.0
$
$ Pure Zn restored as HCP_A3
$
 PAR  G(HCP_A3,ZN:VA),,                 +GHSERZN;                1700 N 91Din !
$PAR  G(HCP_A3,ZN:VA),,                 +GHSERZN
$            +2969.82-1.56968*T;                                 1700 N 93Kow !
 PAR  G(FCC_A1,ZN:VA),,                 +GHSERZN
             +2969.82-1.56968*T;                                 1700 N 91Din !
 PAR  G(BCC_A2,ZN:VA),,                 +GHSERZN
             +2886.96-2.5104*T;                                  1700 N 91Din !
$PAR  G(DIAMOND_A4,ZN),,                +GHSERZN+30*T;           1700 N SGCOST !
$PAR  G(BCT_A5,ZN),,                    +GHSERZN
$            +2886.96-2.5104*T;                                  1700 N SGCOST !
$PAR  G(TETRAGONAL_A6,ZN),,             +GHSERZN+4184;           1700 N 96Lee !
$PAR  G(TETRAGONAL_A6,ZN),,             +GHSERZN
$            +2886.96-2.5104*T;                                  1700 N 99SGUN !
$PAR  G(RHOMBOHEDRAL_A7,ZN),,           +GHSERZN+2300+11.5*T;    1700 N 99SGUN !
$PAR  G(RHOMBO_A10,ZN),,                +GLIQZN-2000+10*T;       1700 N 98Han !
$PAR  G(CBCC_A12,ZN:VA),,               +GHSERZN+2000;           1700 N 01Mie !
$PAR  G(CUB_A13,ZN:VA),,                +GHSERZN+2000;           1700 N 01Mie !
 PAR  G(LIQUID,ZN),,                    +GLIQZN;                 1700 N 91Din !
$
 PAR  G(GAS,ZN),,                       +F15669T+RTLNP;,,             N 97SUB !
$
 FUNCTION GHSERZN   298.15  -7285.787+118.470069*T-23.701314*T*LN(T)
       -0.001712034*T**2-1.264963E-06*T**3;
       692.677 Y  -11070.546+172.345644*T-31.38*T*LN(T)+4.7047E+26*T**(-9);
      1700.00  N !
 FUNCTION GLIQZN    298.15  +7157.222-10.29305*T+GHSERZN-3.58949E-19*T**7;
       692.677 Y  -3620.385+161.60854*T-31.38*T*LN(T);
      1700.00  N !
 FUNCTION GBCCZN    298.15  +GHSERZN+2886.96-2.5104*T;                 6000 N !
$ Zn(g)
 FUNCTION F15669T   298.15  +124152.804-21.0289705*T-20.897*T*LN(T)
       +6.65E-05*T**2-5.58E-09*T**3+3335*T**(-1);
      4300.00  Y  +104038.336+64.4573277*T-31.558*T*LN(T)
       +0.00230425*T**2-8.82333333E-08*T**3+5389360*T**(-1);
      8200.00  Y  +681283.394-922.574931*T+78.50201*T*LN(T)
       -0.0070638*T**2+6.18466667E-08*T**3-5.65175E+08*T**(-1);
     10000.00  N !
$ ------------------------------------------------------------------------------
$ Binary system
$
$ P.-W. Guan, S.-L. Shang, G. Lindwall, T. Anderson, Z.-K. Liu,
$ Calphad, 59, 171-81(2017).
$
$ Checked against paper. Checked at 6000 K.
$
$ Terminal solubilities are modelled in the paper, but the corresponding
$ parameters make no sense and no relevant data or calculations are shown.
$ Terminal solubilities are not included in this dataset.
$
$ The defect modelling for ZNS_B3 seems unnecessarily complicated.
$
 PAR  G(LIQUID,ZNS),,                   +GLIQZN+GLIQSS
             -177675.505+25.082*T;,,                                  N 17Gua2 !
 PAR  L(LIQUID,S,ZNS;0),,               -2929.604;,,                  N 17Gua2 !
 PAR  L(LIQUID,S,ZNS;1),,               +58591.668;,,                 N 17Gua2 !
 PAR  L(LIQUID,ZN,ZNS;0),,              +142603.172-54.5637*T;,,      N 17Gua2 !
$
 PAR  G(ZNS_B3,ZNS:VA),,                +GZNS;,,                      N 97SUB !
 PAR  G(ZNS_B3,ZNS:VA-1),,              +GZNS+110793+113*T
             -12.472*T*LN(T);,,                                       N 17Gua2 !
 PAR  G(ZNS_B3,ZNS:VA+1),,              +GZNS+257199+86*T
             -12.472*T*LN(T);,,                                       N 17Gua2 !
 PAR  G(ZNS_B3,ZN:VA),,                 +GHSERZN+100000;,,            N 17Gua2 !
 PAR  G(ZNS_B3,ZN:VA-1),,               +GHSERZN+200000;,,            N 17Gua2 !
 PAR  G(ZNS_B3,ZN:VA+1),,               +GHSERZN+200000;,,            N 17Gua2 !
 PAR  G(ZNS_B3,ZN+2:VA),,               +GHSERZN+300000;,,            N 17Gua2 !
 PAR  G(ZNS_B3,ZN+2:VA-1),,             +GHSERZN+200000;,,            N 17Gua2 !
 PAR  G(ZNS_B3,ZN+2:VA+1),,             +GHSERZN+400000;,,            N 17Gua2 !
 PAR  G(ZNS_B3,S-2:VA),,                +GHSERSS+300000;,,            N 17Gua2 !
 PAR  G(ZNS_B3,S-2:VA-1),,              +GHSERSS+400000;,,            N 17Gua2 !
 PAR  G(ZNS_B3,S-2:VA+1),,              +GHSERSS+200000;,,            N 17Gua2 !
 PAR  G(ZNS_B3,ZN2S+2:VA),,             +GZNS+GHSERZN+300000;,,       N 17Gua2 !
 PAR  G(ZNS_B3,ZN2S+2:VA+1),,           +GZNS+GHSERZN+200000;,,       N 17Gua2 !
 PAR  G(ZNS_B3,ZN2S+2:VA-1),,           +GZNS+GHSERZN+400000;,,       N 17Gua2 !
 PAR  L(ZNS_B3,ZN,ZNS:VA;0),,           +92945-R*T*ZNS_AA;,,          N 17Gua2 !
 PAR  L(ZNS_B3,ZN+2,ZNS:VA;0),,         -30000-R*T*ZNS_BA;,,          N 17Gua2 !
 PAR  L(ZNS_B3,S-2,ZNS:VA;0),,          -271000-R*T*ZNS_CA;,,         N 17Gua2 !
 PAR  L(ZNS_B3,ZNS,ZN2S+2:VA;0),,       -20000-R*T*ZNS_DA;,,          N 17Gua2 !
$
 PAR  G(ZNS_B4,ZN:S),,                  +GZNS+224-0.1732405259*T;,,   N 97SUB !
$
 PAR  G(GAS,ZNS),,                      +F14951T;,,                   N 97SUB !
$
 FUNCTION ZNS_AA    298.15  +8.568*EXP(ZNS_AB)-1.489*EXP(ZNS_AC);      6000 N !
 FUNCTION ZNS_AB    298.15  -19.58*T**(-1);                            6000 N !
 FUNCTION ZNS_AC    298.15  -267.1*T**(-1);                            6000 N !
 FUNCTION ZNS_BA    298.15  +277.8*EXP(ZNS_BB)-279.1*EXP(ZNS_BC);      6000 N !
 FUNCTION ZNS_BB    298.15  -74.08*T**(-1);                            6000 N !
 FUNCTION ZNS_BC    298.15  -76.28*T**(-1);                            6000 N !
 FUNCTION ZNS_CA    298.15  +6.549*EXP(ZNS_CB)-2*EXP(ZNS_CC);          6000 N !
 FUNCTION ZNS_CB    298.15  -80.53*T**(-1);                            6000 N !
 FUNCTION ZNS_CC    298.15  -1091*T**(-1);                             6000 N !
 FUNCTION ZNS_DA    298.15  +237.8*EXP(ZNS_DB)-238.8*EXP(ZNS_DC);      6000 N !
 FUNCTION ZNS_DB    298.15  -77.35*T**(-1);                            6000 N !
 FUNCTION ZNS_DC    298.15  -79.45*T**(-1);                            6000 N !
$ ZnS(s)
 FUNCTION GZNS      298.15  -219149.946+271.380079*T-48.675*T*LN(T)
       -0.0028809*T**2-3.13333333E-10*T**3+205930*T**(-1);
      1293.00  Y  -219494.77+278.452447*T-49.741*T*LN(T)
       -0.0022485*T**2+1.19E-09*T**3+225495*T**(-1);
      2100.00  Y  -245630.069+418.258403*T-67*T*LN(T);
      3000.00  N !
$
$ ZnS(g)
 FUNCTION F14951T   298.15  +199869.765-136.770984*T-12.911*T*LN(T)
       -0.02719215*T**2+5.1825E-08*T**3-270815*T**(-1);
       500.00  Y  +213246.542-409.086789*T+31.5*T*LN(T)
       -0.09051545*T**2+1.65099117E-05*T**3-992710*T**(-1);
       800.00  Y  +122742.669+698.404007*T-133.453*T*LN(T)
       +0.042823*T**2-3.65318E-06*T**3+8299720*T**(-1);
      1500.00  Y  +230840.61-76.8966291*T-27.702*T*LN(T)
       -0.00351325*T**2+1.84305E-07*T**3-12569015*T**(-1);
      4400.00  Y  +117938.092+294.792026*T-72.855*T*LN(T)
       +0.004475*T**2-7.9125E-08*T**3+40234935*T**(-1);
      6000.00  N !
$ ------------------------------------------------------------------------------
$
$
 LIST-OF-REFERENCE
 NUMBER  SOURCE
  Null   'Unknown source'
  Same   'Same or similar interaction as in the corresponding stable phase'
  REFLAV 'Laves phase convention: G(LAVES,X:X)=+3*GHSERXX+15000'
  SGCOST 'COST 507 database, SGTE unary database V.3.0, 1996; Al, B, Nd, Ti, Zn'
  Sundm  'Bosse Sundman, unpublished, SGTE unary database V.3.0, 1996; S'
  91Din  'A.T. Dinsdale, Calphad, 15, 317-425(1991).'
  93Kow  'M. Kowalski, P.J. Spencer, J. Phase Equilib., 14, 432-38 (1993),
          SGTE unary database V.4.1, 1999; Zn'
  96Lee  'B.-J. Lee, Calphad, 20, 471-80(1996)
          SGTE unary database V.4.4, 2001; Zn'
  97SUB  'SGTE Substance Database, version 1997'
  98Han  'S.C. Hansen, Calphad, 22, 359-73(1998),
          SGTE unary database V.5.0, 2009; Zn'
  99SGUN 'SGTE unary database V.4.1, 1999.'
  01SGUN 'SGTE unary database V.4.4, 2001.'
  01Mie  'J. Miettinen, Calphad, 25, 43-58(2001),
          SGTE unary database V.4.4, 2001; Sn, Zn'
  17Gua1 'P.-W. Guan, S.-L. Shang, G. Lindwall, T. Anderson, Z.-K. Liu,
          J. Alloys Compd., 694, 510-21(2017); S, Se'
  17Gua2 'P.-W. Guan, S.-L. Shang, G. Lindwall, T. Anderson, Z.-K. Liu,
          Calphad, 59, 171-81(2017); Zn-S'
!
