$
$ Database for Cu-As from S. Uhland et al. 2001
$
$ S. Uhland, H. Lechtman, L. Kaufman, Calphad, 25, 109-24(2001).
$
$ Dataset created 2016.09.22 by Bengt Hallstedt.
$ 2020.12.26: Modified for use with GES6.
$
$ This dataset uses a simple RK liquid model instead of the ionic liquid
$ used in the 94Pei dataset. The compositions Cu7As and Cu7As3 are used here
$ instead of Cu8As and Cu12As5 in 94Pei.
$
$ Cu7As should be modelled as HCP_A3 and not as a compound. Only a small
$ shift of HCP_A3 would be needed to stabilise it at the correct composition.
$
$ ------------------------------------------------------------------------------
 TEMP-LIM 298.15 6000.00 !
$
$ELEMENT NAME  REF. STATE               ATOMIC MASS H298-H0    S298    !
$
 ELEMENT VA   VACUUM                      0.0          0.0      0.0    ! 
 ELEMENT AS   RHOMBOHEDRAL_A7            74.922     5117.032   35.6895 ! 
 ELEMENT CU   FCC_A1                     63.546     5004.      33.15   !
$ ------------------------------------------------------------------------------
$ Phase definitions
$
 PHASE LIQUID:L % 1 1 !
 CONST LIQUID:L : AS CU : !
$
$ Fcc (cF4, Fm-3m) and MeX (cF8, Fm-3m)
$
 PHASE FCC_A1 %A 2 1 1 !
 CONST FCC_A1 : AS CU : VA : !
$
$ Bcc (cI2, Im-3m)
$
 PHASE BCC_A2 %B 2 1 3 !
 CONST BCC_A2 : AS CU : VA : !
$
$ Hcp (hP2, P6_3/mmc) and Me2X (NiAs-type, hP4, P6_3/mmc, B8_1)
$
 PHASE HCP_A3 %A 2 1 0.5 !
 CONST HCP_A3 : AS CU : VA : !
$
$ Prototype alpha-As (hR2, R-3m)
$
 PHASE RHOMBOHEDRAL_A7 % 1 1 !
 CONST RHOMBOHEDRAL_A7 : AS : !
$
$ Prototype Mg (hP2, P6_3/mmc)
$
 PHASE CU7AS_A3 % 2 7 1 !
 CONST CU7AS_A3 : CU : AS : !
$
$ Prototype HoH3 (hP24, P-3c1), prototype Cu3As suggested in LB binary
$
 PHASE CU3AS % 2 3 1.15 !
 CONST CU3AS : CU : AS% CU : !
$
$ Prototype BiF3 (cF16, Fm-3m)
$
 PHASE CU7AS3_D03 % 2 7 3 !
 CONST CU7AS3_D03 : CU : AS : !
$ ------------------------------------------------------------------------------
$ Defaults
$
 DEFINE-SYSTEM-DEFAULT ELEMENT 2 !
 DEFAULT-COM DEFINE_SYSTEM_ELEMENT VA !
 TYPE-DEF % SEQ * !
 TYPE-DEF A GES AMEND_PHASE_DESCRIPTION @ MAGNETIC -3 0.28 !
 TYPE-DEF B GES AMEND_PHASE_DESCRIPTION @ MAGNETIC -1 0.4 !
 FUNCTION ZERO      298.15  0;                                         6000 N !
 FUNCTION UN_ASS    298.15  0;                                         6000 N !
 FUNCTION R         298.15  +8.31451;                                  6000 N !
$ ------------------------------------------------------------------------------
$ Element data
$ ------------------------------------------------------------------------------
$ As
$
$ RED_P added in unary 4.4
$
 PAR  G(RHOMBOHEDRAL_A7,AS),,           +GHSERAS;                1200 N 91Din !
 PAR  G(FCC_A1,AS:VA),,                 +GHSERAS+24874-14.74*T;  1200 N 91Din !
 PAR  G(BCC_A2,AS:VA),,                 +GHSERAS+24874-16.1*T;   1200 N 91Din !
 PAR  G(HCP_A3,AS:VA),,                 +GHSERAS+24874-14*T;     1200 N 91Din !
$PAR  G(RED_P,AS),,                     +GHSERAS+5782-3.85466*T; 1200 N 01SGUN !
 PAR  G(LIQUID,AS),,                    +GHSERAS
             +24442.9-22.424679*T;                               1200 N 91Din !
$
 FUNCTION GHSERAS   298.15  -7270.447+122.211069*T-23.3144*T*LN(T)
       -0.00271613*T**2+11600*T**(-1);
      1090.00  Y  -10454.913+163.457433*T-29.216037*T*LN(T);
      1200.00  N !
 FUNCTION GLIQAS    298.15  +GHSERAS+24442.9-22.424679*T;              6000 N !
 FUNCTION GHCPAS    298.15  +GHSERAS+24874-14*T;                       6000 N !
$ ------------------------------------------------------------------------------
$ Cu
$
 PAR  G(FCC_A1,CU:VA),,                 +GHSERCU;                3200 N 91Din !
 PAR  G(BCC_A2,CU:VA),,                 +GHSERCU+4017-1.255*T;   3200 N 91Din !
 PAR  G(HCP_A3,CU:VA),,                 +GHSERCU+600+0.2*T;      3200 N 91Din !
 PAR  G(LIQUID,CU),,                    +GLIQCU;                 3200 N 91Din !
$
 PAR  G(CU3AS,CU:CU),,                  +4.15*GHSERCU+4000+15*T;,,    N 01Uhl !
$
 FUNCTION GHSERCU   298.15  -7770.458+130.485235*T-24.112392*T*LN(T)
       -0.00265684*T**2+1.29223E-07*T**3+52478*T**(-1);
      1357.77  Y  -13542.026+183.803828*T-31.38*T*LN(T)+3.64167E+29*T**(-9);
      3200.00  N !
 FUNCTION GLIQCU    298.15  +12964.735-9.511904*T+GHSERCU-5.8489E-21*T**7;
      1357.77  Y  -46.545+173.881484*T-31.38*T*LN(T);
      3200.00  N !
 FUNCTION GLIQ2CU   298.15  +3*GLIQCU-2*GCU2OLIQ+16236-20*T;           6000 N !
 FUNCTION GCU2OLIQ  298.15  -38315+102.66*T-22.57*T*LN(T);             6000 N !
$ ------------------------------------------------------------------------------
$ Binary system
$
$ S. Uhland, H. Lechtman, L. Kaufman, Calphad, 25, 109-24(2001).
$
$ Checked against paper. Checked at 6000 K.
$
$ This dataset uses a simple RK liquid model instead of the ionic liquid
$ used in the 94Pei dataset. The compositions Cu7As and Cu7As3 are used here
$ instead of Cu8As and Cu12As5 in 94Pei.
$
$ Cu7As should be modelled as HCP_A3 and not as a compound. Only a small
$ shift of HCP_A3 would be needed to stabilise it at the correct composition.
$
 PAR  L(LIQUID,AS,CU;0),,               -22060-24*T;,,                N 01Uhl !
 PAR  L(LIQUID,AS,CU;1),,               +45000-18*T;,,                N 01Uhl !
$
 PAR  L(FCC_A1,AS,CU:VA;0),,            -25000;,,                     N 01Uhl !
 PAR  L(FCC_A1,AS,CU:VA;1),,            +42000-18*T;,,                N 01Uhl !
$
 PAR  G(CU7AS_A3,CU:AS),,               +7*GHSERCU+GHSERAS
             -33000-20*T;,,                                           N 01Uhl !
$
 PAR  G(CU3AS,CU:AS),,                  +3*GHSERCU+1.15*GHSERAS
             -27000-33*T;,,                                           N 01Uhl !
$
 PAR  G(CU7AS3_D03,CU:AS),,             +7*GHSERCU+3*GHSERAS
             -55000-90*T;,,                                           N 01Uhl !
$
$ Metastable
$
 PAR  L(BCC_A2,AS,CU:VA;0),,            -25000;,,                     N Same !
 PAR  L(BCC_A2,AS,CU:VA;1),,            +42000-18*T;,,                N Same !
$
 PAR  L(HCP_A3,AS,CU:VA;0),,            -25000;,,                     N Same !
 PAR  L(HCP_A3,AS,CU:VA;1),,            +42000-18*T;,,                N Same !
$ ------------------------------------------------------------------------------
$
 ASSESSED_SYSTEM
  AS-CU(TDB -* +LIQUID +FCC_A1 +CU7AS3_D03 +CU3AS_D06 +CU7AS_A3 +RHOMB_A7
  ;P3 TMM:300/1400) !
$
$
 LIST-OF-REFERENCE
 NUMBER  SOURCE
  Null   'Unknown source'
  Same   'Same or similar interaction as in the corresponding stable phase'
  COST   'COST 507 database'
  91Din  'A.T. Dinsdale, Calphad, 15, 317-425(1991).'
  01SGUN 'SGTE unary database V.4.4, 2001.'
  01Uhl  'S. Uhland, H. Lechtman, L. Kaufman, Calphad, 25, 109-24(2001); Cu-As'
!
