$
$ Database for Au-Rh from H. Okamoto and T.B. Massalski 1984.
$
$ H. Okamoto, T.B. Massalski, Bull. Alloy Phase Diag., 5, 384-87(1984).
$
$ Dataset created 2021.10.24 by Bengt Hallstedt.
$
$ The monotectic is at 2153 instead of 2158 and the maximum of the miscibility
$ gap is higher than in the paper.
$
$ ------------------------------------------------------------------------------
 TEMP-LIM 298.15 6000.00 !
$
$ELEMENT NAME  REF. STATE               ATOMIC MASS H298-H0    S298    !
$
 ELEMENT VA   VACUUM                      0.0          0.0      0.0    ! 
 ELEMENT AU   FCC_A1                    196.9665    6016.592   47.4884 ! 
 ELEMENT RH   FCC_A1                    102.9055    4920.384   31.5557 ! 
$ ------------------------------------------------------------------------------
$ Phase definitions
$
 PHASE LIQUID:L % 1 1 !
 CONST LIQUID:L : AU RH : !
$
$ Fcc (cF4) and MeX (cF8)
$
 PHASE FCC_A1 %A 2 1 1 !
 CONST FCC_A1 : AU RH : VA : !
$
$ Bcc (cI2, Im-3m)
$
 PHASE BCC_A2 %B 2 1 3 !
 CONST BCC_A2 : AU RH : VA : !
$
$ Hcp (hP2, P6_3/mmc) and Me2X (NiAs-type, hP4, P6_3/mmc, B8_1)
$
 PHASE HCP_A3 %A 2 1 0.5 !
 CONST HCP_A3 : AU RH : VA : !
$ ------------------------------------------------------------------------------
$ Defaults
$
 DEFINE-SYSTEM-DEFAULT ELEMENT 2 !
 DEFAULT-COM DEFINE_SYSTEM_ELEMENT VA !
 TYPE-DEF % SEQ * !
 TYPE-DEF A GES AMEND_PHASE_DESCRIPTION @ MAGNETIC -3 0.28 !
 TYPE-DEF B GES AMEND_PHASE_DESCRIPTION @ MAGNETIC -1 0.4 !
 FUNCTION ZERO      298.15  0;                                         6000 N !
 FUNCTION UN_ASS    298.15  0;                                         6000 N !
 FUNCTION R         298.15  +8.31451;                                  6000 N !
$ ------------------------------------------------------------------------------
$ Element data
$ ------------------------------------------------------------------------------
$ Au
$
$ DHCP added in unary 5.0
$
$ DHCP replaced by the value from 92Ans in SGSOL 5.0
$
$ The DHCP phase is labelled D0_24 in 03Liu and alpha-prime in 92Ans. The
$ phase is present between the fcc and hcp phases in the Au-Sn and Au-In
$ systems. The value for DHCP from 92Ans was used to model these systems,
$ thus this value must be included in the unary database and not the 04Du
$ value.
$
 PAR  G(FCC_A1,AU:VA),,                 +GHSERAU;                3200 N 91Din !
 PAR  G(HCP_A3,AU:VA),,                 +GHSERAU+240.75+1.6*T;   3200 N 91Din !
 PAR  G(BCC_A2,AU:VA),,                 +GHSERAU+4250-1.1*T;     3200 N 91Din !
$PAR  G(DHCP,AU),,                      +GHSERAU+125+0.79*T;     3200 N 92Ans !
$PAR  G(DHCP,AU),,                      +GHSERAU+5000;           3200 N 04Du !
 PAR  G(LIQUID,AU),,                    +GHSERAU
             +12552-9.385866*T;                                  3200 N 91Din !
$
 FUNCTION GHSERAU   298.15  -6938.856+106.830098*T-22.75455*T*LN(T)
       -0.00385924*T**2+3.79625E-07*T**3-25097*T**(-1);
       929.40  Y  -93586.481+1021.69543*T-155.706745*T*LN(T)
       +0.08756015*T**2-1.1518713E-05*T**3+10637210*T**(-1);
      1337.33  Y  +314067.829-2016.37825*T+263.252259*T*LN(T)
       -0.118216828*T**2+8.923844E-06*T**3-67999832*T**(-1);
      1735.80  Y  -12133.783+165.272524*T-30.9616*T*LN(T);
      3200.00  N !
$ ------------------------------------------------------------------------------
$ Rh
$
 PAR  G(FCC_A1,RH:VA),,                 +GHSERRH;                2500 N 91Din !
 PAR  G(BCC_A2,RH:VA),,                 +GHSERRH+19000-4.7*T;    2500 N 91Din !
 PAR  G(HCP_A3,RH:VA),,                 +GHSERRH+3000-0.5*T;     2500 N 91Din !
 PAR  G(LIQUID,RH),,                    +GLIQRH;                 2500 N 91Din !
$
 FUNCTION GHSERRH   298.15  -7848.828+132.020923*T-24.0178336*T*LN(T)
       -0.003424186*T**2-1.68032E-07*T**3+55846*T**(-1);
      1200.00  Y  -28367.852+305.771019*T-48.3766632*T*LN(T)
       +0.00966345*T**2-1.512774E-06*T**3+3348162*T**(-1);
      2237.00  Y  -6237470.48+30151.6342*T-3874.21058*T*LN(T)
       +1.04921361*T**2-5.3978814E-05*T**3+1.88036218E+09*T**(-1);
      2450.00  Y  -44863.489+344.889895*T-50.58456*T*LN(T);
      2500.00  N !
 FUNCTION GLIQRH    298.15  +19092.91-6.92133*T+GHSERRH;
       700.00  Y  +35898.508-147.926418*T+15.6492377*T*LN(T)
       -0.028665357*T**2+2.100572E-06*T**3-2638940*T**(-1);
      2237.00  Y  -18208.54+332.974832*T-50.58456*T*LN(T);
      2500.00  N !
$ ------------------------------------------------------------------------------
$ Binary system
$
$ H. Okamoto, T.B. Massalski, Bull. Alloy Phase Diag., 5, 384-87(1984).
$
$ Checked against paper. Checked at 6000 K.
$
$ The monotectic is at 2153 instead of 2158 and the maximum of the miscibility
$ gap is higher than in the paper.
$
 PAR  L(LIQUID,AU,RH;0),,               +45220.5;,,                   N 84Oka !
 PAR  L(LIQUID,AU,RH;1),,               -4653.5;,,                    N 84Oka !
$
 PAR  L(FCC_A1,AU,RH:VA;0),,            +55750;,,                     N 84Oka !
 PAR  L(FCC_A1,AU,RH:VA;1),,            -8750;,,                      N 84Oka !
$
$ Metastable
$
 PAR  L(BCC_A2,AU,RH:VA;0),,            +55750;,,                     N Same !
 PAR  L(BCC_A2,AU,RH:VA;1),,            -8750;,,                      N Same !
$
 PAR  L(HCP_A3,AU,RH:VA;0),,            +55750;,,                     N Same !
 PAR  L(HCP_A3,AU,RH:VA;1),,            -8750;,,                      N Same !
$ ------------------------------------------------------------------------------
$
 ASSESSED_SYSTEM
  AU-RH(TDB -* +LIQ +FCC_A1 ;G5 C_S:LIQ/AU MAJ:LIQ/RH
  C_S:FCC/AU:VA MAJ:FCC/RH:VA ;P3 TMM:300/2500 STP:.4/1500) !
$
$
 LIST-OF-REFERENCE
 NUMBER  SOURCE
  Null   'Unknown source'
  Same   'Same or similar interaction as in the corresponding stable phase'
  COST   'COST 507 database'
  84Oka  'H. Okamoto, T.B. Massalski,
          Bull. Alloy Phase Diag., 5, 384-87(1984); Au-Rh'
  91Din  'A.T. Dinsdale, Calphad, 15, 317-425(1991).'
  92Ans  'I. Ansara, J.-Ph. Nabot, Calphad, 16, 13-18(1992); Au'
  04Du   'Z. Du, C. Guo, D. Lu, J. Alloys Compd., 364, 117-20(2004),
          SGTE unary database V.5.0, 2009; Au'
!
