$
$ Database for Pu-Zn from X.J. Liu et al. 2014.
$
$ X.J. Liu, Q. He, D. Wang, Y. Lu, M.H. Chen, J.P. Jia, C.P. Wang,
$ J. Nucl. Mater., 453, 169-75(2014).
$
$ Dataset created 2023.01.29 by Bengt Hallstedt.
$
$ The peritectic with PuZn9-ht (kappa) is 4 K too low. Everything else is
$ spot on.
$
$ PuZn2 is also stable between 2574 K and 4296 K. Pu13Zn58 is also stable
$ above 4269 K.
$
$ ------------------------------------------------------------------------------
 TEMP-LIM 298.15 6000.00 !
$
$ELEMENT NAME  REF. STATE               ATOMIC MASS H298-H0    S298    !
$
 ELEMENT VA   VACUUM                      0.0          0.0      0.0    ! 
 ELEMENT PU   ALPHA_PU                  244.        6902.0     54.4610 ! 
 ELEMENT ZN   HCP_A3                     65.38      5657.0     41.63   ! 
$ ------------------------------------------------------------------------------
$ Phase definitions
$
 PHASE LIQUID:L % 1 1 !
 CONST LIQUID:L : PU ZN : !
$
$ Fcc (cF4, Fm-3m) and MeX (cF8, Fm-3m)
$
 PHASE FCC_A1 %A 2 1 1 !
 CONST FCC_A1 : PU% ZN : VA : !
$
$ Bcc (cI2, Im-3m)
$
 PHASE BCC_A2 %B 2 1 3 !
 CONST BCC_A2 : PU% ZN : VA : !
$
$ Hcp (hP2, P6_3/mmc) and Me2X (NiAs-type, hP4, P6_3/mmc, B8_1)
$
 PHASE HCP_A3 %A 2 1 0.5 !
 CONST HCP_A3 : PU ZN% : VA : !
$
$ Prototype In (tI2, I4/mmm), delta-prime
$
 PHASE TETRAGONAL_A6 % 1 1 !
 CONST TETRAGONAL_A6 : PU% ZN : !
$
$ Prototype alpha-Pu (mP16, P2_1/m)
$
 PHASE ALPHA_PU % 1 1 !
 CONST ALPHA_PU : PU : !
$
$ Prototype beta-Pu (mC34, C2/m)
$
 PHASE BETA_PU % 1 1 !
 CONST BETA_PU : PU : !
$
$ Prototype gamma-Pu (oF8, Fddd)
$
 PHASE GAMMA_PU % 1 1 !
 CONST GAMMA_PU : PU : !
$
$ Prototype Cu2Mg (cF24, Fd-3m)
$
 PHASE PUZN2_C15 % 2 1 2 !
 CONST PUZN2_C15 : PU : ZN : !
$
$ Prototype Gd13Zn58 (hP142, P6_3/mmc), also Pu2Zn9
$
 PHASE PU13ZN58 % 2 13 58 !
 CONST PU13ZN58 : PU : PU ZN% : !
$
$ Prototype Ce3Zn22 (tI100, I4_1/amd)
$
 PHASE PU3ZN22 % 2 3 22 !
 CONST PU3ZN22 : PU : ZN : !
$
$ Prototype Th2Zn17 (hR19, R-3m)
$
 PHASE PU2ZN17 % 2 2 17 !
 CONST PU2ZN17 : PU : ZN : !
$
$ unknown structure, kappa-prime
$
 PHASE PUZN9_LT % 2 1 9 !
 CONST PUZN9_LT : PU : ZN : !
$
$ unknown structure, kappa
$
 PHASE PUZN9_HT % 2 1 9 !
 CONST PUZN9_HT : PU : ZN : !
$
$ unknown structure
$
 PHASE PUZN9_LAMBDA % 2 0.095 0.905 !
 CONST PUZN9_LAMBDA : PU : ZN : !
$ ------------------------------------------------------------------------------
$ Defaults
$
 DEFINE-SYSTEM-DEFAULT ELEMENT 2 !
 DEFAULT-COM DEFINE_SYSTEM_ELEMENT VA !
 TYPE-DEF % SEQ * !
 TYPE-DEF A GES AMEND_PHASE_DESCRIPTION @ MAGNETIC -3 0.28 !
 TYPE-DEF B GES AMEND_PHASE_DESCRIPTION @ MAGNETIC -1 0.4 !
 FUNCTION ZERO      298.15  0;                                         6000 N !
 FUNCTION UN_ASS    298.15  0;                                         6000 N !
 FUNCTION R         298.15  +8.31451;                                  6000 N !
$ ------------------------------------------------------------------------------
$ Element data
$ ------------------------------------------------------------------------------
$ Pu
$
$ HCP_A3, ORTHORHOMBIC_A20 and TETRAGONAL_U from 99Kur and 10Kur1
$ not included in unary
$ DHCP, ORTHO_AC and TETRAG_AD from 10Kur2 not included in unary
$ HCP_A3 and DHCP from 11Tur not included in unary
$
 PAR  G(ALPHA_PU,PU),,                  +GHSERPU;                3000 N 91Din !
 PAR  G(BCC_A2,PU:VA),,                 +GBCCPU;                 3000 N 91Din !
 PAR  G(BETA_PU,PU),,                   +GBETPU;                 3000 N 91Din !
 PAR  G(FCC_A1,PU:VA),,                 +GFCCPU;                 3000 N 91Din !
 PAR  G(GAMMA_PU,PU),,                  +GGAMPU;                 3000 N 91Din !
 PAR  G(TETRAGONAL_A6,PU),,             +GTETPU;                 3000 N 91Din !
$PAR  G(HCP_A3,PU:VA),,                 +GBCCPU+5000;            3000 N 99Kur !
$PAR  G(HCP_A3,PU:VA),,                 +GFCCPU+5000;            3000 N 10Kur1 !
 PAR  G(HCP_A3,PU:VA),,                 +GFCCPU+2945;            3000 N 11Tur !
$PAR  G(DHCP,PU),,                      +GFCCPU+5000;            3000 N 10Kur2 !
$PAR  G(DHCP,PU),,                      +GFCCPU+1680;            3000 N 11Tur !
$PAR  G(ORTHO_AC,PU),,                  +GHSERPU+1248.6;         3000 N 10Kur2 !
$PAR  G(TETRAG_AD,PU),,                 +GTETPU+575.1;           3000 N 10Kur2 !
$PAR  G(ORTHORHOMBIC_A20,PU),,          +GHSERPU+2026;           3000 N 99Kur !
$PAR  G(ORTHORHOMBIC_A20,PU),,          +GBETPU+652.7;           3000 N 10Kur1 !
$PAR  G(TETRAGONAL_U,PU),,              +GFCCPU+227.5;           3000 N 99Kur !
$PAR  G(TETRAGONAL_U,PU),,              +GTETPU+209.6;           3000 N 10Kur1 !
 PAR  G(LIQUID,PU),,                    +GHSERPU
             +6608.1-12.5133*T;                                  3000 N 91Din !
$
 PAR  G(PU13ZN58,PU:PU),,               +71*GHSERPU+1455500;,,        N 14Liu !
$
 FUNCTION GHSERPU   298.15  -7396.309+80.301382*T-18.1258*T*LN(T)
       -0.02241*T**2;
       400.00  Y  -16605.962+236.786603*T-42.4187*T*LN(T)
       -0.00134493*T**2+2.63443E-07*T**3+579325*T**(-1);
       944.00  Y  -14462.156+232.961553*T-42.248*T*LN(T);
      3000.00  N !
 FUNCTION GBCCPU    298.15  -1358.984+116.603882*T-27.094*T*LN(T)
       -0.009105*T**2+2.061667E-06*T**3+20863*T**(-1);
       745.00  Y  -2890.817+156.878957*T-33.72*T*LN(T);
       956.00  Y  +29313.619-132.788248*T+6.921*T*LN(T)
       -0.02023305*T**2+1.426922E-06*T**3-4469245*T**(-1);
      2071.00  Y  -938.429-5.539698*T+GHSERPU;
      3000.00  N !
 FUNCTION GBETPU    298.15  -4873.654+123.249151*T-27.416*T*LN(T)
       -0.00653*T**2;
       679.50  Y  +2435.094+43.566585*T-15.7351*T*LN(T)
       -0.0154772*T**2+1.524942E-06*T**3-864940*T**(-1);
      1464.00  Y  +503.094-4.739938*T+GHSERPU;
      3000.00  N !
 FUNCTION GFCCPU    298.15  -3920.781+127.586536*T-28.4781*T*LN(T)
       -0.0054035*T**2;
       990.00  Y  +3528.208+41.52572*T-15.7351*T*LN(T)
       -0.0154772*T**2+1.524942E-06*T**3-864940*T**(-1);
      1464.00  Y  +1596.208-6.780803*T+GHSERPU;
      3000.00  N !
 FUNCTION GGAMPU    298.15  -16766.303+419.402655*T-77.5802*T*LN(T)
       +0.0816415*T**2-2.8103833E-05*T**3+574825*T**(-1);
       487.90  Y  -2942.77+88.325069*T-22.0233*T*LN(T)-0.0114795*T**2;
       593.90  Y  -9336.967+160.314641*T-32.3405*T*LN(T)
       -0.0070383*T**2+6.92887E-07*T**3+630600*T**(-1);
      1179.00  Y  +2026.406-6.829936*T+GHSERPU;
      3000.00  N !
 FUNCTION GTETPU    298.15  -496.178+54.586547*T-16.43*T*LN(T)
       -0.024006*T**2+5.166667E-06*T**3-158470*T**(-1);
       736.00  Y  -6122.307+173.35008*T-35.56*T*LN(T);
       757.00  Y  +3982.078+63.890352*T-19.756*T*LN(T)
       -0.00937295*T**2+6.59882E-07*T**3-1112565*T**(-1);
      2157.00  Y  -738.383-4.905143*T+GHSERPU;
      3000.00  N !
$ ------------------------------------------------------------------------------
$ Zn
$
$ BCT_A5 and DIAMOND_A4 added in unary 3.0
$ HCP_A3 revised in unary 4.1 (due to introduction of HCP_ZN)
$ RHOMBOHEDRAL_A7 and TETRAGONAL_A6 added in unary 4.1
$ TETRAGONAL_A6 revised in unary 4.4
$ CBCC_A12 and CUB_A13 added in unary 4.4
$ HCP_A3 and LIQUID modified in unary 5.0 (melting T and coefficients adjusted)
$ RHOMBO_A10 added in unary 5.0
$
$ Pure Zn restored as HCP_A3
$
 PAR  G(HCP_A3,ZN:VA),,                 +GHSERZN;                1700 N 91Din !
$PAR  G(HCP_A3,ZN:VA),,                 +GHSERZN
$            +2969.82-1.56968*T;                                 1700 N 93Kow !
 PAR  G(FCC_A1,ZN:VA),,                 +GHSERZN
             +2969.82-1.56968*T;                                 1700 N 91Din !
 PAR  G(BCC_A2,ZN:VA),,                 +GHSERZN
             +2886.96-2.5104*T;                                  1700 N 91Din !
$PAR  G(DIAMOND_A4,ZN),,                +GHSERZN+30*T;           1700 N SGCOST !
$PAR  G(BCT_A5,ZN),,                    +GHSERZN
$            +2886.96-2.5104*T;                                  1700 N SGCOST !
$PAR  G(TETRAGONAL_A6,ZN),,             +GHSERZN+4184;           1700 N 96Lee !
 PAR  G(TETRAGONAL_A6,ZN),,             +GHSERZN
             +2886.96-2.5104*T;                                  1700 N 99SGUN !
$PAR  G(RHOMBOHEDRAL_A7,ZN),,           +GHSERZN+2300+11.5*T;    1700 N 99SGUN !
$PAR  G(RHOMBO_A10,ZN),,                +GLIQZN-2000+10*T;       1700 N 98Han !
$PAR  G(CBCC_A12,ZN:VA),,               +GHSERZN+2000;           1700 N 01Mie !
$PAR  G(CUB_A13,ZN:VA),,                +GHSERZN+2000;           1700 N 01Mie !
 PAR  G(LIQUID,ZN),,                    +GLIQZN;                 1700 N 91Din !
$
 FUNCTION GHSERZN   298.15  -7285.787+118.470069*T-23.701314*T*LN(T)
       -0.001712034*T**2-1.264963E-06*T**3;
       692.677 Y  -11070.546+172.345644*T-31.38*T*LN(T)+4.7047E+26*T**(-9);
      1700.00  N !
 FUNCTION GLIQZN    298.15  +7157.222-10.29305*T+GHSERZN-3.58949E-19*T**7;
       692.677 Y  -3620.385+161.60854*T-31.38*T*LN(T);
      1700.00  N !
 FUNCTION GBCCZN    298.15  +GHSERZN+2886.96-2.5104*T;                 6000 N !
$ ------------------------------------------------------------------------------
$ Binary system
$
$ X.J. Liu, Q. He, D. Wang, Y. Lu, M.H. Chen, J.P. Jia, C.P. Wang,
$ J. Nucl. Mater., 453, 169-75(2014).
$
$ Checked against paper. Checked at 6000 K.
$
$ The peritectic with PuZn9-ht (kappa) is 4 K too low. Everything else is
$ spot on.
$
$ PuZn2 is also stable between 2574 K and 4296 K. Pu13Zn58 is also stable
$ above 4269 K.
$
 PAR  L(LIQUID,PU,ZN;0),,               -34900+17.6*T;,,              N 14Liu !
 PAR  L(LIQUID,PU,ZN;1),,               +37600;,,                     N 14Liu !
 PAR  L(LIQUID,PU,ZN;2),,               -31600+4.8*T;,,               N 14Liu !
 PAR  L(LIQUID,PU,ZN;3),,               +19300-2*T;,,                 N 14Liu !
$
 PAR  L(FCC_A1,PU,ZN:VA;0),,            -25400+25.9*T;,,              N 14Liu !
 PAR  L(BCC_A2,PU,ZN:VA;0),,            -18000+18.07*T;,,             N 14Liu !
 PAR  L(TETRAGONAL_A6,PU,ZN;0),,        -4500;,,                      N 14Liu !
$
 PAR  G(PUZN2_C15,PU:ZN),,              +GHSERPU+2*GHSERZN
             +3*GPUZN2;,,                                             N 14Liu !
$
 PAR  G(PU13ZN58,PU:ZN),,               +13*GHSERPU+58*GHSERZN
             +71*GP13Z58;,,                                           N 14Liu !
 PAR  L(PU13ZN58,PU:PU,ZN;0),,          +284000-426*T;,,              N 14Liu !
$
 PAR  G(PU3ZN22,PU:ZN),,                +3*GHSERPU+22*GHSERZN
             -644875+204.25*T;,,                                      N 14Liu !
 PAR  G(PU2ZN17,PU:ZN),,                +2*GHSERPU+17*GHSERZN
             -494855+166.44*T;,,                                      N 14Liu !
 PAR  G(PUZN9_LT,PU:ZN),,               +GHSERPU+9*GHSERZN
             -251410+84.79*T;,,                                       N 14Liu !
 PAR  G(PUZN9_HT,PU:ZN),,               +GHSERPU+9*GHSERZN
             -250440+83.86*T;,,                                       N 14Liu !
 PAR  G(PUZN9_LAMBDA,PU:ZN),,           +0.095*GHSERPU+0.905*GHSERZN
             -24007+8.024*T;,,                                        N 14Liu !
$
 FUNCTION GPUZN2    298.15  -21790+21.86*T-1.46*T*LN(T)
       -0.0094*T**2+1.21E-06*T**3;
      6000.00  N !
 FUNCTION GP13Z58   298.15  -26287+18.313*T-0.65*T*LN(T)
       -0.006*T**2+3.5E-07*T**3;
      6000.00  N !
$ ------------------------------------------------------------------------------
$
$
 LIST-OF-REFERENCE
 NUMBER  SOURCE
  Null   'Unknown source'
  COST   'COST 507 database'
  SGCOST 'COST 507 database, SGTE unary database V.3.0, 1996; Al, B, Nd, Ti, Zn'
  91Din  'A.T. Dinsdale, Calphad, 15, 317-425(1991).'
  93Kow  'M. Kowalski, P.J. Spencer, J. Phase Equilib., 14, 432-38 (1993),
          SGTE unary database V.4.1, 1999; Zn'
  96Lee  'B.-J. Lee, Calphad, 20, 471-80(1996)
          SGTE unary database V.4.4, 2001; Zn'
  98Han  'S.C. Hansen, Calphad, 22, 359-73(1998),
          SGTE unary database V.5.0, 2009; Zn'
  99Kur  'M. Kurata, Calphad, 23, 305-37(1999); Pu, U'
  99SGUN 'SGTE unary database V.4.1, 1999.'
  01Mie  'J. Miettinen, Calphad, 25, 43-58(2001),
          SGTE unary database V.4.4, 2001; Sn, Zn'
  10Kur1 'M. Kurata, IOP Conf. Ser.: Mater. Sci. Eng., 9, 012022(2010); Pu, U'
  10Kur2 'M. Kurata, IOP Conf. Ser.: Mater. Sci. Eng., 9, 012023(2010); Pu'
  11Tur  'P.E.A. Turchi, A.I. Landa, P.A. Soderlind,
          J. Nucl. Mater., 418, 165-73(2011); Am, Pu'
  14Liu  'X.J. Liu, Q. He, D. Wang, Y. Lu, M.H. Chen, J.P. Jia, C.P. Wang,
          J. Nucl. Mater., 453, 169-75(2014); Pu-Zn'
!
