$
$ Database for Co-V from S. Huang et al. 2004
$
$ S. Huang, L. Li, O. Van der Biest, J. Vleugels,
$ J. Alloys Compd., 385, 114-18(2004).
$
$ Dataset created 2016.10.17 by Bengt Hallstedt.
$ 2020.07.25: Modified for use with GES6.
$
$ There is an inverse miscibility gap with a minimum at 5386 K and x(V)=0.50.
$
$ Fcc is also stable between Co3V and sigma below 270 K.
$
$ ------------------------------------------------------------------------------
 TEMP-LIM 298.15 6000.00 !
$
$ELEMENT NAME  REF. STATE               ATOMIC MASS H298-H0    S298    !
$
 ELEMENT VA   VACUUM                      0.0          0.0      0.0    ! 
 ELEMENT CO   HCP_A3                     58.9332    4765.567   30.0400 ! 
 ELEMENT V    BCC_A2                     50.9415    4507.0     30.89   ! 
$ ------------------------------------------------------------------------------
$ Phase definitions
$
 PHASE LIQUID:L % 1 1 !
 CONST LIQUID:L : CO V : !
$
$ Fcc (cF4, Fm-3m) and MeX (cF8, Fm-3m)
$
 PHASE FCC_A1 %A 2 1 1 !
 CONST FCC_A1 : CO% V : VA : !
$
$ Bcc (cI2, Im-3m)
$
 PHASE BCC_A2 %B 2 1 3 !
 CONST BCC_A2 : CO V% : VA : !
$
$ Hcp (hP2, P6_3/mmc) and Me2X (NiAs-type, hP4, P6_3/mmc, B8_1)
$
 PHASE HCP_A3 %A 2 1 0.5 !
 CONST HCP_A3 : CO% V : VA : !
$
$ Prototype Al3Pu (hP24, P6_3/mmc)
$
 PHASE CO3V % 2 3 1 !
 CONST CO3V : CO : V : !
$
$ Prototype CrFe (tP30, P4_2/mnm)
$
 PHASE SIGMA_OLD % 3 8 4 18 !
 CONST SIGMA_OLD : CO : V : CO V : !
$
$ Prototype Cr3Si (cP8, Pm-3n)
$
 PHASE COV3_A15 % 2 1 3 !
 CONST COV3_A15 : CO : V : !
$ ------------------------------------------------------------------------------
$ Defaults
$
 DEFINE-SYSTEM-DEFAULT ELEMENT 2 !
 DEFAULT-COM DEFINE_SYSTEM_ELEMENT VA !
 TYPE-DEF % SEQ * !
 TYPE-DEF A GES AMEND_PHASE_DESCRIPTION @ MAGNETIC -3 0.28 !
 TYPE-DEF B GES AMEND_PHASE_DESCRIPTION @ MAGNETIC -1 0.4 !
 FUNCTION ZERO      298.15  0;                                         6000 N !
 FUNCTION UN_ASS    298.15  0;                                         6000 N !
 FUNCTION R         298.15  +8.31451;                                  6000 N !
$ ------------------------------------------------------------------------------
$ Element data
$ ------------------------------------------------------------------------------
$ Co
$
 PAR  G(HCP_A3,CO:VA),,                 +GHSERCO;,,                   N 91Din !
 PAR  TC(HCP_A3,CO:VA),,                 1396.00;,,                   N 91Din !
 PAR  BM(HCP_A3,CO:VA),,                    1.35;,,                   N 91Din !
 PAR  G(FCC_A1,CO:VA),,                 +GHSERCO
             +427.591-0.615248*T;,,                                   N 91Din !
 PAR  TC(FCC_A1,CO:VA),,                 1396.00;,,                   N 91Din !
 PAR  BM(FCC_A1,CO:VA),,                    1.35;,,                   N 91Din !
 PAR  G(BCC_A2,CO:VA),,                 +GHSERCO+2938-0.7138*T;,,     N 91Din !
 PAR  TC(BCC_A2,CO:VA),,                 1450.00;,,                   N 91Din !
 PAR  BM(BCC_A2,CO:VA),,                    1.35;,,                   N 91Din !
$PAR  G(CBCC_A12,CO:VA),,               +GHSERCO+4155;,,              N 91Din !
$PAR  G(CUB_A13,CO:VA),,                +GHSERCO+3155;,,              N 91Din !
 PAR  G(LIQUID,CO),,                    +GLIQCO;,,                    N 91Din !
$
 FUNCTION GHSERCO   298.15  +310.241+133.36601*T-25.0861*T*LN(T)
       -0.002654739*T**2-1.7348E-07*T**3+72527*T**(-1);
      1768.00  Y  -17197.666+253.28374*T-40.5*T*LN(T)+9.3488E+30*T**(-9);
      6000.00  N !
 FUNCTION GLIQCO    298.15  +15085.037-8.931932*T+GHSERCO-2.19801E-21*T**7;
      1768.00  Y  -846.61+243.599944*T-40.5*T*LN(T);
      6000.00  N !
 FUNCTION GFCCCO    298.15  +GHSERCO+427.59-0.615248*T;                6000 N !
 FUNCTION GBCCCO    298.15  +GHSERCO+2938-0.7138*T;                    6000 N !
$ ------------------------------------------------------------------------------
$ V
$
 PAR  G(BCC_A2,V:VA),,                  +GHSERVV;                4000 N 91Din !
 PAR  G(FCC_A1,V:VA),,                  +GHSERVV+7500+1.7*T;     4000 N 91Din !
 PAR  G(HCP_A3,V:VA),,                  +GHSERVV+4000+2.4*T;     4000 N 91Din !
$PAR  G(CBCC_A12,V:VA),,                +GHSERVV+9000;           4000 N 91Din !
$PAR  G(CUB_A13,V:VA),,                 +GHSERVV+10000;          4000 N 91Din !
 PAR  G(LIQUID,V),,                     +GLIQVV;                 4000 N 91Din !
$
 FUNCTION GHSERVV   298.15  -7930.43+133.346053*T-24.134*T*LN(T)
       -0.003098*T**2+1.2175E-07*T**3+69460*T**(-1);
       790.00  Y  -7967.842+143.291093*T-25.9*T*LN(T)
       +6.25E-05*T**2-6.8E-07*T**3;
      2183.00  Y  -41689.864+321.140783*T-47.43*T*LN(T)+6.44389E+31*T**(-9);
      4000.00  N !
 FUNCTION GLIQVV    298.15  +20764.117-9.455552*T+GHSERVV-5.19136E-22*T**7;
      2183.00  Y  -19617.51+311.055983*T-47.43*T*LN(T);
      4000.00  N !
 FUNCTION GFCCVV    298.15  +GHSERVV+7500+1.7*T;                       4000 N !
$ ------------------------------------------------------------------------------
$ Binary system
$
$ S. Huang, L. Li, O. Van der Biest, J. Vleugels,
$ J. Alloys Compd., 385, 114-18(2004).
$
$ Checked against paper. Checked at 6000 K.
$
$ There is an inverse miscibility gap with a minimum at 5386 K and x(V)=0.50.
$
$ Fcc is also stable between Co3V and sigma below 270 K.
$
 PAR  L(LIQUID,CO,V;0),,                -69768.831+29.582*T;,,        N 04Hua !
$
 PAR  L(FCC_A1,CO,V:VA;0),,             -57151.224+21.699*T;,,        N 04Hua !
 PAR  L(FCC_A1,CO,V:VA;1),,             -4581.3012;,,                 N 04Hua !
$
 PAR  L(BCC_A2,CO,V:VA;0),,             -35366.216+17.435*T;,,        N 04Hua !
 PAR  L(HCP_A3,CO,V:VA;0),,             +UN_ASS;,,                    N !
$
 PAR  G(CO3V,CO:V),,                    +3*GHSERCO+GHSERVV
             -58957.034+14.368*T;,,                                   N 04Hua !
$
 PAR  G(SIGMA_OLD,CO:V:CO),,            +8*GFCCCO+4*GHSERVV+18*GBCCCO
             -398317.14+169.8*T;,,                                    N 04Hua !
 PAR  G(SIGMA_OLD,CO:V:V),,             +8*GFCCCO+22*GHSERVV
             -260096.1+14.598*T;,,                                    N 04Hua !
 PAR  L(SIGMA_OLD,CO:V:CO,V;0),,        -368781.96+246.3798*T;,,      N 04Hua !
$
 PAR  G(COV3_A15,CO:V),,                +GHSERCO+3*GHSERVV
             -33074.458;,,                                            N 04Hua !
$ ------------------------------------------------------------------------------
$
$
 LIST-OF-REFERENCE
 NUMBER  SOURCE
  Null   'Unknown source'
  Same   'Same or similar interaction as in the corresponding stable phase'
  REFLAV 'Laves phase convention: G(LAVES,X:X)=+3*GHSERXX+15000'
  91Din  'A.T. Dinsdale, Calphad, 15, 317-425(1991).'
  04Hua  'S. Huang, L. Li, O. Van der Biest, J. Vleugels,
          J. Alloys Compd., 385, 114-18(2004); Co-V'
!
