$
$ Database for Zr-N from S. Sridar et al. 2017.
$
$ S. Sridar, R. Kumar, K.C. Hari Kumar, Calphad, 56, 102-107(2017).
$
$ Dataset created 2024.08.20 by Bengt Hallstedt.
$
$ The GZRNBASE function probably from SGSUB. The upper T-interval does not
$ match the lower ones very well.
$
$ G(BCC_A2,ZR:N) misprinted (by a small amount) in the paper.
$
$ ------------------------------------------------------------------------------
 TEMP-LIM 298.15 6000.00 !
$
$ELEMENT NAME  REF. STATE               ATOMIC MASS H298-H0    S298    !
$
 ELEMENT VA   VACUUM                      0.0          0.0      0.0    ! 
 ELEMENT N    1/2_MOLE_N2(G)             14.007     4335.0     95.751  ! 
 ELEMENT ZR   HCP_A3                     91.22      5566.27    39.1809 ! 
$ ------------------------------------------------------------------------------
$ Species
$
 SPECIE  N2                                 N2 !
 SPECIE  N3                                 N3 !
 SPECIE  ZR2                                ZR2 !
 SPECIE  ZRN                                ZR1N1 !
$ ------------------------------------------------------------------------------
$ Phase definitions
$
 PHASE LIQUID:L % 1 1 !
 CONST LIQUID:L : ZR N : !
$
$ Fcc (cF4, Fm-3m) and MeX (cF8, Fm-3m)
$
 PHASE FCC_A1 %A 2 1 1 !
 CONST FCC_A1 : ZR : VA N% : !
$
$ Bcc (cI2, Im-3m)
$
 PHASE BCC_A2 %B 2 1 3 !
 CONST BCC_A2 : ZR : VA% N : !
$
$ Hcp (hP2, P6_3/mmc) and Me2X (NiAs-type, hP4, P6_3/mmc, B8_1)
$
 PHASE HCP_A3 %A 2 1 0.5 !
 CONST HCP_A3 : ZR : VA% N : !
$
 PHASE N2GAS % 1 1 !
 CONST N2GAS : N2 : !
$
 PHASE GAS:G % 1 1 !
 CONST GAS:G : N N2 N3 ZR ZR2 ZRN : !
$ ------------------------------------------------------------------------------
$ Defaults
$
 DEFINE-SYSTEM-DEFAULT ELEMENT 2 !
 DEFAULT-COM DEFINE_SYSTEM_ELEMENT VA !
 TYPE-DEF % SEQ * !
 TYPE-DEF A GES AMEND_PHASE_DESCRIPTION @ MAGNETIC -3 0.28 !
 TYPE-DEF B GES AMEND_PHASE_DESCRIPTION @ MAGNETIC -1 0.4 !
 FUNCTION ZERO      298.15  0;                                         6000 N !
 FUNCTION UN_ASS    298.15  0;                                         6000 N !
 FUNCTION R         298.15  +8.31451;                                  6000 N !
 FUNCTION RTLNP     298.15  +8.31451*T*LN(1E-05*P);                    6000 N !
$ ------------------------------------------------------------------------------
$ Element data
$ ------------------------------------------------------------------------------
$ N
$
$ There is a small change in G(GAS,N) from SGSUB 1992 to 1994
$ G(GAS,N2) has a competely different expression in SGSUB 1994 and 1997
$ compared to the unary database.
$ G(GAS,N3) is considerably changed from SGSUB 1992 to 1994.
$
 PAR  G(N2GAS,N2),,                     +2*GHSERNN+RTLNP;,,           N 91Din !
 PAR  G(LIQUID,N),,                     +GHSERNN+29950+59.02*T;,,     N 91Din !
$
 PAR  G(GAS,N),,                        +F12658T+RTLNP;,,             N 97SUB !
 PAR  G(GAS,N2),,                       +2*GHSERNN+RTLNP;,,           N 91Din !
 PAR  G(GAS,N3),,                       +F12909T+RTLNP;,,             N 97SUB !
$
 FUNCTION GHSERNN   298.15  -3750.675-9.45425*T-12.7819*T*LN(T)
       -0.00176686*T**2+2.681E-09*T**3-32374*T**(-1);
       950.00  Y  -7358.85+17.2003*T-16.3699*T*LN(T)
       -6.5107E-04*T**2+3.0097E-08*T**3+563070*T**(-1);
      3350.00  Y  -16392.8+50.26*T-20.4695*T*LN(T)
       +2.39754E-04*T**2-8.333E-09*T**3+4596375*T**(-1);
      6000.00  N !
$ N(g)
 FUNCTION F12658T   298.15  +466446.153-13.3752574*T-20.89393*T*LN(T)
       +8.45521E-05*T**2-1.0018685E-08*T**3+2788.7865*T**(-1);
      2950.00  Y  +481259.035-52.5441353*T-16.37613*T*LN(T)
       -2.283738E-04*T**2-2.78997167E-08*T**3-7559105*T**(-1);
      6000.00  N !
$ N2(g) from SGSUB 1997
 FUNCTION F12845T   298.15  -8000.12556-8.81620364*T-27.22332*T*LN(T)
       -0.0012599175*T**2-5.39381E-07*T**3-38326.695*T**(-1);
       800.00  Y  -10569.6463+2.77534156*T-28.42384*T*LN(T)
       -0.003189275*T**2+2.06638E-07*T**3+416969.05*T**(-1);
      2200.00  Y  -22468.6305+71.8176271*T-37.55014*T*LN(T)
       -6.158995E-06*T**2-4.22547E-09*T**3+3427512*T**(-1);
      6000.00  N !
$ N3(g)
 FUNCTION F12909T   298.15  +426260.222-44.8788468*T-24.40177*T*LN(T)
       -0.02510581*T**2+3.41313667E-06*T**3+61652.95*T**(-1);
       800.00  Y  +409926.892+144.323862*T-52.34995*T*LN(T)
       -0.0035522355*T**2+2.39819667E-07*T**3+1869491.5*T**(-1);
      2200.00  Y  +398090.062+216.588607*T-61.96494*T*LN(T)
       -5.55378E-05*T**2+1.47712917E-09*T**3+4654831*T**(-1);
      6000.00  N !
$ ------------------------------------------------------------------------------
$ Zr
$
$ CUB_A13, CBCC_A12, ORTHORHOMBIC_A20 and TETRAGONAL_U added in unary 4.1
$
 PAR  G(HCP_A3,ZR:VA)           130.00  +GHSERZR;,,                   N 91Din !
 PAR  G(BCC_A2,ZR:VA)           130.00  +GBCCZR;,,                    N 91Din !
$PAR  G(OMEGA,ZR)               130.00  +GOMEZR;,,                    N 91Din !
 PAR  G(FCC_A1,ZR:VA)           130.00  +GHSERZR+7600-0.9*T;,,        N 91Din !
$PAR  G(CBCC_A12,ZR:VA)         130.00  +GHSERZR+4602.2;,,            N 99SGUN !
$PAR  G(CUB_A13,ZR:VA)          130.00  +GHSERZR+7531.2;,,            N 99SGUN !
$PAR  G(ORTHORHOMBIC_A20,ZR)    130.00  +GBCCZR+5000;,,               N 99SGUN !
$PAR  G(TETRAGONAL_U,ZR)        130.00  +GBCCZR+5000;,,               N 99SGUN !
 PAR  G(LIQUID,ZR)              130.00  +GLIQZR;,,                    N 91Din !
$
 PAR  G(GAS,ZR),,                       +GZRGAS+RTLNP;,,              N 94SUB !
 PAR  G(GAS,ZR2),,                      +F15702T+RTLNP;,,             N 94SUB !
$
 FUNCTION GHSERZR   130.00  -7827.595+125.64905*T-24.1618*T*LN(T)
       -0.00437791*T**2+34971*T**(-1);
      2128.00  Y  -26085.921+262.724183*T-42.144*T*LN(T)-1.342896E+31*T**(-9);
      6000.00  N !
 FUNCTION GBCCZR    130.00  -525.539+124.9457*T-25.607406*T*LN(T)
       -3.40084E-04*T**2-9.729E-09*T**3+25233*T**(-1)-7.6143E-11*T**4;
      2128.00  Y  -4620.034+1.55998*T+GHSERZR+1.4103476E+32*T**(-9);
      6000.00  N !
 FUNCTION GOMEZR    130.00  -8878.082+144.432234*T-26.8556*T*LN(T)
       -0.002799446*T**2+38376*T**(-1);
      2128.00  Y  -3414.603+2.566675*T+GHSERZR+8.517346E+31*T**(-9);
      6000.00  N !
 FUNCTION GLIQZR    130.00  +18147.69-9.080812*T+GHSERZR+1.6275E-22*T**7;
      2128.00  Y  -8281.26+253.812609*T-42.144*T*LN(T);
      6000.00  N !
$ Zr(g):
 FUNCTION GZRGAS    298.15  +586876.841+74.4171195*T-38.69111*T*LN(T)
       +0.01152846*T**2-1.693255E-06*T**3+270638.8*T**(-1);
       700.00  Y  +595990.293-26.0530509*T-24.06106*T*LN(T)
       +0.001743641*T**2-5.94312333E-07*T**3-748947.5*T**(-1);
      1300.00  Y  +593841.673-46.0204551*T-20.46361*T*LN(T)
       -0.002961084*T**2+1.08391433E-07*T**3+526352.5*T**(-1);
      2700.00  Y  +630745.052-161.965371*T-6.647343*T*LN(T)
       -0.0046738955*T**2+1.06833583E-07*T**3-15872340*T**(-1);
      6600.00  Y  +504260.272+131.813821*T-40.68801*T*LN(T)
       -6.38357E-04*T**2+1.79125333E-08*T**3+71496950*T**(-1);
     10000.00  N !
$ Zr2(g):
 FUNCTION F15702T   298.15  +892794.963-14.4120751*T-37.13672*T*LN(T)
       -3.2039655E-04*T**2-4.30605167E-09*T**3+85422.15*T**(-1);
      3600.00  Y  +874148.858+9.34917918*T-39.33356*T*LN(T)
       -0.001019669*T**2+6.09799667E-08*T**3+14065805*T**(-1);
      6000.00  N !
$ ------------------------------------------------------------------------------
$ Binary system
$
$ S. Sridar, R. Kumar, K.C. Hari Kumar, Calphad, 56, 102-107(2017).
$
$ Checked against paper and author's tdb. Checked at 6000 K.
$
$ The GZRNBASE function probably from SGSUB. The upper T-interval does not
$ match the lower ones very well.
$
$ G(BCC_A2,ZR:N) misprinted (by a small amount) in the paper.
$
 PAR  L(LIQUID,ZR,N;0),,                -427557;,,                    N 17Sri !
 PAR  L(LIQUID,ZR,N;1),,                -153838;,,                    N 17Sri !
$
 PAR  G(FCC_A1,ZR:N),,                  +GZRNPLUS;,,                  N 17Sri !
 PAR  L(FCC_A1,ZR:N,VA;0),,             +19575;,,                     N 17Sri !
$
 PAR  G(BCC_A2,ZR:N),,                  +GZRNPLUS+2*GHSERNN
             +632009+321.432*T;,,                                     N 17Sri !
 PAR  L(BCC_A2,ZR:N,VA;0),,             -1508137;,,                   N 17Sri !
$
 PAR  G(HCP_A3,ZR:N),,                  +GHSERZR+0.5*GHSERNN
             -150903+43.853*T;,,                                      N 17Sri !
 PAR  L(HCP_A3,ZR:N,VA;0),,             -139011+45.439*T;,,           N 17Sri !
 PAR  L(HCP_A3,ZR:N,VA;1),,             -41938;,,                     N 17Sri !
$
 PAR  G(GAS,ZRN),,                      +F12841T+RTLNP;,,             N 97SUB !
$
 FUNCTION GZRNPLUS  298.15  +GZRNBASE+14741+0.152*T-0.011*T*LN(T);     5000 N !
 FUNCTION GZRNBASE  298.15  -381821.182+278.178233*T-46.4202194*T*LN(T)
       -0.00352792791*T**2+1.33236681E-09*T**3+358416.094*T**(-1);
      2000.00  Y  -324412.768-11.6192139*T-9.00032806*T*LN(T)
       -0.0142983599*T**2+5.79050986E-07*T**3-16048445*T**(-1);
      2600.00  Y  -371959.131+237.46038*T-41.3140297*T*LN(T)
       -0.00469480362*T**2+5.0809381E-08*T**3-3201806*T**(-1);
      3225.00  Y  -316831.81+344.900575*T-58.5760002*T*LN(T);
      5000.00  N !
$ ZrN(g):
 FUNCTION F12841T   298.15  +703577.07-32.5759773*T-29.24152*T*LN(T)
       -0.00785065*T**2+1.3910475E-06*T**3+67446.7*T**(-1);
       800.00  Y  +699707.231+20.4173605*T-37.31572*T*LN(T)
       -1.7143395E-04*T**2+6.13552167E-10*T**3+427996*T**(-1);
      6000.00  N !
$ ------------------------------------------------------------------------------
$
$
 LIST-OF-REFERENCE
 NUMBER  SOURCE
  Null   'Unknown source'
  Same   'Same or similar interaction as in the corresponding stable phase'
  REFLAV 'Laves phase convention: G(LAVES,X:X)=+3*GHSERXX+15000'
  91Din  'A.T. Dinsdale, Calphad, 15, 317-425(1991).'
  94SUB  'SGTE Substance Database, version 1994'
  97SUB  'SGTE substance database, version 1997'
  99SGUN 'SGTE unary database V.4.1, 1999.'
  17Sri  'S. Sridar, R. Kumar, K.C. Hari Kumar,
          Calphad, 56, 102-107(2017); Zr-N'
!
