$
$ Database for Ag-Lu from C. Shi et al. 2018.
$
$ C. Shi, Y. Du, B. Hu, B. Yang, Y. Pan, F. Guo, S. Liu, Q. Du,
$ Calphad, 62, 207-14(2018).
$
$ Dataset created 2019.03.24 by Bengt Hallstedt.
$ 2020.12.20: Modified for use with GES6.
$
$ This is not convincing and could just as well be classified as broken, but
$ it does reproduce the published phase diagram.
$
$ There is an inverse fcc stability range with a minimum at 1632 K, which is
$ below the melting point of Lu. At higher temperature there is a massive
$ inverse liquid miscibility gap.
$
$ ------------------------------------------------------------------------------
 TEMP-LIM 298.15 6000.00 !
$
$ELEMENT NAME  REF. STATE               ATOMIC MASS H298-H0    S298    !
$
 ELEMENT VA   VACUUM                      0.0          0.0      0.0    ! 
 ELEMENT AG   FCC_A1                    107.8682    5745.      42.55   ! 
 ELEMENT LU   HCP_A3                    174.967     6388.968   50.9611 ! 
$ ------------------------------------------------------------------------------
$ Phase definitions
$
 PHASE LIQUID:L % 1 1 !
 CONST LIQUID:L : AG LU : !
$
$ Fcc (cF4, Fm-3m) and MeX (cF8, Fm-3m)
$
 PHASE FCC_A1 %A 2 1 1 !
 CONST FCC_A1 : AG% LU : VA : !
$
$ Bcc (cI2, Im-3m)
$
 PHASE BCC_A2 %B 2 1 3 !
 CONST BCC_A2 : AG : VA : !
$
$ Hcp (hP2, P6_3/mmc) and Me2X (NiAs-type, hP4, P6_3/mmc, B8_1)
$
 PHASE HCP_A3 %A 2 1 0.5 !
 CONST HCP_A3 : AG LU% : VA : !
$
$ Prototype MoNi4 (tI10, I4/m)
$
 PHASE AG4LU_D1A % 2 4 1 !
 CONST AG4LU_D1A : AG : LU : !
$
$ Prototype MoSi2 (tI6, I4/mmm)
$
 PHASE AG2LU_C11B % 2 2 1 !
 CONST AG2LU_C11B : AG : LU : !
$
$ Prototype CsCl (cP2, Pm-3m)
$
 PHASE AGLU_B2 %A 2 1 1 !
 CONST AGLU_B2 : AG : LU : !
$ ------------------------------------------------------------------------------
$ Defaults
$
 DEFINE-SYSTEM-DEFAULT ELEMENT 2 !
 DEFAULT-COM DEFINE_SYSTEM_ELEMENT VA !
 TYPE-DEF % SEQ * !
 TYPE-DEF A GES AMEND_PHASE_DESCRIPTION @ MAGNETIC -3 0.28 !
 TYPE-DEF B GES AMEND_PHASE_DESCRIPTION @ MAGNETIC -1 0.4 !
 FUNCTION ZERO      298.15  0;                                         6000 N !
 FUNCTION UN_ASS    298.15  0;                                         6000 N !
 FUNCTION R         298.15  +8.31451;                                  6000 N !
$ ------------------------------------------------------------------------------
$ Element data
$ ------------------------------------------------------------------------------
$ Ag
$
$ CUB_A13 added in unary 3.0
$ CUB_A13 revised in unary 4.1
$ BCT_A5 added in unary 4.1
$
$ DHCP from 09Wan not included in unary
$
 PAR  G(FCC_A1,AG:VA),,                 +GHSERAG;                3000 N 91Din !
 PAR  G(HCP_A3,AG:VA),,                 +GHSERAG+300+0.3*T;      3000 N 91Din !
 PAR  G(BCC_A2,AG:VA),,                 +GHSERAG+3400-1.05*T;    3000 N 91Din !
$PAR  G(CUB_A13,AG:VA),,                +GHSERAG+3400-1.05*T;    3000 N 95Lim !
$PAR  G(CUB_A13,AG:VA),,                +GHSERAG
$            +3765.6-1.8826*T;                                   3000 N 96SGUN !
$PAR  G(BCT_A5,AG),,                    +GHSERAG+4184.1;         3000 N 96Oh !
$PAR  G(DHCP,AG),,                      +GHSERAG+1000;           3000 N 09Wan2 !
 PAR  G(LIQUID,AG),,                    +GLIQAG;                 3000 N 91Din !
$
 FUNCTION GHSERAG   298.15  -7209.512+118.202013*T-23.8463314*T*LN(T)
       -0.001790585*T**2-3.98587E-07*T**3-12011*T**(-1);
      1234.93  Y  -15095.252+190.266404*T-33.472*T*LN(T)+1.411773E+29*T**(-9);
      3000.00  N !
 FUNCTION GLIQAG    298.15  +11025.076-8.89102*T+GHSERAG-1.033905E-20*T**7;
      1234.93  Y  -3587.111+180.964656*T-33.472*T*LN(T);
      3000.00  N !
 FUNCTION GBCCAG    298.15  +GHSERAG+3400-1.05*T;                      6000 N !
$ ------------------------------------------------------------------------------
$ Lu
$
$ FCC_A1 from 13Wan not in unary
$ FCC_A1 from 18Shi not in unary and not acceptable
$
 PAR  G(HCP_A3,LU:VA),,                 +GHSERLU;                3700 N 91Din !
$PAR  G(FCC_A1,LU:VA),,                 +GHSERLU+5000;           3700 N 13Wan !
 PAR  G(FCC_A1,LU:VA),,                 +GHSERLU+75657;          3700 N 18Shi !
 PAR  G(LIQUID,LU),,                    +GLIQLU;                 3700 N 91Din !
$
 FUNCTION GHSERLU   298.15  -8788.329+146.536283*T-29.812*T*LN(T)
       +0.00519165*T**2-1.790717E-06*T**3+39723*T**(-1);
       700.00  Y  -9043.057+142.327643*T-29.0095*T*LN(T)
       +0.00371416*T**2-1.50147E-06*T**3+141549*T**(-1);
      1700.00  Y  +6940.092-46.91844*T-1.83986*T*LN(T)-0.0119001*T**2;
      1936.00  Y  -404023.691+1829.37943*T-239.019502*T*LN(T)
       +0.041800748*T**2-1.661174E-06*T**3+1.24825465E+08*T**(-1);
      3700.00  N !
 FUNCTION GLIQLU    298.15  +12772.12-4.998883*T+GHSERLU;
       600.00  Y  +30389.863-198.378793*T+20.9392663*T*LN(T)
       -0.034238743*T**2+2.890636E-06*T**3-2398650*T**(-1);
      1936.00  Y  -18994.687+292.091104*T-47.9068*T*LN(T);
      3700.00  N !
$ ------------------------------------------------------------------------------
$ Binary system
$
$ C. Shi, Y. Du, B. Hu, B. Yang, Y. Pan, F. Guo, S. Liu, Q. Du,
$ Calphad, 62, 207-14(2018).
$
$ Checked against paper. Checked at 6000 K.
$
$ This is not convincing and could just as well be classified as broken, but
$ it does reproduce the published phase diagram.
$
$ There is an inverse fcc stability range with a minimum at 1632 K, which is
$ below the melting point of Lu. At higher temperature there is a massive
$ inverse liquid miscibility gap.
$
 PAR  L(LIQUID,AG,LU;0),,               -157518+86.90*T;,,            N 18Shi !
 PAR  L(LIQUID,AG,LU;1),,               -4888-7.25*T;,,               N 18Shi !
$
 PAR  L(FCC_A1,AG,LU:VA;0),,            -138640;,,                    N 18Shi !
 PAR  L(FCC_A1,AG,LU:VA;1),,            +6398;,,                      N 18Shi !
$
 PAR  L(HCP_A3,AG,LU:VA;0),,            +30000;,,                     N 18Shi !
$
 PAR  G(AG4LU_D1A,AG:LU),,              +4*GHSERAG+GHSERLU
             -119500+44.4*T;,,                                        N 18Shi !
 PAR  G(AG2LU_C11B,AG:LU),,             +2*GHSERAG+GHSERLU
             -97230+35.85*T;,,                                        N 18Shi !
 PAR  G(AGLU_B2,AG:LU),,                +GHSERAG+GHSERLU
             -82000+36.68*T;,,                                        N 18Shi !
$ ------------------------------------------------------------------------------
$
$
 LIST-OF-REFERENCE
 NUMBER  SOURCE
  Null   'Unknown source'
  Same   'Same or similar interaction as in the corresponding stable phase'
  COST   'COST 507 database'
  91Din  'A.T. Dinsdale, Calphad, 15, 317-425(1991).'
  95Lim  'S.S. Lim, P.L. Rossiter, J.W. Tibballs, Calphad, 19, 131-41(1995),
          SGTE unary database V.4.1, 1999; Ag'
  96Oh   'C.-S. Oh, J.-H. Shim, B.-J. Lee, D.N. Lee,
          J. Alloys Compounds, 238, 155-66(1996),
          SGTE unary database V.4.1, 1999; Ag'
  96SGUN 'SGTE unary database V.3.0, 1996.'
  09Wan2 'S.L. Wang, C.P. Wang, X.J. Liu, K. Ishida,
          J. Alloys Compd., 476, 245-52(2009); Ag'
  13Wan  'D. Wang, Y. Yu, X.J. Liu, C.P. Wang, Calphad, 41, 20-25(2013); Lu'
  18Shi  'C. Shi, Y. Du, B. Hu, B. Yang, Y. Pan, F. Guo, S. Liu, Q. Du,
          Calphad, 62, 207-14(2018); Lu, Ag-Lu'
!
