$
$ Database for Bi-Tm from Y. Djaballah et al. 2015.
$
$ Y. Djaballah, A. Said Amer, S. Ugur, G. Ugur, A. Hidoussi,
$ A. Belgacem-Bouzida, Calphad, 48, 72-78(2015).
$
$ Dataset created 2018.04.03 by Bengt Hallstedt.
$ 2020.12.25: Modified for use with GES6.
$ 2023.02.24: Unary Bi changed from V4.4 to V5.0.
$
$ There is an inverse miscibility gap with a minimum at 3958 K and x(Tm)=0.68.
$
$ ------------------------------------------------------------------------------
 TEMP-LIM 298.15 6000.00 !
$
$ELEMENT NAME  REF. STATE               ATOMIC MASS H298-H0    S298    !
$
 ELEMENT VA   VACUUM                      0.0          0.0      0.0    ! 
 ELEMENT BI   RHOMBOHEDRAL_A7           208.98      6426.6     56.735  !
 ELEMENT TM   HCP_A3                    168.9342    7397.312   74.01496! 
$ ------------------------------------------------------------------------------
$ Phase definitions
$
 PHASE LIQUID:L % 1 1 !
 CONST LIQUID:L : BI TM : !
$
$ Fcc (cF4, Fm-3m) and MeX (cF8, Fm-3m)
$
 PHASE FCC_A1 %A 2 1 1 !
 CONST FCC_A1 : BI TM : VA : !
$
$ Bcc (cI2, Im-3m)
$
 PHASE BCC_A2 %B 2 1 3 !
 CONST BCC_A2 : BI TM : VA : !
$
$ Hcp (hP2, P6_3/mmc) and Me2X (NiAs-type, hP4, P6_3/mmc, B8_1)
$
 PHASE HCP_A3 %A 2 1 0.5 !
 CONST HCP_A3 : BI TM% : VA: !
$
$ Prototype alpha-As (hR2, R-3m)
$
 PHASE RHOMBOHEDRAL_A7 % 1 1 !
 CONST RHOMBOHEDRAL_A7 : BI : !
$
$ Prototype NaCl (cF8, Fm-3m)
$
 PHASE BITM_B1 % 2 1 1 !
 CONST BITM_B1 : BI : TM : !
$
$ Prototype Bi3Y5 (oP32, Pnma)
$
 PHASE BI3TM5 % 2 3 5 !
 CONST BI3TM5 : BI : TM : !
$ ------------------------------------------------------------------------------
$ Defaults
$
 DEFINE-SYSTEM-DEFAULT ELEMENT 2 !
 DEFAULT-COM DEFINE_SYSTEM_ELEMENT VA !
 TYPE-DEF A GES AMEND_PHASE_DESCRIPTION @ MAGNETIC -3 0.28 !
 TYPE-DEF B GES AMEND_PHASE_DESCRIPTION @ MAGNETIC -1 0.4 !
 TYPE-DEF % SEQ * !
 FUNCTION ZERO      298.15  0;                                         6000 N !
 FUNCTION UN_ASS    298.15  0;                                         6000 N !
 FUNCTION R         298.15  +8.31451;                                  6000 N !
$ ------------------------------------------------------------------------------
$ Element data
$ ------------------------------------------------------------------------------
$ Bi
$
$ RHOMBOHEDRAL_A7 and LIQUID modified in unary 5.0
$ DIAMOND_A4 added in unary 5.0
$
 PAR  G(RHOMBOHEDRAL_A7,BI),,           +GHSERBI;                3000 N 09SGUN !
 PAR  G(FCC_A1,BI:VA),,                 +GHSERBI+9900-12.5*T;    3000 N 91Din !
 PAR  G(BCC_A2,BI:VA),,                 +GHSERBI+11297-13.9*T;   3000 N 91Din !
 PAR  G(HCP_A3,BI:VA),,                 +GHSERBI+9900-11.8*T;    3000 N 91Din !
$PAR  G(DIAMOND_A4,BI),,                +GHSERBI
$            +11296.8+9.253655*T;                                3000 N 88Che2 !
$PAR  G(BCT_A5,BI),,                    +GHSERBI+4184.07;        3000 N 91Din !
$PAR  G(TETRAGONAL_A6,BI),,             +GHSERBI+4184.07;        3000 N 91Din !
$PAR  G(TET_ALPHA1_A6,BI),,             +GHSERBI+4234;           3000 N 91Din !
 PAR  G(LIQUID,BI),,                    +GLIQBI;                 3000 N 09SGUN ! 
$
 FUNCTION GHSERBI   298.15  -7817.776+128.418925*T-28.4096529*T*LN(T)
       +0.012338888*T**2-8.381598E-6*T**3;
       544.55  Y  +29293.369-379.605174*T+49.678*T*LN(T)
       -0.0730245*T**2+1.3052833E-5*T**3-3544705*T**(-1)+1.66309E+25*T**(-9);
       800.00  Y  -11085.609+182.955328*T-36.041*T*LN(T)
       +7.4641E-3*T**2-1.05047E-6*T**3+5175*T**(-1)+1.66309E+25*T**(-9);
      1200.00  Y  -7580.864+124.770814*T-27.196*T*LN(T)+1.66309E+25*T**(-9);
      3000.00  N !
 FUNCTION GLIQBI    298.15  +11246.017-20.636399*T+GHSERBI-5.9608E-19*T**7;
       544.55  Y  +40629.667-400.415652*T+49.678*T*LN(T)
       -0.0730245*T**2+1.3052833E-5*T**3-3544705*T**(-1);
       800.00  Y  +250.689+162.14485*T-36.041*T*LN(T)
       +0.0074641*T**2-1.05047E-6*T**3+5175*T**(-1);
      1200.00  Y  +3755.434+103.960336*T-27.196*T*LN(T);
      3000.00 N !
$ ------------------------------------------------------------------------------
$ Tm
$
$ FCC_A1 from 12Don not included in unary
$ BCC_A2 from 04Du2 not included in unary
$ RHOMBOHEDRAL_A7 from 10Wan not included in unary
$
 PAR  G(HCP_A3,TM:VA),,                 +GHSERTM;                2300 N 91Din !
 PAR  G(FCC_A1,TM:VA),,                 +GHSERTM+2680;           2300 N 12Don !
 PAR  G(BCC_A2,TM:VA),,                 +GHSERTM+5000;           2300 N 04Du3 !
$PAR  G(RHOMBOHEDRAL_A7,TM),,           +GHSERTM+5000;           2300 N 10Wan !
 PAR  G(LIQUID,TM),,                    +GLIQTM;                 2300 N 91Din !
$
 FUNCTION GHSERTM   298.15  -10016.715+151.037648*T-34.3664974*T*LN(T)
       +0.012110965*T**2-3.831156E-06*T**3+95982*T**(-1);
       700.00  Y  -14701.965+147.957496*T-32.1951269*T*LN(T)
       +4.44753E-04*T**2-3.96694E-07*T**3+1091664*T**(-1);
      1600.00  Y  -8669.227+97.98144*T-25.1816969*T*LN(T)-0.003384563*T**2;
      1818.00  Y  +727125.608-4147.40063*T+534.082763*T*LN(T)
       -0.19093039*T**2+1.1689185E-05*T**3-1.8038222E+08*T**(-1);
      2300.00  N !
 FUNCTION GLIQTM    298.15  +13199.249-6.557671*T+GHSERTM;
       600.00  Y  +22640.028-126.738485*T+6.8744933*T*LN(T)
       -0.025487085*T**2+2.288172E-06*T**3-1585412*T**(-1);
      1818.00  Y  -10090.305+214.184413*T-41.37976*T*LN(T);
      2300.00  N !
$ ------------------------------------------------------------------------------
$ Binary system
$
$ Y. Djaballah, A. Said Amer, S. Ugur, G. Ugur, A. Hidoussi,
$ A. Belgacem-Bouzida, Calphad, 48, 72-78(2015).
$
$ Checked against paper and author's tdb. Checked at 6000 K.
$
$ There is an inverse miscibility gap with a minimum at 3958 K and x(Tm)=0.68.
$
 PAR  L(LIQUID,BI,TM;0),,               -185390+17.547*T;,,           N 15Dja !
 PAR  L(LIQUID,BI,TM;1),,               +58060-52.109*T;,,            N 15Dja !
 PAR  L(LIQUID,BI,TM;2),,               +62991-36.083*T;,,            N 15Dja !
 PAR  L(LIQUID,BI,TM;3),,               -57208+20.093*T;,,            N 15Dja !
$
 PAR  L(HCP_A3,BI,TM:VA;0),,            -85400;,,                     N 15Dja !
$
 PAR  G(BITM_B1,BI:TM),,                +GHSERBI+GHSERTM
             -153592+11.246*T;,,                                      N 15Dja !
 PAR  G(BI3TM5,BI:TM),,                 +3*GHSERBI+5*GHSERTM
             -486800+36.424*T;,,                                      N 15Dja !
$
$ Metastable
$
 PAR  L(FCC_A1,BI,TM:VA;0),,            -85400;,,                     N Same !
 PAR  L(BCC_A2,BI,TM:VA;0),,            -85400;,,                     N Same !
$ ------------------------------------------------------------------------------
$
$
 LIST-OF-REFERENCE
 NUMBER  SOURCE
  Null   'Unknown source'
  Same   'Same or similar interaction as in the corresponding stable phase'
  COST   'COST 507 database'
  88Che2 'P.-Y. Chevalier, Thermochim. Acta, 132, 111-16(1988),
          SGTE unary database V.5.0, 2009; Bi' 
  91Din  'A.T. Dinsdale, Calphad, 15, 317-425(1991).'
  04Du3  'Z. Du, H. Liu, G. Ling,
          J. Alloys Compd., 373, 151-55(2004); Tm'
  09SGUN 'SGTE unary database V.5.0, 2009.'
  10Wan  'C.P. Wang, H.L. Zhang, A.T. Tang, F.S. Pan, X.J. Liu,
          J. Alloys Compd., 502, 43-48(2010); Tm'
  12Don  'H.Q. Dong, X.M. Tao, T. Laurila, M. Paulastro-Krockel,
          Calphad, 37, 87-93(2012); Ho, Tm'
  15Dja  'Y. Djaballah, A. Said Amer, S. Ugur, G. Ugur, A. Hidoussi,
          A. Belgacem-Bouzida, Calphad, 48, 72-78(2015); Bi-Tm'
!
