$
$ Database for Ir-Ti from C. Wang et al. 2014.
$
$ C. Wang, Y. Guo, Y. Lu, X. Liu, J. Phase Equilib. Diffus., 35, 269-75(2014).
$
$ Dataset created 2018.10.13 by Bengt Hallstedt.
$ 2021.01.17: Modified for use with GES6.
$
$ Ir3Ti(L1_2), beta-IrTi(L1_0) and gamma-IrTi(B2) should be modelled with
$ fcc and bcc order-disorder models.
$
$ There are too many parameters and there are too large temperature
$ dependencies.
$
$ ------------------------------------------------------------------------------
 TEMP-LIM 298.15 6000.00 !
$
$ELEMENT NAME  REF. STATE               ATOMIC MASS H298-H0    S298    !
$
 ELEMENT VA   VACUUM                      0.0          0.0      0.0    ! 
 ELEMENT IR   FCC_A1                    192.22      5267.656   35.5054 ! 
 ELEMENT TI   HCP_A3                     47.88      4824.      30.72   ! 
$ ------------------------------------------------------------------------------
$ Phase definitions
$
 PHASE LIQUID:L % 1 1 !
 CONST LIQUID:L : IR TI : !
$
$ Fcc (cF4, Fm-3m) and MeX (cF8, Fm-3m)
$
 PHASE FCC_A1 %A 2 1 1 !
 CONST FCC_A1 : IR% TI : VA : !
$
$ Bcc (cI2, Im-3m)
$
 PHASE BCC_A2 %B 2 1 3 !
 CONST BCC_A2 : IR TI% : VA : !
$
$ Hcp (hP2, P6_3/mmc) and Me2X (NiAs-type, hP4, P6_3/mmc, B8_1)
$
 PHASE HCP_A3 %A 2 1 0.5 !
 CONST HCP_A3 : IR TI% : VA: !
$
$ Prototype AuCu3 (cP4, Pm-3m)
$
 PHASE IR3TI_L12 %  2 3 1 !
 CONST IR3TI_L12 : IR% TI : IR TI% : !
$
$ Prototype AuCu (tP2, I4/mmm) beta-IrTi
$
 PHASE IRTI_L10 %  2 1 1 !
 CONST IRTI_L10 : IR% TI : IR TI% : !
$
$ Prototype CsCl (cP2, Pm-3m) gamma-IrTi
$
 PHASE IRTI_B2 %  2 1 1 !
 CONST IRTI_B2 : IR% TI : IR TI% : !
$
$ Prototype Cr3Si (cP8, Pm-3n)
$
 PHASE IRTI3_A15 %  2 1 3 !
 CONST IRTI3_A15 : IR% TI : IR TI% : !
$ ------------------------------------------------------------------------------
$ Defaults
$
 DEFINE-SYSTEM-DEFAULT ELEMENT 2 !
 DEFAULT-COM DEFINE_SYSTEM_ELEMENT VA !
 TYPE-DEF % SEQ * !
 TYPE-DEF A GES AMEND_PHASE_DESCRIPTION @ MAGNETIC -3 0.28 !
 TYPE-DEF B GES AMEND_PHASE_DESCRIPTION @ MAGNETIC -1 0.4 !
 FUNCTION ZERO      298.15  0;                                         6000 N !
 FUNCTION UN_ASS    298.15  0;                                         6000 N !
 FUNCTION R         298.15  +8.31451;                                  6000 N !
$ ------------------------------------------------------------------------------
$ Element data
$ ------------------------------------------------------------------------------
$ Ir
$
 PAR  G(FCC_A1,IR:VA),,                 +GHSERIR;                4000 N 91Din !
 PAR  G(BCC_A2,IR:VA),,                 +GHSERIR+32000-6.9*T;    4000 N 91Din !
 PAR  G(HCP_A3,IR:VA),,                 +GHSERIR+4000-0.6*T;     4000 N 91Din !
 PAR  G(LIQUID,IR),,                    +GLIQIR;                 4000 N 91Din !
$
 FUNCTION GHSERIR   298.15  -6936.288+118.780119*T-22.7944*T*LN(T)
       -0.003091976*T**2-20083*T**(-1);
      1215.00  Y  -8123.73+140.066697*T-26.085*T*LN(T)-4.7969E-07*T**3;
      2719.00  Y  +290529.037-1258.35297*T+152.498874*T*LN(T)
       -0.047176402*T**2+1.844977E-06*T**3-92987250*T**(-1);
      4000.00  N !
 FUNCTION GLIQIR    298.15  +23455.244-6.312059*T+GHSERIR;
      1000.00  Y  +102217.789-587.632815*T+73.9517579*T*LN(T)
       -0.04638802*T**2+2.761831E-06*T**3-13382612*T**(-1);
      2719.00  Y  -38347.217+411.234043*T-59.418*T*LN(T);
      4000.00  N !
 FUNCTION GBCCIR    298.15  +GHSERIR+32000-6.9*T;                      4000 N !
$ ------------------------------------------------------------------------------
$ Ti
$
$ BCT_A5 added in unary 3.0
$
 PAR  G(HCP_A3,TI:VA),,                 +GHSERTI;                4000 N 91Din !
 PAR  G(BCC_A2,TI:VA),,                 +GBCCTI;                 4000 N 91Din !
 PAR  G(FCC_A1,TI:VA),,                 +GHSERTI+6000-0.1*T;     4000 N 91Din !
$PAR  G(CBCC_A12,TI:VA),,               +GHSERTI+4602.2;         4000 N 91Din !
$PAR  G(CUB_A13,TI:VA),,                +GHSERTI+7531.2;         4000 N 91Din !
$PAR  G(DIAMOND_A4,TI),,                +GHSERTI+25000;          4000 N 91Din !
$PAR  G(BCT_A5,TI),,                    +GHSERTI+4602.2;         3000 N SGCOST !
 PAR  G(LIQUID,TI),,                    +GLIQTI;                 4000 N 91Din !
$
 FUNCTION GHSERTI   298.15  -8059.921+133.615208*T-23.9933*T*LN(T)
       -0.004777975*T**2+1.06716E-07*T**3+72636*T**(-1);
       900.00  Y  -7811.815+132.988068*T-23.9887*T*LN(T)
       -0.0042033*T**2-9.0876E-08*T**3+42680*T**(-1);
      1155.00  Y  +908.837+66.976538*T-14.9466*T*LN(T)
       -0.0081465*T**2+2.02715E-07*T**3-1477660*T**(-1);
      1941.00  Y  -124526.786+638.806871*T-87.2182461*T*LN(T)
       +0.008204849*T**2-3.04747E-07*T**3+36699805*T**(-1);
      4000.00  N !
 FUNCTION GBCCTI    298.15  -1272.064+134.71418*T-25.5768*T*LN(T)
       -6.63845E-04*T**2-2.78803E-07*T**3+7208*T**(-1);
      1155.00  Y  +6667.385+105.366379*T-22.3771*T*LN(T)
       +0.00121707*T**2-8.4534E-07*T**3-2002750*T**(-1);
      1941.00  Y  +26483.26-182.426471*T+19.0900905*T*LN(T)
       -0.02200832*T**2+1.228863E-06*T**3+1400501*T**(-1);
      4000.00  N !
 FUNCTION GLIQTI    298.15  +12194.415-6.980938*T+GHSERTI;
      1300.00  Y  +369519.198-2554.0225*T+342.059267*T*LN(T)
       -0.163409355*T**2+1.2457117E-05*T**3-67034516*T**(-1);
      1941.00  Y  -19887.066+298.7367*T-46.29*T*LN(T);
      4000.00  N !
 FUNCTION GFCCTI    298.15  +GHSERTI+6000-0.1*T;                       4000 N !
$ ------------------------------------------------------------------------------
$ Binary system
$
$ C. Wang, Y. Guo, Y. Lu, X. Liu, J. Phase Equilib. Diffus., 35, 269-75(2014).
$
$ Checked against paper. Checked at 6000 K.
$
$ Ir3Ti(L1_2), beta-IrTi(L1_0) and gamma-IrTi(B2) should be modelled with
$ fcc and bcc order-disorder models.
$
$ There are too many parameters and there are too large temperature
$ dependencies.
$
 PAR  L(LIQUID,IR,TI;0),,               -208590+5*T;,,                N 14Wan !
 PAR  L(LIQUID,IR,TI;1),,               +89580-11*T;,,                N 14Wan !
 PAR  L(LIQUID,IR,TI;2),,               +118800-35*T;,,               N 14Wan !
$
 PAR  L(FCC_A1,IR,TI:VA;0),,            -218580+36*T;,,               N 14Wan !
 PAR  L(FCC_A1,IR,TI:VA;1),,            -77900+36*T;,,                N 14Wan !
$
 PAR  L(BCC_A2,IR,TI:VA;0),,            -193655;,,                    N 14Wan !
 PAR  L(BCC_A2,IR,TI:VA;1),,            +89100;,,                     N 14Wan !
 PAR  L(BCC_A2,IR,TI:VA;2),,            +43800+13*T;,,                N 14Wan !
$
 PAR  L(HCP_A3,IR,TI:VA;0),,            -196090+24.5*T;,,             N 14Wan !
$
 PAR  G(IR3TI_L12,IR:IR),,              +4*GHSERIR+20000;,,           N 14Wan !
 PAR  G(IR3TI_L12,TI:TI),,              +4*GFCCTI+20000;,,            N 14Wan !
 PAR  G(IR3TI_L12,IR:TI),,              +3*GHSERIR+GFCCTI
             -238000+34.12*T;,,                                       N 14Wan !
 PAR  G(IR3TI_L12,TI:IR),,              +3*GFCCTI+GHSERIR
             +614000+100.3*T;,,                                       N 14Wan !
 PAR  L(IR3TI_L12,IR,TI:IR;0),,         -34400+20*T;,,                N 14Wan !
 PAR  L(IR3TI_L12,IR:IR,TI;0),,         -34400+20*T;,,                N 14Wan !
 PAR  L(IR3TI_L12,IR,TI:TI;0),,         -532000+80*T;,,               N 14Wan !
 PAR  L(IR3TI_L12,TI:IR,TI;0),,         -532000+80*T;,,               N 14Wan !
$
 PAR  G(IRTI_L10,IR:IR),,               +2*GHSERIR+10000;,,           N 14Wan !
 PAR  G(IRTI_L10,TI:TI),,               +2*GFCCTI+10000;,,            N 14Wan !
 PAR  G(IRTI_L10,IR:TI),,               +GHSERIR+GFCCTI
             -169300+16.28*T;,,                                       N 14Wan !
 PAR  G(IRTI_L10,TI:IR),,               +GFCCTI+GHSERIR
             -169300+16.28*T;,,                                       N 14Wan !
 PAR  L(IRTI_L10,IR,TI:IR;0),,          -90960+39.97*T;,,             N 14Wan !
 PAR  L(IRTI_L10,IR,TI:IR;1),,          +45076-20*T;,,                N 14Wan !
 PAR  L(IRTI_L10,IR:IR,TI;0),,          -90960+39.97*T;,,             N 14Wan !
 PAR  L(IRTI_L10,IR:IR,TI;1),,          +45076-20*T;,,                N 14Wan !
 PAR  L(IRTI_L10,IR,TI:TI;0),,          -89000+26*T;,,                N 14Wan !
 PAR  L(IRTI_L10,IR,TI:TI;1),,          -87600;,,                     N 14Wan !
 PAR  L(IRTI_L10,IR,TI:TI;2),,          -37000;,,                     N 14Wan !
 PAR  L(IRTI_L10,TI:IR,TI;0),,          -89000+26*T;,,                N 14Wan !
 PAR  L(IRTI_L10,TI:IR,TI;1),,          -87600;,,                     N 14Wan !
 PAR  L(IRTI_L10,TI:IR,TI;2),,          -37000;,,                     N 14Wan !
$
 PAR  G(IRTI_B2,IR:IR),,                +2*GBCCIR+10000;,,            N 14Wan !
 PAR  G(IRTI_B2,TI:TI),,                +2*GBCCTI+10000;,,            N 14Wan !
 PAR  G(IRTI_B2,IR:TI),,                +GBCCIR+GBCCTI
             -194030.8+22.86*T;,,                                     N 14Wan !
 PAR  G(IRTI_B2,TI:IR),,                +GBCCTI+GBCCIR
             -194030.8+22.86*T;,,                                     N 14Wan !
 PAR  L(IRTI_B2,IR,TI:IR;0),,           -161400+45.16*T;,,            N 14Wan !
 PAR  L(IRTI_B2,IR,TI:IR;1),,           +32000-30.74*T;,,             N 14Wan !
 PAR  L(IRTI_B2,IR:IR,TI;0),,           -161400+45.16*T;,,            N 14Wan !
 PAR  L(IRTI_B2,IR:IR,TI;1),,           +32000-30.74*T;,,             N 14Wan !
 PAR  L(IRTI_B2,IR,TI:TI;0),,           -100000+26*T;,,               N 14Wan !
 PAR  L(IRTI_B2,IR,TI:TI;1),,           -156000+26*T;,,               N 14Wan !
 PAR  L(IRTI_B2,TI:IR,TI;0),,           -100000+26*T;,,               N 14Wan !
 PAR  L(IRTI_B2,TI:IR,TI;1),,           -156000+26*T;,,               N 14Wan !
$
 PAR  G(IRTI3_A15,IR:IR),,              +4*GHSERIR+60000+32*T;,,      N 14Wan !
 PAR  G(IRTI3_A15,TI:TI),,              +4*GHSERTI+32000;,,           N 14Wan !
 PAR  G(IRTI3_A15,IR:TI),,              +GHSERIR+3*GHSERTI
             -240380+28.976*T;,,                                      N 14Wan !
 PAR  G(IRTI3_A15,TI:IR),,              +GHSERTI+3*GHSERIR
             +1000000;,,                                              N 14Wan !
 PAR  L(IRTI3_A15,IR,TI:IR;0),,         -643200+35.2*T;,,             N 14Wan !
 PAR  L(IRTI3_A15,IR:IR,TI;0),,         -643200+35.2*T;,,             N 14Wan !
 PAR  L(IRTI3_A15,IR,TI:TI;0),,         +51200-46.6*T;,,              N 14Wan !
 PAR  L(IRTI3_A15,TI:IR,TI;0),,         +51200-46.6*T;,,              N 14Wan !
$ ------------------------------------------------------------------------------
$
$
 LIST-OF-REFERENCE
 NUMBER  SOURCE
  Null   'Unknown source'
  Same   'Same or similar interaction as in the corresponding stable phase'
  COST   'COST 507 database'
  SGCOST 'COST 507 database, SGTE unary database V.3.0, 1996; Al, B, Nd, Ti, Zn'
  91Din  'A.T. Dinsdale, Calphad, 15, 317-425(1991).'
  96SGUN 'SGTE unary database V.3.0, 1996.'
  14Wan  'C. Wang, Y. Guo, Y. Lu, X. Liu,
          J. Phase Equilib. Diffus., 35, 269-75(2014); Ir-Ti'
!
