$
$ Database for Gd-Ti from N. Mattern et al. 2013.
$
$ N. Mattern, J.H. Han, O. Fabrichnaya, M. Zinkevich, W. Loser, J. Werner,
$ R. Nowak, I. Kaban, O. Shuleshova, D. Holland-Moritz, J. Bednarcik,
$ N. Sobczak, J. Eckert, Calphad, 42, 19-26(2013).
$
$ Dataset created 2018.07.15 by Bengt Hallstedt.
$ 2021.01.03: Modified for use with GES6.
$
$ ------------------------------------------------------------------------------
 TEMP-LIM 298.15 6000.00 !
$
$ELEMENT NAME  REF. STATE               ATOMIC MASS H298-H0    S298    !
$
 ELEMENT VA   VACUUM                      0.0          0.0      0.0    ! 
 ELEMENT GD   HCP_A3                    157.25      9087.648   68.0894 ! 
 ELEMENT TI   HCP_A3                     47.88      4824.      30.72   ! 
$ ------------------------------------------------------------------------------
$ Phase definitions
$
 PHASE LIQUID:L % 1 1 !
 CONST LIQUID:L : GD TI : !
$
$ Fcc (cF4, Fm-3m) and MeX (cF8, Fm-3m)
$
 PHASE FCC_A1 %A 2 1 1 !
 CONST FCC_A1 : GD TI : VA : !
$
$ Bcc (cI2, Im-3m)
$
 PHASE BCC_A2 %B 2 1 3 !
 CONST BCC_A2 : GD% TI% : VA : !
$
$ Hcp (hP2, P6_3/mmc) and Me2X (NiAs-type, hP4, P6_3/mmc, B8_1)
$
 PHASE HCP_A3 % 2 1 0.5 !
 CONST HCP_A3 : GD% TI% : VA : !
$ ------------------------------------------------------------------------------
$ Defaults
$
 DEFINE-SYSTEM-DEFAULT ELEMENT 2 !
 DEFAULT-COM DEFINE_SYSTEM_ELEMENT VA !
 TYPE-DEF % SEQ * !
 TYPE-DEF A GES AMEND_PHASE_DESCRIPTION @ MAGNETIC -3 0.28 !
 TYPE-DEF B GES AMEND_PHASE_DESCRIPTION @ MAGNETIC -1 0.4 !
 FUNCTION ZERO      298.15  0;                                         6000 N !
 FUNCTION UN_ASS    298.15  0;                                         6000 N !
 FUNCTION R         298.15  +8.31451;                                  6000 N !
$ ------------------------------------------------------------------------------
$ Element data
$ ------------------------------------------------------------------------------
$ Gd
$
$ HCP_A3, BCC_A2 and LIQUID revised in unary 3.0
$ Small correction made to top two temperature ranges of bcc_A2 to ensure 
$ continuity in Gibbs energy, AD, Dec 2002
$ FCC_A1 added in unary 4.4
$
$ FCC_A1 from 03Cac not included in unary
$
 PAR  G(HCP_A3,GD:VA)           200.00  +GHSERGD;                3600 N 95She2 !
 PAR  TC(HCP_A3,GD:VA)          200.00    293.4;                 3600 N 95She2 !
 PAR  BM(HCP_A3,GD:VA)          200.00      3.0;                 3600 N 95She2 !
$PAR  TC(HCP_A3,GD:VA)          200.00    291.8;                 3600 N 91Din !
$PAR  BMAGN(HCP_A3,GD:VA)       200.00      3.0;                 3600 N 91Din !
 PAR  G(FCC_A1,GD:VA)           200.00  +GHSERGD+500;            3600 N 00Zin !
$PAR  G(FCC_A1,GD:VA)           200.00  +GHSERGD
$            +1800-0.831451*T;                                   3600 N 03Cac !
 PAR  G(BCC_A2,GD:VA)           200.00  +GBCCGD;                 3600 N 95She2 !
 PAR  G(LIQUID,GD)              200.00  +GLIQGD;                 3600 N 95She2 !
$
 FUNCTION GHSERGD   200.00  -6834.5855+97.13101*T-24.7214131*T*LN(T)
       -0.00285240521*T**2-3.14674076E-07*T**3-8665.73348*T**(-1);
      1000.00  Y  -6483.25362+95.6919924*T-24.6598297*T*LN(T)
       -0.00185225011*T**2-6.61211607E-07*T**3;
      1508.15  Y  -123124.992+699.125537*T-101.800197*T*LN(T)
       +0.0150644246*T**2-6.39165948E-07*T**3+29356890.3*T**(-1);
      3600.00  N !
 FUNCTION GBCCGD    200.00  +3233.80866-2.11184585*T+GHSERGD;
      1000.00  Y  +152792.743-1349.58873*T+180.097094*T*LN(T)
       -0.119550229*T**2+1.17915728E-05*T**3-22038836*T**(-1);
      1508.15  Y  -15783.7618+202.222183*T-38.960425*T*LN(T);
      1586.15  Y  -19850.5562+224.818035*T-41.904333*T*LN(T)
       +8.58222759E-04*T**2-3.77570269E-08*T**3+995428.573*T**(-1);
      3600.00  N !
 FUNCTION GLIQGD    200.00  +13060.0262-8.32179974*T+GHSERGD;
      1000.00  Y  +146262.037-1208.70685*T+159.352082*T*LN(T)
       -0.108247135*T**2+1.06945505E-05*T**3-19678357*T**(-1);
      1508.15  Y  -5397.314+192.336215*T-38.5075*T*LN(T);
      3600.00  N !
$ ------------------------------------------------------------------------------
$ Ti
$
$ BCT_A5 added in unary 3.0
$
 PAR  G(HCP_A3,TI:VA),,                 +GHSERTI;                4000 N 91Din !
 PAR  G(BCC_A2,TI:VA),,                 +GBCCTI;                 4000 N 91Din !
 PAR  G(FCC_A1,TI:VA),,                 +GHSERTI+6000-0.1*T;     4000 N 91Din !
$PAR  G(CBCC_A12,TI:VA),,               +GHSERTI+4602.2;         4000 N 91Din !
$PAR  G(CUB_A13,TI:VA),,                +GHSERTI+7531.2;         4000 N 91Din !
$PAR  G(DIAMOND_A4,TI),,                +GHSERTI+25000;          4000 N 91Din !
$PAR  G(BCT_A5,TI),,                    +GHSERTI+4602.2;         3000 N SGCOST !
 PAR  G(LIQUID,TI),,                    +GLIQTI;                 4000 N 91Din !
$
 FUNCTION GHSERTI   298.15  -8059.921+133.615208*T-23.9933*T*LN(T)
       -0.004777975*T**2+1.06716E-07*T**3+72636*T**(-1);
       900.00  Y  -7811.815+132.988068*T-23.9887*T*LN(T)
       -0.0042033*T**2-9.0876E-08*T**3+42680*T**(-1);
      1155.00  Y  +908.837+66.976538*T-14.9466*T*LN(T)
       -0.0081465*T**2+2.02715E-07*T**3-1477660*T**(-1);
      1941.00  Y  -124526.786+638.806871*T-87.2182461*T*LN(T)
       +0.008204849*T**2-3.04747E-07*T**3+36699805*T**(-1);
      4000.00  N !
 FUNCTION GBCCTI    298.15  -1272.064+134.71418*T-25.5768*T*LN(T)
       -6.63845E-04*T**2-2.78803E-07*T**3+7208*T**(-1);
      1155.00  Y  +6667.385+105.366379*T-22.3771*T*LN(T)
       +0.00121707*T**2-8.4534E-07*T**3-2002750*T**(-1);
      1941.00  Y  +26483.26-182.426471*T+19.0900905*T*LN(T)
       -0.02200832*T**2+1.228863E-06*T**3+1400501*T**(-1);
      4000.00  N !
 FUNCTION GLIQTI    298.15  +12194.415-6.980938*T+GHSERTI;
      1300.00  Y  +369519.198-2554.0225*T+342.059267*T*LN(T)
       -0.163409355*T**2+1.2457117E-05*T**3-67034516*T**(-1);
      1941.00  Y  -19887.066+298.7367*T-46.29*T*LN(T);
      4000.00  N !
$ ------------------------------------------------------------------------------
$ Binary system
$
$ N. Mattern, J.H. Han, O. Fabrichnaya, M. Zinkevich, W. Loser, J. Werner,
$ R. Nowak, I. Kaban, O. Shuleshova, D. Holland-Moritz, J. Bednarcik,
$ N. Sobczak, J. Eckert, Calphad, 42, 19-26(2013).
$
$ Checked against paper and author's tdb. Checked at 6000 K.
$
 PAR  L(LIQUID,GD,TI;0),,               +93481-30.90272*T;,,          N 13Mat !
 PAR  L(LIQUID,GD,TI;1),,               -8955;,,                      N 13Mat !
$
 PAR  L(BCC_A2,GD,TI:VA;0),,            +39476.4+15.687*T;,,          N 13Mat !
 PAR  L(BCC_A2,GD,TI:VA;1),,            +2152.38;,,                   N 13Mat !
$
 PAR  L(HCP_A3,GD,TI:VA;0),,            +44248.7+19.9839*T;,,         N 13Mat !
 PAR  L(HCP_A3,GD,TI:VA;1),,            +2176.21;,,                   N 13Mat !
$
$ Metastable
$
 PAR  L(FCC_A1,GD,TI:VA;0),,            +44248.7+19.9839*T;,,         N Same !
 PAR  L(FCC_A1,GD,TI:VA;1),,            +2176.21;,,                   N Same !
$ ------------------------------------------------------------------------------
$
$
 LIST-OF-REFERENCE
 NUMBER  SOURCE
  Null   'Unknown source'
  Same   'Same or similar interaction as in the corresponding stable phase'
  REFLAV 'Laves phase convention: G(LAVES,X:X)=+3*GHSERXX+15000'
  SGCOST 'COST 507 database, SGTE unary database V.3.0, 1996; Al, B, Nd, Ti, Zn'
  91Din  'A.T. Dinsdale, Calphad, 15, 317-425(1991).'
  95She2 'H. Shen, W. Zhang, G. Liu, R. Wang, Z. Du, Report F-95-02,
          University of Science and Technology, Beijing, May 1995,
          SGTE unary database V.3.0, 1996; Gd'
  00Zin  'M. Zinkevich, N. Mattern, H. J Seifert,
          J. Phase Equilib., 21, 385-94(2000),
          SGTE unary database V.4.4, 2001; Gd'
  03Cac  'G. Cacciamani, S. De Negri, A. Saccone, R. Ferro,
          Intermetallics, 11, 1135-51(2003); Gd'
  13Mat  'N. Mattern, J.H. Han, O. Fabrichnaya, M. Zinkevich, W. Loser,
          J. Werner, R. Nowak, I. Kaban, O. Shuleshova, D. Holland-Moritz,
          J. Bednarcik, N. Sobczak, J. Eckert, Calphad, 42, 19-26(2013); Gd-Ti'
!
