$
$ Database for Mo-W from E. Zhang et al. 2022.
$
$ E. Zhang, Y. Tang, M. Wen, A. Obaied, I. Roslyakova, L. Zhang,
$ Int. J. Refract. Met. Hard Mater., 103, 105780(2022).
$
$ Dataset created 2023.10.13 by Bengt Hallstedt.
$
$ Element data are claimed to be 3rd generation. Not used here.
$
$ Bcc/B2 ordering included. Va are included in bcc. Thermal vacancies are
$ modelled, but the value for G(BCC_A2,VA:VA) is not given. I have assumed the
$ current standard value. Va are removed. Inclusion of Va increases the
$ elemental melting temperatures considerably.
$
$ ------------------------------------------------------------------------------
 TEMP-LIM 298.15 6000.00 !
$
$ELEMENT NAME  REF. STATE               ATOMIC MASS H298-H0    S298    !
$
 ELEMENT VA   VACUUM                      0.0          0.0      0.0    ! 
 ELEMENT MO   BCC_A2                     95.94      4589.0     28.56   ! 
 ELEMENT W    BCC_A2                    183.85      4970.0     32.6176 ! 
$ ------------------------------------------------------------------------------
$ Phase definitions
$
 PHASE LIQUID:L % 1 1 !
 CONST LIQUID:L : MO W : !
$
$ Fcc (cF4, Fm-3m) and MeX (cF8, Fm-3m)
$
 PHASE FCC_A1 %A 2 1 1 !
 CONST FCC_A1 : MO W : VA : !
$
$ Bcc (cI2, Im-3m)
$
 PHASE BCC_A2 %B 2 1 3 !
 CONST BCC_A2 : MO% W% : VA : !
$
$ Disordered part of B2_BCC, added 0.1 J/mol to A2_BCC
$
 PHASE A2_BCC %B 2 1 3 !
 CONST A2_BCC : MO W : VA : !
$
$ Prototype CsCl (cP2, Pm-3m)
$
 PHASE B2_BCC %BO 3 0.5 0.5 3 !
 CONST B2_BCC : MO W : MO W : VA : !
$
$ Hcp (hP2, P6_3/mmc) and Me2X (NiAs-type, hP4, P6_3/mmc, B8_1)
$
 PHASE HCP_A3 %A 2 1 0.5 !
 CONST HCP_A3 : MO W : VA : !
$ ------------------------------------------------------------------------------
$ Defaults
$
 DEFINE-SYSTEM-DEFAULT ELEMENT 2 !
 DEFAULT-COM DEFINE_SYSTEM_ELEMENT VA !
 TYPE-DEF % SEQ * !
 TYPE-DEF A GES AMEND_PHASE_DESCRIPTION @ MAGNETIC -3 0.28 !
 TYPE-DEF B GES AMEND_PHASE_DESCRIPTION @ MAGNETIC -1 0.4 !
 TYPE-DEF O GES AMEND_PHASE_DESCRIPTION B2_BCC DIS_PART A2_BCC !
 FUNCTION ZERO      298.15  0;                                         6000 N !
 FUNCTION UN_ASS    298.15  0;                                         6000 N !
 FUNCTION R         298.15  +8.31451;                                  6000 N !
$ ------------------------------------------------------------------------------
$ Element data
$ ------------------------------------------------------------------------------
$ Mo
$
 PAR  G(BCC_A2,MO:VA),,                 +GHSERMO;                5000 N 91Din !
 PAR  G(A2_BCC,MO:VA),,                 +GHSERMO+0.1;            5000 N 91Din !
 PAR  G(FCC_A1,MO:VA),,                 +GHSERMO+15200+0.63*T;   5000 N 91Din !
 PAR  G(HCP_A3,MO:VA),,                 +GHSERMO+11550;          5000 N 91Din !
 PAR  G(LIQUID,MO),,                    +GLIQMO;                 5000 N 91Din !
$
$PAR  L(BCC_A2,MO,VA:VA;0),,            +115100-41.89*T;,,            N 22Zha !
$PAR  L(A2_BCC,MO,VA:VA;0),,            +115100-41.89*T;,,            N 22Zha !
$
 FUNCTION GHSERMO   298.15  -7746.302+131.9197*T-23.56414*T*LN(T)
       -0.003443396*T**2+5.66283E-07*T**3+65812*T**(-1)-1.30927E-10*T**4;
      2896.00  Y  -30556.41+283.559746*T-42.63829*T*LN(T)-4.849315E+33*T**(-9);
      5000.00  N !
 FUNCTION GLIQMO    298.15  +41831.347-14.694912*T+GHSERMO+4.24519E-22*T**7;
      2896.00  Y  +3538.963+271.6697*T-42.63829*T*LN(T);
      5000.00  N !
 FUNCTION GFCCMO    298.15  +GHSERMO+15200+0.63*T;                     6000 N !
$ ------------------------------------------------------------------------------
$ W
$
 PAR  G(BCC_A2,W:VA),,                  +GHSERWW;,,                   N 91Din !
 PAR  G(A2_BCC,W:VA),,                  +GHSERWW+0.1;,,               N 91Din !
 PAR  G(FCC_A1,W:VA),,                  +GHSERWW+19300+0.63*T;,,      N 91Din !
 PAR  G(HCP_A3,W:VA),,                  +GHSERWW+14750;,,             N 91Din !
 PAR  G(LIQUID,W),,                     +GLIQWW;,,                    N 91Din !
$
$PAR  L(BCC_A2,W,VA:VA;0),,             +258000-70.11*T;,,            N 22Zha !
$PAR  L(A2_BCC,W,VA:VA;0),,             +258000-70.11*T;,,            N 22Zha !
$
 FUNCTION GHSERWW   298.15  -7646.311+130.4*T-24.1*T*LN(T)
       -0.001936*T**2+2.07E-07*T**3+44500*T**(-1)-5.33E-11*T**4;
      3695.00  Y  -82868.801+389.362335*T-54*T*LN(T)+1.528621E+33*T**(-9);
      6000.00  N !
 FUNCTION GLIQWW    298.15  +52160.584-14.10999*T+GHSERWW-2.713468E-24*T**7;
      3695.00  Y  -30436.051+375.175*T-54*T*LN(T);
      6000.00  N !
 FUNCTION GFCCWW    298.15  +GHSERWW+19300+0.63*T;                     6000 N !
$ ------------------------------------------------------------------------------
$ Va
$
$PAR  G(BCC_A2,VA:VA),,                 +30*T;,,                      N 14Din !
$PAR  G(A2_BCC,VA:VA),,                 +30*T;,,                      N 14Din !
$ ------------------------------------------------------------------------------
$ Binary system
$
$ E. Zhang, Y. Tang, M. Wen, A. Obaied, I. Roslyakova, L. Zhang,
$ Int. J. Refract. Met. Hard Mater., 103, 105780(2022).
$
$ Checked against paper. Checked at 6000 K.
$
$ Element data are claimed to be 3rd generation. Not used here.
$
$ Bcc/B2 ordering included. Va are included in bcc. Thermal vacancies are
$ modelled, but the value for G(BCC_A2,VA:VA) is not given. I have assumed the
$ current standard value. Va are removed. Inclusion of Va increases the
$ elemental melting temperatures considerably.
$
 PAR  L(LIQUID,MO,W;0),,                +ZERO;,,                      N 22Zha !
$
 PAR  L(BCC_A2,MO,W:VA;0),,             +ZERO;,,                      N 22Zha !
 PAR  L(A2_BCC,MO,W:VA;0),,             +ZERO;,,                      N 22Zha !
$
 PAR  G(B2_BCC,MO:W:VA),,               -1260;,,                      N 22Zha !
 PAR  G(B2_BCC,W:MO:VA),,               -1260;,,                      N 22Zha !
$
$ Metastable
$
 PAR  L(FCC_A1,MO,W:VA;0),,             +ZERO;,,                      N Same !
 PAR  L(HCP_A3,MO,W:VA;0),,             +ZERO;,,                      N Same !
$ ------------------------------------------------------------------------------
$
 ASSESSED_SYSTEM
  MO-W(TDB -* +LIQUID +BCC_A2 ;P3 TMM:300/4000 *) !
$
$
 LIST-OF-REFERENCE
 NUMBER  SOURCE
  Null   'Unknown source'
  Same   'Same or similar interaction as in the corresponding stable phase'
  91Din  'A.T. Dinsdale, Calphad, 15, 317-425(1991).'
  14Din  'A.T. Dinsdale, A.V. Khvan, A. Watson,
          Mater. Sci. Technol., 30, 1715-18(2014); Va'
  22Zha  'E. Zhang, Y. Tang, M. Wen, A. Obaied, I. Roslyakova, L. Zhang,
          Int. J. Refract. Met. Hard Mater., 103, 105780(2022); Mo-W'
!
