$
$ Database for Ni-Pt from X.-G. Lu et al. 2009
$
$ X.-G. Lu, B. Sundman, J. Agren, Calphad, 33, 450-56(2009).
$
$ Dataset created 2010.11.14 by Bengt Hallstedt.
$ 2021.02.02: Modified for use with GES6.
$
$ Including a 4-SL ordering model for fcc.
$
$ ------------------------------------------------------------------------------
 TEMP-LIM 298.15 6000.00 !
$
$ELEMENT NAME  REF. STATE               ATOMIC MASS H298-H0    S298    !
$
 ELEMENT VA   VACUUM                      0.0          0.0      0.0    ! 
 ELEMENT NI   FCC_A1                     58.69      4787.0     29.7955 ! 
 ELEMENT PT   FCC_A1                    195.08      5723.712   41.6308 !
$ ------------------------------------------------------------------------------
$ Phase definitions
$
 PHASE LIQUID:L % 1 1 !
 CONST LIQUID:L : NI PT : !
$
$ Fcc (cF4) and MeX (cF8)
$
 PHASE FCC_A1 %A 2 1 1 !
 CONST FCC_A1 : NI% PT% : VA : !
$
$ Disordered part of FCC_4SL, identical to FCC_A1
$
 PHASE A1_FCC %A 2 1 1 !
 CONST A1_FCC : NI PT : VA : !
$
$ Prototype AuCu (L1_0, tP2, P4/mmm) and AuCu3 (L1_2, cP4, Pm-3m)
$
 PHASE FCC_4SL %AY 5 0.25 0.25 0.25 0.25 1 !
 CONST FCC_4SL : NI PT : NI PT : NI PT : NI PT : VA :  !
$
$ Bcc (cI2, Im-3m)
$
 PHASE BCC_A2 %B 2 1 3 !
 CONST BCC_A2 : NI PT : VA : !
$
$ Disordered part of B2_BCC, identical to BCC_A2 (except Va)
$
 PHASE A2_BCC %B 2 1 3 !
 CONST A2_BCC : NI PT VA : VA : !
$
$ Prototype CsCl (cP2, Pm-3m)
$
 PHASE B2_BCC %BO 3 0.5 0.5 3 !
 CONST B2_BCC : NI PT VA : NI PT VA : VA : !
$
$ Hcp (hP2, P6_3/mmc) and Me2X (NiAs-type, hP4, P6_3/mmc, B8_1)
$
 PHASE HCP_A3 %A 2 1 0.5 !
 CONST HCP_A3 : NI PT : VA : !
$ ------------------------------------------------------------------------------
$ Defaults
$
 DEFINE-SYSTEM-DEFAULT ELEMENT 2 !
 DEFAULT-COM DEFINE_SYSTEM_ELEMENT VA !
 TYPE-DEF % SEQ * !
 TYPE-DEF A GES AMEND_PHASE_DESCRIPTION @ MAGNETIC -3 0.28 !
 TYPE-DEF B GES AMEND_PHASE_DESCRIPTION @ MAGNETIC -1 0.4 !
 TYPE-DEF O GES AMEND_PHASE_DESCRIPTION B2_BCC DIS_PART A2_BCC !
 TYPE-DEF Y GES AMEND_PHASE_DESCRIPTION FCC_4SL DIS_PART A1_FCC !
 DEFAULT-COM REJECT_PHASE FCC_A1 BCC_A2 !
 FUNCTION ZERO      298.15  0;                                         6000 N !
 FUNCTION UN_ASS    298.15  0;                                         6000 N !
 FUNCTION R         298.15  +8.31451;                                  6000 N !
$ ------------------------------------------------------------------------------
$ Element data
$ ------------------------------------------------------------------------------
$ Ni
$
$ FCC_A1 and LIQUID modified in unary 5.0 (slight change in upper T interval)
$ BCT_A5 added in unary 5.0
$
 PAR  G(FCC_A1,NI:VA),,                 +GHSERNI;                3000 N 91Din !
 PAR  TC(FCC_A1,NI:VA),,                  633.00;                3000 N 91Din !
 PAR  BM(FCC_A1,NI:VA),,                    0.52;                3000 N 91Din !
 PAR  G(A1_FCC,NI:VA),,                 +GHSERNI;                3000 N 91Din !
 PAR  TC(A1_FCC,NI:VA),,                  633.00;                3000 N 91Din !
 PAR  BM(A1_FCC,NI:VA),,                    0.52;                3000 N 91Din !
 PAR  G(BCC_A2,NI:VA),,                 +GHSERNI
             +8715.084-3.556*T;                                  3000 N 91Din !
 PAR  TC(BCC_A2,NI:VA),,                  575.00;                3000 N 91Din !
 PAR  BM(BCC_A2,NI:VA),,                    0.85;                3000 N 91Din !
 PAR  G(A2_BCC,NI:VA),,                 +GHSERNI
             +8715.084-3.556*T;                                  3000 N 91Din !
 PAR  TC(A2_BCC,NI:VA),,                  575.00;                3000 N 91Din !
 PAR  BM(A2_BCC,NI:VA),,                    0.85;                3000 N 91Din !
 PAR  G(HCP_A3,NI:VA),,                 +GHSERNI+1046+1.255*T;   3000 N 91Din !
 PAR  TC(HCP_A3,NI:VA),,                  633.00;                3000 N 91Din !
 PAR  BM(HCP_A3,NI:VA),,                    0.52;                3000 N 91Din !
$PAR  G(BCT_A5,NI),,                    +GHSERNI+10023-4.556*T;  3000 N 99Gho !
$PAR  G(CBCC_A12,NI:VA),,               +GHSERNI+3556;           3000 N 91Din !
$PAR  G(CUB_A13,NI:VA),,                +GHSERNI+2092;           3000 N 91Din !
 PAR  G(LIQUID,NI),,                    +GLIQNI;                 3000 N 91Din !
$
 PAR  L(A2_BCC,NI,VA:VA;0),,            +GB2NIVA+LB2NIVA;,,           N 99Dup1 !
 PAR  G(B2_BCC,VA:NI:VA),,              +0.5*GB2NIVA-0.5*LB2NIVA;,,   N 99Dup1 !
 PAR  G(B2_BCC,NI:VA:VA),,              +0.5*GB2NIVA-0.5*LB2NIVA;,,   N 99Dup1 !
$
 FUNCTION GHSERNI   298.15  -5179.159+117.854*T-22.096*T*LN(T)-0.0048407*T**2;
      1728.00  Y  -27840.62+279.134977*T-43.1*T*LN(T)+1.12754E+31*T**(-9);
      3000.00  N !
 FUNCTION GLIQNI    298.15  +16414.686-9.397*T+GHSERNI-3.82318E-21*T**7;
      1728.00  Y  -9549.817+268.597977*T-43.1*T*LN(T);
      3000.00  N !
 FUNCTION GBCCNI    298.15  +GHSERNI+8715.084-3.556*T;                 6000 N !
$
 FUNCTION GB2NIVA   298.15  +162397.3-27.40575*T;                      6000 N !
 FUNCTION LB2NIVA   298.15  -64024.38+26.49419*T;                      6000 N !
$ ------------------------------------------------------------------------------
$ Pt
$
 PAR  G(FCC_A1,PT:VA),,                 +GHSERPT;                4000 N 91Din !
 PAR  G(A1_FCC,PT:VA),,                 +GHSERPT;                4000 N 91Din !
 PAR  G(BCC_A2,PT:VA),,                 +GHSERPT+15000-2.4*T;    4000 N 91Din !
 PAR  G(A2_BCC,PT:VA),,                 +GHSERPT+15000-2.4*T;    4000 N 91Din !
 PAR  G(HCP_A3,PT:VA),,                 +GHSERPT+2500+0.1*T;     4000 N 91Din !
 PAR  G(LIQUID,PT),,                    +GLIQPT;                 4000 N 91Din !
$
 PAR  L(A2_BCC,PT,VA:VA;0),,            +2*GB2PTVA+2*LB2PTVA;,,       N 09Lu !
 PAR  G(B2_BCC,VA:PT:VA),,              +GB2PTVA-LB2PTVA;,,           N 09Lu !
 PAR  G(B2_BCC,PT:VA:VA),,              +GB2PTVA-LB2PTVA;,,           N 09Lu !
$
 FUNCTION GHSERPT   298.15  -7595.631+124.388275*T-24.5526*T*LN(T)
       -0.00248297*T**2-2.0138E-08*T**3+7974*T**(-1);
      1300.00  Y  -9253.174+161.529615*T-30.2527*T*LN(T)
       +0.002321665*T**2-6.56946E-07*T**3-272106*T**(-1);
      2041.50  Y  -222048.216+1019.35892*T-136.192996*T*LN(T)
       +0.020454938*T**2-7.59259E-07*T**3+71539020*T**(-1);
      4000.00  N !
 FUNCTION GLIQPT    298.15  +20114.016-9.275183*T+GHSERPT;
       600.00  Y  +19023.491+32.94182*T-12.3403769*T*LN(T)
       -0.011551507*T**2+9.31516E-07*T**3-601426*T**(-1);
      2041.50  Y  +1404.468+205.858962*T-36.5*T*LN(T);
      4000.00  N !
 FUNCTION GBCCPT    298.15  +GHSERPT+15000-2.4*T;                      6000 N !
$
 FUNCTION GB2PTVA   298.15  +100000;                                   6000 N !
 FUNCTION LB2PTVA   298.15  +ZERO;                                     6000 N !
$ ------------------------------------------------------------------------------
$ Va
$
 PAR  G(A2_BCC,VA:VA),,                 +ZERO;,,                      N 99Dup1 !
$ ------------------------------------------------------------------------------
$ Binary system
$
$ X.-G. Lu, B. Sundman, J. Agren, Calphad, 33, 450-56(2009).
$
$ Checked against paper. Checked at 6000 K.
$
$ Including a 4-SL ordering model for fcc.
$
 PAR  L(LIQUID,NI,PT;0),,               -40775.6;,,                   N 09Lu !
 PAR  L(LIQUID,NI,PT;1),,               -5500;,,                      N 09Lu !
 PAR  L(LIQUID,NI,PT;2),,               +3500;,,                      N 09Lu !
$
 PAR  L(FCC_A1,NI,PT:VA;0),,            +LDF0NIPT;,,                  N 09Lu !
 PAR  L(FCC_A1,NI,PT:VA;1),,            +LDF1NIPT;,,                  N 09Lu !
 PAR  L(FCC_A1,NI,PT:VA;2),,            +LDF2NIPT;,,                  N 09Lu !
 PAR  L(FCC_A1,NI,PT:VA;3),,            +LDF3NIPT;,,                  N 09Lu !
 PAR  L(FCC_A1,NI,PT:VA;4),,            +LDF4NIPT;,,                  N 09Lu !
$
 PAR  L(A1_FCC,NI,PT:VA;0),,            +LDF0NIPT;,,                  N 09Lu !
 PAR  L(A1_FCC,NI,PT:VA;1),,            +LDF1NIPT;,,                  N 09Lu !
 PAR  L(A1_FCC,NI,PT:VA;2),,            +LDF2NIPT;,,                  N 09Lu !
 PAR  L(A1_FCC,NI,PT:VA;3),,            +LDF3NIPT;,,                  N 09Lu !
 PAR  L(A1_FCC,NI,PT:VA;4),,            +LDF4NIPT;,,                  N 09Lu !
$
 PAR  G(FCC_4SL,PT:NI:NI:NI:VA),,       +GFNI3PT1;,,                  N 09Lu !
 PAR  G(FCC_4SL,NI:PT:NI:NI:VA),,       +GFNI3PT1;,,                  N 09Lu !
 PAR  G(FCC_4SL,PT:PT:NI:NI:VA),,       +GFNI2PT2;,,                  N 09Lu !
 PAR  G(FCC_4SL,NI:NI:PT:NI:VA),,       +GFNI3PT1;,,                  N 09Lu !
 PAR  G(FCC_4SL,PT:NI:PT:NI:VA),,       +GFNI2PT2;,,                  N 09Lu !
 PAR  G(FCC_4SL,NI:PT:PT:NI:VA),,       +GFNI2PT2;,,                  N 09Lu !
 PAR  G(FCC_4SL,PT:PT:PT:NI:VA),,       +GFNI1PT3;,,                  N 09Lu !
 PAR  G(FCC_4SL,NI:NI:NI:PT:VA),,       +GFNI3PT1;,,                  N 09Lu !
 PAR  G(FCC_4SL,PT:NI:NI:PT:VA),,       +GFNI2PT2;,,                  N 09Lu !
 PAR  G(FCC_4SL,NI:PT:NI:PT:VA),,       +GFNI2PT2;,,                  N 09Lu !
 PAR  G(FCC_4SL,PT:PT:NI:PT:VA),,       +GFNI1PT3;,,                  N 09Lu !
 PAR  G(FCC_4SL,NI:NI:PT:PT:VA),,       +GFNI2PT2;,,                  N 09Lu !
 PAR  G(FCC_4SL,PT:NI:PT:PT:VA),,       +GFNI1PT3;,,                  N 09Lu !
 PAR  G(FCC_4SL,NI:PT:PT:PT:VA),,       +GFNI1PT3;,,                  N 09Lu !
 PAR  L(FCC_4SL,NI:NI:NI,PT:NI,PT:VA;0),,  +RFNINI;,,                 N 09Lu !
 PAR  L(FCC_4SL,NI:NI,PT:NI:NI,PT:VA;0),,  +RFNINI;,,                 N 09Lu !
 PAR  L(FCC_4SL,NI,PT:NI:NI:NI,PT:VA;0),,  +RFNINI;,,                 N 09Lu !
 PAR  L(FCC_4SL,NI:NI,PT:NI,PT:NI:VA;0),,  +RFNINI;,,                 N 09Lu !
 PAR  L(FCC_4SL,NI,PT:NI:NI,PT:NI:VA;0),,  +RFNINI;,,                 N 09Lu !
 PAR  L(FCC_4SL,NI,PT:NI,PT:NI:NI:VA;0),,  +RFNINI;,,                 N 09Lu !
 PAR  L(FCC_4SL,PT:PT:NI,PT:NI,PT:VA;0),,  +RFPTPT;,,                 N 09Lu !
 PAR  L(FCC_4SL,PT:NI,PT:PT:NI,PT:VA;0),,  +RFPTPT;,,                 N 09Lu !
 PAR  L(FCC_4SL,NI,PT:PT:PT:NI,PT:VA;0),,  +RFPTPT;,,                 N 09Lu !
 PAR  L(FCC_4SL,PT:NI,PT:NI,PT:PT:VA;0),,  +RFPTPT;,,                 N 09Lu !
 PAR  L(FCC_4SL,NI,PT:PT:NI,PT:PT:VA;0),,  +RFPTPT;,,                 N 09Lu !
 PAR  L(FCC_4SL,NI,PT:NI,PT:PT:PT:VA;0),,  +RFPTPT;,,                 N 09Lu !
 PAR  L(FCC_4SL,NI,PT:NI,PT:NI:PT:VA;0),,  +RFNIPT;,,                 N 09Lu !
 PAR  L(FCC_4SL,NI,PT:NI,PT:PT:NI:VA;0),,  +RFNIPT;,,                 N 09Lu !
 PAR  L(FCC_4SL,NI,PT:NI:NI,PT:PT:VA;0),,  +RFNIPT;,,                 N 09Lu !
 PAR  L(FCC_4SL,NI,PT:PT:NI,PT:NI:VA;0),,  +RFNIPT;,,                 N 09Lu !
 PAR  L(FCC_4SL,NI,PT:NI:PT:NI,PT:VA;0),,  +RFNIPT;,,                 N 09Lu !
 PAR  L(FCC_4SL,NI,PT:PT:NI:NI,PT:VA;0),,  +RFNIPT;,,                 N 09Lu !
 PAR  L(FCC_4SL,NI:NI,PT:NI,PT:PT:VA;0),,  +RFNIPT;,,                 N 09Lu !
 PAR  L(FCC_4SL,PT:NI,PT:NI,PT:NI:VA;0),,  +RFNIPT;,,                 N 09Lu !
 PAR  L(FCC_4SL,NI:NI,PT:PT:NI,PT:VA;0),,  +RFNIPT;,,                 N 09Lu !
 PAR  L(FCC_4SL,PT:NI,PT:NI:NI,PT:VA;0),,  +RFNIPT;,,                 N 09Lu !
 PAR  L(FCC_4SL,NI:PT:NI,PT:NI,PT:VA;0),,  +RFNIPT;,,                 N 09Lu !
 PAR  L(FCC_4SL,PT:NI:NI,PT:NI,PT:VA;0),,  +RFNIPT;,,                 N 09Lu !
$
$ Metastable
$
 PAR  L(BCC_A2,NI,PT:VA;0),,            +2*GB2NIPT+2*LB2NIPT;,,       N 09Lu !
 PAR  L(A2_BCC,NI,PT:VA;0),,            +2*GB2NIPT+2*LB2NIPT;,,       N 09Lu !
$
 PAR  G(B2_BCC,NI:PT:VA),,              +GB2NIPT-LB2NIPT;,,           N 09Lu !
 PAR  G(B2_BCC,PT:NI:VA),,              +GB2NIPT-LB2NIPT;,,           N 09Lu !
$
 FUNCTION RFNINI    298.15  -3670;                                     6000 N !
 FUNCTION RFNIPT    298.15  -3250;                                     6000 N !
 FUNCTION RFPTPT    298.15  -2730;                                     6000 N !
 FUNCTION GNI3PT1   298.15  -10900;                                    6000 N !
 FUNCTION GNI2PT2   298.15  -13500-0.5*T;                              6000 N !
 FUNCTION GNI1PT3   298.15  -8300-0.5*T;                               6000 N !
 FUNCTION L0FNIPT   298.15  +6875+2.74425*T;                           6000 N !
 FUNCTION L1FNIPT   298.15  -1625;                                     6000 N !
 FUNCTION GFNI3PT1  298.15  +GNI3PT1-0.75*L0FNIPT-0.375*L1FNIPT;       6000 N !
 FUNCTION GFNI2PT2  298.15  +GNI2PT2-L0FNIPT;                          6000 N !
 FUNCTION GFNI1PT3  298.15  +GNI1PT3-0.75*L0FNIPT+0.375*L1FNIPT;       6000 N !
 FUNCTION LDF0NIPT  298.15  +4*L0FNIPT+0.375*RFNINI+0.75*RFNIPT
       +0.375*RFPTPT+GFNI3PT1+1.5*GFNI2PT2+GFNI1PT3;
      6000.00  N !
 FUNCTION LDF1NIPT  298.15  +4*L1FNIPT+0.75*RFNINI-0.75*RFPTPT
       +2*GFNI3PT1-2*GFNI1PT3;
      6000.00  N !
 FUNCTION LDF2NIPT  298.15  -1.5*RFNIPT+GFNI3PT1-1.5*GFNI2PT2
       +GFNI1PT3;
      6000.00  N !
 FUNCTION LDF3NIPT  298.15  -0.75*RFNINI+0.75*RFPTPT;                  6000 N !
 FUNCTION LDF4NIPT  298.15  -0.375*RFNINI+0.75*RFNIPT-0.375*RFPTPT;    6000 N !
$
 FUNCTION GB2NIPT   298.15  -20000;                                    6000 N !
 FUNCTION LB2NIPT   298.15  -5000;                                     6000 N !
$ ------------------------------------------------------------------------------
$
$
 LIST-OF-REFERENCE
 NUMBER  SOURCE
  Null   'Unknown source'
  COST   'COST 507 database'
  91Din  'A.T. Dinsdale, Calphad, 15, 317-425(1991).'
  99Dup1 'N. Dupin, I. Ansara, Z. Metallkd., 90, 76-85(1999); Al-Ni'
  99Gho  'G. Ghosh, Metall. Mater. Trans. A, 30A, 1481-94(1999),
          SGTE unary database V.5.0, 2009; Ni'
  09Lu   'X.-G. Lu, B. Sundman, J. Agren, Calphad, 33, 450-56(2009); Ni-Pt'
!
