$
$ Database for Nb-W from W. Huang and M. Selleby 1997 (Included in LB Vol. 4)
$
$ W. Huang, M. Selleby, Z. Metallkd., 88, 55-62(1997).
$
$ Dataset created 2014.04.06 by Bengt Hallstedt.
$ 2021.01.31: Modified for use with GES6.
$
$ ------------------------------------------------------------------------------
 TEMP-LIM 298.15 6000.00 !
$
$ELEMENT NAME  REF. STATE               ATOMIC MASS H298-H0    S298    !
$
 ELEMENT VA   VACUUM                      0.0          0.0      0.0    ! 
 ELEMENT NB   BCC_A2                     92.9064    5220.0     36.27   ! 
 ELEMENT W    BCC_A2                    183.85      4970.0     32.6176 ! 
$ ------------------------------------------------------------------------------
$ Phase definitions
$
 PHASE LIQUID:L % 1 1 !
 CONST LIQUID:L : NB W : !
$
$ Fcc (cF4, Fm-3m) and MeX (cF8, Fm-3m)
$
 PHASE FCC_A1 %A 2 1 1 !
 CONST FCC_A1 : NB W : VA : !
$
$ Bcc (cI2, Im-3m)
$
 PHASE BCC_A2 %B 2 1 3 !
 CONST BCC_A2 : NB% W% : VA : !
$
$ Hcp (hP2, P6_3/mmc) and Me2X (NiAs-type, hP4, P6_3/mmc, B8_1)
$
 PHASE HCP_A3 %A 2 1 0.5 !
 CONST HCP_A3 : NB W : VA : !
$ ------------------------------------------------------------------------------
$ Defaults
$
 DEFINE-SYSTEM-DEFAULT ELEMENT 2 !
 DEFAULT-COM DEFINE_SYSTEM_ELEMENT VA !
 TYPE-DEF % SEQ * !
 TYPE-DEF A GES AMEND_PHASE_DESCRIPTION @ MAGNETIC -3 0.28 !
 TYPE-DEF B GES AMEND_PHASE_DESCRIPTION @ MAGNETIC -1 0.4 !
 FUNCTION ZERO      298.15  0;                                         6000 N !
 FUNCTION UN_ASS    298.15  0;                                         6000 N !
 FUNCTION R         298.15  +8.31451;                                  6000 N !
$ ------------------------------------------------------------------------------
$ Element data
$ ------------------------------------------------------------------------------
$ Nb
$
 PAR  G(BCC_A2,NB:VA),,                 +GHSERNB;,,                   N 91Din !
 PAR  G(FCC_A1,NB:VA),,                 +GHSERNB+13500+1.7*T;,,       N 91Din !
 PAR  G(HCP_A3,NB:VA),,                 +GHSERNB+10000+2.4*T;,,       N 91Din !
 PAR  G(LIQUID,NB),,                    +GLIQNB;,,                    N 91Din !
$
 FUNCTION GHSERNB   298.15  -8519.353+142.045475*T-26.4711*T*LN(T)
       +2.03475E-04*T**2-3.5012E-07*T**3+93399*T**(-1);
      2750.00  Y  -37669.3+271.720843*T-41.77*T*LN(T)+1.528238E+32*T**(-9);
      6000.00  N !
 FUNCTION GLIQNB    298.15  +29781.555-10.816418*T+GHSERNB-3.06098E-23*T**7;
      2750.00  Y  -7499.398+260.756148*T-41.77*T*LN(T);
      6000.00  N !
$ ------------------------------------------------------------------------------
$ W
$
 PAR  G(BCC_A2,W:VA),,                  +GHSERWW;,,                   N 91Din !
 PAR  G(FCC_A1,W:VA),,                  +GHSERWW+19300+0.63*T;,,      N 91Din !
 PAR  G(HCP_A3,W:VA),,                  +GHSERWW+14750;,,             N 91Din !
 PAR  G(LIQUID,W),,                     +GLIQWW;,,                    N 91Din !
$
 FUNCTION GHSERWW   298.15  -7646.311+130.4*T-24.1*T*LN(T)
       -0.001936*T**2+2.07E-07*T**3+44500*T**(-1)-5.33E-11*T**4;
      3695.00  Y  -82868.801+389.362335*T-54*T*LN(T)+1.528621E+33*T**(-9);
      6000.00  N !
 FUNCTION GLIQWW    298.15  +52160.584-14.10999*T+GHSERWW-2.713468E-24*T**7;
      3695.00  Y  -30436.051+375.175*T-54*T*LN(T);
      6000.00  N !
$ ------------------------------------------------------------------------------
$ Binary system
$
$ From W. Huang and M. Selleby 1997 (Included in LB Vol. 4)
$
$ W. Huang, M. Selleby, Z. Metallkd., 88, 55-62(1997).
$
$ Checked against LB. Checked at 6000K.
$
 PAR  L(LIQUID,NB,W;0),,                -34043+3.603*T;,,             N 97Hua !
$
 PAR  L(BCC_A2,NB,W:VA;0),,             -34343+6.074*T;,,             N 97Hua !
$
$ Metastable
$
 PAR  L(FCC_A1,NB,W:VA;0),,             -34343+6.074*T;,,             N Same !
 PAR  L(HCP_A3,NB,W:VA;0),,             -34343+6.074*T;,,             N Same !
$ ------------------------------------------------------------------------------
$
 ASSESSED_SYSTEM
  NB-W(TDB -* +LIQUID +BCC_A2 ;P3 TMM:300/4000 *) !
$
$
 LIST-OF-REFERENCE
 NUMBER  SOURCE
  Null   'Unknown source'
  Same   'Same or similar interaction as in the corresponding stable phase'
  REFLAV 'Laves phase convention: G(LAVES,X:X)=+3*GHSERXX+15000'
  COST   'COST 507 database'
  91Din  'A.T. Dinsdale, Calphad, 15, 317-425(1991).'
  97Hua  'W. Huang, M. Selleby, Z. Metallkd., 88, 55-62(1997); Nb-W'
!
