$
$ Database for Nb-C from W. Huang 1990
$
$ W. Huang, Mater. Sci. Technol., 6, 687-94(1990).
$
$ Dataset created 2010.02.14 by Bengt Hallstedt.
$ 2020.08.15: Modified for use with GES6.
$
$ The congruent melting temperature of NbC is 3882 K here and 3887 K in the
$ paper. NbC refers to bcc-Nb without the temperature range above 2750 K.
$
$ Bcc has an inverse stability range around x(C)=0.5 with a minimum at 4400K.
$
$ ------------------------------------------------------------------------------
 TEMP-LIM 298.15 6000.00 !
$
$ELEMENT NAME  REF. STATE               ATOMIC MASS H298-H0    S298    !
$
 ELEMENT VA   VACUUM                      0.0          0.0      0.0    ! 
 ELEMENT C    GRAPHITE_A9                12.011     1054.0      5.7423 ! 
 ELEMENT NB   BCC_A2                     92.9064    5220.0     36.27   ! 
$ ------------------------------------------------------------------------------
$ Phase definitions
$
 PHASE LIQUID:L % 1 1 !
 CONST LIQUID:L : C NB : !
$
$ Fcc (cF4, Fm-3m) and MeX (cF8, Fm-3m)
$
 PHASE FCC_A1 %A 2 1 1 !
 CONST FCC_A1 : NB : C VA% : !
$
$ Bcc (cI2, Im-3m)
$
 PHASE BCC_A2 %B 2 1 3 !
 CONST BCC_A2 : NB% : C VA% : !
$
$ Hcp (hP2, P6_3/mmc) and Me2X (NiAs-type, hP4, P6_3/mmc, B8_1)
$
 PHASE HCP_A3 %A 2 1 0.5 !
 CONST HCP_A3 : NB : C VA% : !
$
$ Prototype C (cF8, Fd-3m)
$
 PHASE DIAMOND_A4 % 1 1 !
 CONST DIAMOND_A4 : C : !
$
$ Prototype C (hP4, P6_3/mmc)
$
 PHASE GRAPHITE_A9 % 1 1 !
 CONST GRAPHITE_A9 : C : !
$ ------------------------------------------------------------------------------
$ Defaults
$
 DEFINE-SYSTEM-DEFAULT ELEMENT 2 !
 DEFAULT-COM DEFINE_SYSTEM_ELEMENT VA !
 TYPE-DEF % SEQ * !
 TYPE-DEF A GES AMEND_PHASE_DESCRIPTION @ MAGNETIC -3 0.28 !
 TYPE-DEF B GES AMEND_PHASE_DESCRIPTION @ MAGNETIC -1 0.4 !
 FUNCTION ZERO      298.15  0;                                         6000 N !
 FUNCTION UN_ASS    298.15  0;                                         6000 N !
 FUNCTION R         298.15  +8.31451;                                  6000 N !
$ ------------------------------------------------------------------------------
$ Element data
$ ------------------------------------------------------------------------------
$ C
$
 PAR  G(GRAPHITE_A9,C),,                +GHSERCC;,,                   N 91Din !
 PAR  G(DIAMOND_A4,C),,                 +GDIACC;,,                    N 91Din !
 PAR  G(LIQUID,C),,                     +GHSERCC+117369-24.63*T;,,    N 91Din !
$
 FUNCTION GHSERCC   298.15  -17368.441+170.73*T-24.3*T*LN(T)
       -4.723E-04*T**2+2562600*T**(-1)-2.643E+08*T**(-2)+1.2E+10*T**(-3);
      6000.00  N !
 FUNCTION GDIACC    298.15  -16359.441+175.61*T-24.31*T*LN(T)
       -4.723E-04*T**2+2698000*T**(-1)-2.61E+08*T**(-2)+1.11E+10*T**(-3);
      6000.00  N !
$ ------------------------------------------------------------------------------
$ Nb
$
 PAR  G(BCC_A2,NB:VA),,                 +GHSERNB;,,                   N 91Din !
 PAR  G(FCC_A1,NB:VA),,                 +GHSERNB+13500+1.7*T;,,       N 91Din !
 PAR  G(HCP_A3,NB:VA),,                 +GHSERNB+10000+2.4*T;,,       N 91Din !
 PAR  G(LIQUID,NB),,                    +GLIQNB;,,                    N 91Din !
$
 FUNCTION GHSERNB   298.15  -8519.353+142.045475*T-26.4711*T*LN(T)
       +2.03475E-04*T**2-3.5012E-07*T**3+93399*T**(-1);
      2750.00  Y  -37669.3+271.720843*T-41.77*T*LN(T)+1.528238E+32*T**(-9);
      6000.00  N !
 FUNCTION GLIQNB    298.15  +29781.555-10.816418*T+GHSERNB-3.06098E-23*T**7;
      2750.00  Y  -7499.398+260.756148*T-41.77*T*LN(T);
      6000.00  N !
 FUNCTION GHYPNB    298.15  -8519.353+142.045475*T-26.4711*T*LN(T)
       +2.03475E-04*T**2-3.5012E-07*T**3+93399*T**(-1);
      6000.00  N !
$ ------------------------------------------------------------------------------
$ Binary system
$
$ W. Huang, Mater. Sci. Technol., 6, 687-94(1990).
$
$ Checked against paper. Checked at 6000K.
$
$ The congruent melting temperature of NbC is 3882 K here and 3887 K in the
$ paper. NbC refers to bcc-Nb without the temperature range above 2750 K.
$
$ Bcc has an inverse stability range around x(C)=0.5 with a minimum at 4400K.
$
 PAR  L(LIQUID,C,NB;0),,                -307547+33.826*T;,,           N 90Hua4 !
 PAR  L(LIQUID,C,NB;1),,                +38733;,,                     N 90Hua4 !
 PAR  L(LIQUID,C,NB;2),,                +79703;,,                     N 90Hua4 !
$
 PAR  G(FCC_A1,NB:C),,                  +GHYPNB+GHSERCC
             -136399+43.8135*T-5.497*T*LN(T)+0.00173994*T**2;,,       N 90Hua4 !
 PAR  L(FCC_A1,NB:C,VA;0),,             -98823+11.525*T;,,            N 90Hua4 !
$
 PAR  G(BCC_A2,NB:C),,                  +GHSERNB+3*GHSERCC
             +313790-50*T;,,                                          N 90Hua4 !
 PAR  L(BCC_A2,NB:C,VA;0),,             -452303;,,                    N 90Hua4 !
$
 PAR  G(HCP_A3,NB:C),,                  +GHSERNB+0.5*GHSERCC
             -98671+29.362*T-3.5148*T*LN(T)+0.00138537*T**2;,,        N 90Hua4 !
 PAR  L(HCP_A3,NB:C,VA;0),,             +14389-5.26*T;,,              N 90Hua4 !
$
$ Metastable
$
$PAR  G(CEMENTITE_D011,NB:C),,          +3*GHSERNB+GHSERCC-86000;,,   N 90Hua3 !
$ ------------------------------------------------------------------------------
$
 ASSESSED_SYSTEM
  C-NB(TDB -* +LIQ +GRAP +BCC_A2 +HCP_A3 +FCC_A1
  ;G5 C_S:FCC_A1/NB:C C_S:HCP_A3/NB:C ;P3 TMM:300/5000 STP:.99/2200/-2) !
$
$
 LIST-OF-REFERENCE
 NUMBER  SOURCE
  Null   'Unknown source'
  Same   'Same or similar interaction as in the corresponding stable phase'
  REFLAV 'Laves phase convention: G(LAVES,X:X)=+3*GHSERXX+15000'
  COST   'COST 507 database'
  90Hua3 'W. Huang, Z. Metallkd., 81, 397-404(1990); Fe-Nb-C'
  90Hua4 'W. Huang, Mater. Sci. Technol., 6, 687-94(1990); Nb-C'
  91Din  'A.T. Dinsdale, Calphad, 15, 317-425(1991).'
!
