$
$ Database for Y-C from J. Groebner et al. 1995 (Included in LB Vol. 2)
$
$ J. Groebner, H.-L. Lukas, F. Aldinger, J. Alloys Compd., 220, 8-14(1995).
$
$ Dataset created 2015.03.22 by Bengt Hallstedt.
$ 2019.06.15: Changed phase name Y2C3_ALPHA to Y2C3_D5C
$ 2021.02.05: Modified for use with GES6.
$
$ In the paper the hcp phase is modelled with a 1:1 model. This was changed
$ to the standard 1:0.5 model in LBall-v7+fun.tdb.
$
$ In LB the liquid is described using an ionic liquid model. Here a normal
$ liquid model is used. The parameter values are the same.
$
$ There are misprints in the parameter table in the paper.
$
$ This dataset reproduces LB. Invariant equilibria differ by up to 4 K compared
$ to the paper. The reason is probably the changed description of unary Y.
$
$ ------------------------------------------------------------------------------
 TEMP-LIM 298.15 6000.00 !
$
$ELEMENT NAME  REF. STATE               ATOMIC MASS H298-H0    S298    !
$
 ELEMENT VA   VACUUM                      0.0          0.0      0.0    ! 
 ELEMENT C    GRAPHITE                   12.011     1054.0      5.7423 ! 
 ELEMENT Y    HCP_A3                     88.9059    5983.457   44.7875 ! 
$ ------------------------------------------------------------------------------
$ Species
$
 SPECIE  C2                                 C2 !
$ ------------------------------------------------------------------------------
$ Phase definitions
$
 PHASE LIQUID:L % 1 1 !
 CONST LIQUID:L : C Y : !
$
$ Fcc (cF4, Fm-3m) and MeX (cF8, Fm-3m)
$
 PHASE FCC_A1 %A 2 1 1 !
 CONST FCC_A1 : Y : C% VA : !
$
$ Bcc (cI2, Im-3m)
$
 PHASE BCC_A2 %B 2 1 3 !
 CONST BCC_A2 : Y : C VA% : !
$
$ Hcp (hP2, P6_3/mmc) and Me2X (NiAs-type, hP4, P6_3/mmc, B8_1)
$
 PHASE HCP_A3 %A 2 1 0.5 !
 CONST HCP_A3 : Y : C VA% : !
$
$ Prototype C (cF8, Fd-3m)
$
 PHASE DIAMOND_A4 % 1 1 !
 CONST DIAMOND_A4 : C : !
$
$ Prototype C (hP4, P6_3/mmc)
$
 PHASE GRAPHITE_A9 % 1 1 !
 CONST GRAPHITE_A9 : C : !
$
$ Prototype NaCl (cF8, Fm-3m)
$
 PHASE YC_B1 % 2 1 1 !
 CONST YC_B1 : Y : C C2 VA : !
$
$ Prototype alpha-Y15C19 (oP18, Pbam)
$
 PHASE Y15C19_ALPHA % 2 15 19 !
 CONST Y15C19_ALPHA : Y : C : !
$
$ Unknown structure
$
 PHASE Y15C19_BETA % 2 15 19 !
 CONST Y15C19_BETA : Y : C : !
$
$ Prototype Pu2C3 (cI40, I-43d)
$
 PHASE Y2C3_D5C % 3 2 2 1 !
 CONST Y2C3_D5C : Y : C : C VA : !
$
$ Unknown structure
$
 PHASE Y2C3_BETA % 3 2 2 1 !
 CONST Y2C3_BETA : Y : C : C VA : !
$
$ Prototype CaC2 (tI6, I4/mmm)
$
 PHASE YC2_C11A % 2 1 2 !
 CONST YC2_C11A : Y : C : !
$ ------------------------------------------------------------------------------
$ Defaults
$
 DEFINE-SYSTEM-DEFAULT ELEMENT 2 !
 DEFAULT-COM DEFINE_SYSTEM_ELEMENT VA !
 TYPE-DEF % SEQ * !
 TYPE-DEF A GES AMEND_PHASE_DESCRIPTION @ MAGNETIC -3 0.28 !
 TYPE-DEF B GES AMEND_PHASE_DESCRIPTION @ MAGNETIC -1 0.4 !
 FUNCTION ZERO      298.15  0;                                         6000 N !
 FUNCTION UN_ASS    298.15  0;                                         6000 N !
 FUNCTION R         298.15  +8.31451;                                  6000 N !
$ ------------------------------------------------------------------------------
$ Element data
$ ------------------------------------------------------------------------------
$ C
$
 PAR  G(GRAPHITE_A9,C),,                +GHSERCC;,,                   N 91Din !
 PAR  G(DIAMOND_A4,C),,                 +GDIACC;,,                    N 91Din !
 PAR  G(LIQUID,C),,                     +GHSERCC+117369-24.63*T;,,    N 91Din !
$
 FUNCTION GHSERCC   298.15  -17368.441+170.73*T-24.3*T*LN(T)
       -4.723E-04*T**2+2562600*T**(-1)-2.643E+08*T**(-2)+1.2E+10*T**(-3);
      6000.00  N !
 FUNCTION GDIACC    298.15  -16359.441+175.61*T-24.31*T*LN(T)
       -4.723E-04*T**2+2698000*T**(-1)-2.61E+08*T**(-2)+1.11E+10*T**(-3);
      6000.00  N !
$ ------------------------------------------------------------------------------
$ Y
$
$ HCP_A3, BCC_A2 and LIQUID revised in unary 3.0
$ FCC_A1 added in unary 4.1
$
 PAR  G(HCP_A3,Y:VA)            100.00  +GHSERYY;                3700 N 95She3 !
 PAR  G(BCC_A2,Y:VA)            100.00  +GBCCYY;                 3700 N 95She3 !
 PAR  G(FCC_A1,Y:VA)            100.00  +GHSERYY+6000;           3700 N Frie2 !
 PAR  G(LIQUID,Y)               100.00  +GLIQYY;                 3700 N 95She3 !
$
 PAR  G(YC_B1,Y:VA)             100.00  +GHSERYY+7500;           3700 N 95Gro !
$
 FUNCTION GHSERYY   100.00  -8011.09379+128.572856*T-25.6656992*T*LN(T)
       -0.00175716414*T**2-4.17561786E-07*T**3+26911.509*T**(-1);
      1000.00  Y  -7179.74574+114.497104*T-23.4941827*T*LN(T)
       -0.0038211802*T**2-8.2534534E-08*T**3;
      1795.15  Y  -67480.7761+382.124727*T-56.9527111*T*LN(T)
       +0.00231774379*T**2-7.22513088E-08*T**3+18077162.6*T**(-1);
      3700.00  N !
 FUNCTION GBCCYY    100.00  -833.658863+123.667346*T-25.5832578*T*LN(T)
       -0.00237175965*T**2+9.10372497E-09*T**3+27340.0687*T**(-1);
      1000.00  Y  -1297.79829+134.528352*T-27.3038477*T*LN(T)
       -5.41757644E-04*T**2-3.05012175E-07*T**3;
      1795.15  Y  +15389.4975+0.981325399*T-8.88296647*T*LN(T)
       -0.00904576576*T**2+4.02944768E-07*T**3-2542575.96*T**(-1);
      3700.00  N !
 FUNCTION GLIQYY    100.00  +2098.50738+119.41873*T-24.6467508*T*LN(T)
       -0.00347023463*T**2-8.12981167E-07*T**3+23713.7332*T**(-1);
      1000.00  Y  +7386.44846+19.4520171*T-9.0681627*T*LN(T)
       -0.0189533369*T**2+1.7595327E-06*T**3;
      1795.15  Y  -12976.5957+257.400783*T-43.0952*T*LN(T);
      3700.00  N !
$ ------------------------------------------------------------------------------
$ Binary system
$
$ From J. Groebner et al. 1995 (Included in LB Vol. 2)
$
$ J. Groebner, H.-L. Lukas, F. Aldinger, J. Alloys Compd., 220, 8-14(1995).
$
$ Checked against LB and paper. Checked at 6000K.
$
$ In the paper the hcp phase is modelled with a 1:1 model. This was changed
$ to the standard 1:0.5 model in LBall-v7+fun.tdb.
$
$ In LB the liquid is described using an ionic liquid model. Here a normal
$ liquid model is used. The parameter values are the same.
$
$ There are misprints in the parameter table in the paper.
$
$ This dataset reproduces LB. Invariant equilibria differ by up to 4 K compared
$ to the paper. The reason is probably the changed description of unary Y.
$
 PAR  L(LIQUID,C,Y;0),,                 -264500-13*T;,,               N 95Gro !
 PAR  L(LIQUID,C,Y;1),,                 -66000-22*T;,,                N 95Gro !
$
 PAR  G(BCC_A2,Y:C),,                   +GBCCYY+3*GHSERCC
             +229540-32*T;,,                                          N 95Gro !
 PAR  L(BCC_A2,Y:C,VA;0),,              -548793.86-3*T;,,             N 95Gro !
 PAR  L(BCC_A2,Y:C,VA;3),,              -90000;,,                     N 95Gro !
$
 PAR  G(HCP_A3,Y:C),,                   +GHSERYY+0.5*GHSERCC
             -34800-16*T;,,                                           N 95Gro !
 PAR  L(HCP_A3,Y:C,VA;0),,              +26380-14.7*T;,,              N 95Gro !
$
 PAR  G(YC_B1,Y:C),,                    +GHSERYY+GHSERCC
             -50000-24*T;,,                                           N 95Gro !
 PAR  G(YC_B1,Y:C2),,                   +GHSERYY+2*GHSERCC
             -35640-51.5*T;,,                                         N 95Gro !
 PAR  L(YC_B1,Y:C,C2;0),,               +25800+6.5*T;,,               N 95Gro !
 PAR  L(YC_B1,Y:C,VA;0),,               -41700-8*T;,,                 N 95Gro !
 PAR  L(YC_B1,Y:C,VA;1),,               +30000;,,                     N 95Gro !
 PAR  L(YC_B1,Y:C2,VA;0),,              -52450;,,                     N 95Gro !
$
 PAR  G(Y15C19_ALPHA,Y:C),,             +15*GHSERYY+19*GHSERCC
             -1665660;,,                                              N 95Gro !
 PAR  G(Y15C19_BETA,Y:C),,              +15*GHSERYY+19*GHSERCC
             -1612042-34*T;,,                                         N 95Gro !
$
 PAR  G(Y2C3_D5C,Y:C:C),,               +2*GHSERYY+3*GHSERCC
             -234935;,,                                               N 95Gro !
 PAR  G(Y2C3_D5C,Y:C:VA),,              +2*GHSERYY+2*GHSERCC
             -175036;,,                                               N 02Luk !
 PAR  L(Y2C3_D5C,Y:C:C,VA;0),,          -23200+4*T;,,                 N 02Luk !
$
 PAR  G(Y2C3_BETA,Y:C:C),,              +2*GHSERYY+3*GHSERCC
             -227640.65-5*T;,,                                        N 95Gro !
 PAR  G(Y2C3_BETA,Y:C:VA),,             +2*GHSERYY+2*GHSERCC
             -169200-4*T;,,                                           N 02Luk !
 PAR  L(Y2C3_BETA,Y:C:C,VA;0),,         -23200+4*T;,,                 N 02Luk !
$
 PAR  G(YC2_C11A,Y:C),,                 +GHSERYY+2*GHSERCC
             -118055.34;,,                                            N 95Gro !
$ ------------------------------------------------------------------------------
$
 ASSESSED_SYSTEM
  C-Y(TDB -* +ION +GRAP +YC2_C11A +Y2C3_D5C +Y2C3_BETA +Y15C19_ALPHA
  +Y15C19_BETA +YC_B1 +HCP_A3 +BCC_A2 ;P3 TMM:300/3000 STP:.35/1000) !
$
$
 LIST-OF-REFERENCE
 NUMBER  SOURCE
  Null   'Unknown source'
  Same   'Same or similar interaction as in the corresponding stable phase'
  REFLAV 'Laves phase convention: G(LAVES,X:X)=+3*GHSERXX+15000'
  COST   'COST 507 database'
  Frie2  'Suzana Fries and Leo Lukas, unpublished,
          SGTE unary database V.4.1, 1999; Y'
  91Din  'A.T. Dinsdale, Calphad, 15, 317-425(1991).'
  95Gro  'J. Groebner, H.-L. Lukas, F. Aldinger,
          J. Alloys Compd., 220, 8-14(1995); Y-C'
  95She3 'H. Shen, W. Zhang, G. Liu, R. Wang, Z. Du, Report F-95-03,
          University of Science and Technology, Beijing, May 1995,
          SGTE unary database V.3.0, 1996; Y'
  02Luk  'H.L. Lukas, preventing Y2C3 from becoming stable at low
          temperature, 2002; Y-C'
!
