$
$ Database for La-W from N. Krishnamurthy et al. 2000.
$
$ N. Krishnamurthy, T. Kundu, A. Awasthi, S.P. Garg,
$ Z. Metallkd., 91, 234-40(2000).
$
$ Dataset created 2025.02.11 by Bengt Hallstedt.
$
$ The liquid interaction was refitted to approximately match measured
$ liquid solubilities. The discrepancy probably originates from differences
$ in elemental W.
$
$ The solid interactions were set to 1.5 times the liquid interaction. This
$ should be revised when there are data.
$
$ ------------------------------------------------------------------------------
 TEMP-LIM 298.15 6000.00 !
$
$ELEMENT NAME  REF. STATE               ATOMIC MASS H298-H0    S298    !
$
 ELEMENT VA   VACUUM                      0.0          0.0      0.0    ! 
 ELEMENT LA   DHCP                      138.9055    6665.112   56.9024 ! 
 ELEMENT W    BCC_A2                    183.85      4970.0     32.6176 ! 
$ ------------------------------------------------------------------------------
$ Phase definitions
$
 PHASE LIQUID:L % 1 1 !
 CONST LIQUID:L : LA W : !
$
$ Fcc (cF4, Fm-3m) and MeX (cF8, Fm-3m)
$
 PHASE FCC_A1 %A 2 1 1 !
 CONST FCC_A1 : LA% W : VA : !
$
$ Bcc (cI2, Im-3m)
$
 PHASE BCC_A2 %B 2 1 3 !
 CONST BCC_A2 : LA W : VA : !
$
$ Hcp (hP2, P6_3/mmc) and Me2X (NiAs-type, hP4, P6_3/mmc, B8_1)
$
 PHASE HCP_A3 % 2 1 0.5 !
 CONST HCP_A3 : W : VA : !
$
$ Prototype alpha-La (hP4, P6_3/mmc)
$
 PHASE DHCP % 1 1 !
 CONST DHCP : LA : !
$ ------------------------------------------------------------------------------
$ Defaults
$
 DEFINE-SYSTEM-DEFAULT ELEMENT 2 !
 DEFAULT-COM DEFINE_SYSTEM_ELEMENT VA !
 TYPE-DEF % SEQ * !
 TYPE-DEF A GES AMEND_PHASE_DESCRIPTION @ MAGNETIC -3 0.28 !
 TYPE-DEF B GES AMEND_PHASE_DESCRIPTION @ MAGNETIC -1 0.4 !
 FUNCTION ZERO      298.15  0;                                         6000 N !
 FUNCTION UN_ASS    298.15  0;                                         6000 N !
 FUNCTION R         298.15  +8.31451;                                  6000 N !
$ ------------------------------------------------------------------------------
$ Element data
$ ------------------------------------------------------------------------------
$ La
$
 PAR  G(DHCP,LA),,                      +GHSERLA;                4000 N 91Din !
 PAR  G(FCC_A1,LA:VA),,                 +GFCCLA;                 4000 N 91Din !
 PAR  G(BCC_A2,LA:VA),,                 +GBCCLA;                 4000 N 91Din !
 PAR  G(LIQUID,LA),,                    +GLIQLA;                 4000 N 91Din !
$
 FUNCTION GHSERLA   298.15  -7968.403+120.284604*T-26.34*T*LN(T)
       -0.001295165*T**2;
       550.00  Y  -3381.413+59.06113*T-17.1659411*T*LN(T)
       -0.008371705*T**2+6.8932E-07*T**3-399448*T**(-1);
      2000.00  Y  -15608.882+181.390071*T-34.3088*T*LN(T);
      4000.00  N !
 FUNCTION GFCCLA    298.15  -6109.797+89.878761*T-21.7919*T*LN(T)
       -0.004045175*T**2-5.25865E-07*T**3;
      1134.00  Y  -124598.976+955.878375*T-139.346741*T*LN(T)
       +0.042032405*T**2-3.066199E-06*T**3+20994153*T**(-1);
      2000.00  Y  +3009.496-2.846081*T+GHSERLA;
      4000.00  N !
 FUNCTION GBCCLA    298.15  -3952.161+88.072353*T-21.7919*T*LN(T)
       -0.004045175*T**2-5.25865E-07*T**3;
       800.00  Y  +321682.673-3565.08252*T+513.440708*T*LN(T)
       -0.387295093*T**2+4.9547989E-05*T**3-36581228*T**(-1);
      1134.00  Y  -16377.894+218.492988*T-39.5388*T*LN(T);
      1193.00  Y  -136609.91+1123.34397*T-163.413074*T*LN(T)
       +0.053968535*T**2-4.056395E-06*T**3+21167204*T**(-1);
      2000.00  Y  +7402.894-6.553756*T+GHSERLA;
      4000.00  N !
 FUNCTION GLIQLA    298.15  +5332.653+18.23012*T-11.0188191*T*LN(T)
       -0.020171603*T**2+2.93775E-06*T**3-133541*T**(-1);
      1134.00  Y  -3942.004+171.018431*T-34.3088*T*LN(T);
      4000.00  N !
$ ------------------------------------------------------------------------------
$ W
$
 PAR  G(BCC_A2,W:VA),,                  +GHSERWW;,,                   N 91Din !
 PAR  G(FCC_A1,W:VA),,                  +GHSERWW+19300+0.63*T;,,      N 91Din !
 PAR  G(HCP_A3,W:VA),,                  +GHSERWW+14750;,,             N 91Din !
 PAR  G(LIQUID,W),,                     +GLIQWW;,,                    N 91Din !
$
 FUNCTION GHSERWW   298.15  -7646.311+130.4*T-24.1*T*LN(T)
       -0.001936*T**2+2.07E-07*T**3+44500*T**(-1)-5.33E-11*T**4;
      3695.00  Y  -82868.801+389.362335*T-54*T*LN(T)+1.528621E+33*T**(-9);
      6000.00  N !
 FUNCTION GLIQWW    298.15  +52160.584-14.10999*T+GHSERWW-2.713468E-24*T**7;
      3695.00  Y  -30436.051+375.175*T-54*T*LN(T);
      6000.00  N !
 FUNCTION GFCCWW    298.15  +GHSERWW+19300+0.63*T;                     6000 N !
$ ------------------------------------------------------------------------------
$ Binary system
$
$ N. Krishnamurthy, T. Kundu, A. Awasthi, S.P. Garg,
$ Z. Metallkd., 91, 234-40(2000).
$
$ Checked against paper. Checked at 6000 K.
$
$ The liquid interaction was refitted to approximately match measured
$ liquid solubilities. The discrepancy probably originates from differences
$ in elemental W.
$
$ The solid interactions were set to 1.5 times the liquid interaction. This
$ should be revised when there are data.
$
$PAR  L(LIQUID,LA,W;0),,                +141600;,,                    N 00Kri !
 PAR  L(LIQUID,LA,W;0),,                +134000;,,                    N 00Kri !
$
 PAR  L(FCC_A1,LA,W:VA;0),,             +201000;,,                    N 25Hal !
 PAR  L(BCC_A2,LA,W:VA;0),,             +201000;,,                    N 25Hal !
$ ------------------------------------------------------------------------------
$
$
 LIST-OF-REFERENCE
 NUMBER  SOURCE
  Null   'Unknown source'
  Same   'Same or similar interaction as in the corresponding stable phase'
  REFLAV 'Laves phase convention: G(LAVES,X:X)=+3*GHSERXX+15000'
  91Din  'A.T. Dinsdale, Calphad, 15, 317-425(1991).'
  00Kri  'N. Krishnamurthy, T. Kundu, A. Awasthi, S.P. Garg,
          Z. Metallkd., 91, 234-40(2000); La-W'
  25Hal  'B. Hallstedt, dummy solid interaction, 2025; La-W'
!
