$
$ Database for Cu-B from C.P. Wang et al. 2009
$
$ C.P. Wang, S.H. Guo, A.T. Tang, F.S. Pan, X.J. Liu, K. Ishida,
$ J. Alloys Compd., 482, 67-72(2009).
$
$ Dataset created 2016.10.18 by Bengt Hallstedt.
$ 2020.12.26: Modified for use with GES6.
$
$ ------------------------------------------------------------------------------
 TEMP-LIM 298.15 6000.00 !
$
$ELEMENT NAME  REF. STATE               ATOMIC MASS H298-H0    S298    !
$
 ELEMENT VA   VACUUM                      0.0          0.0      0.0    ! 
 ELEMENT B    BETA_RHOMBO_B              10.81      1222.0      5.9    ! 
 ELEMENT CU   FCC_A1                     63.546     5004.      33.15   !
$ ------------------------------------------------------------------------------
$ Phase definitions
$
 PHASE LIQUID:L % 1 1 !
 CONST LIQUID:L : B CU : !
$
$ Fcc (cF4, Fm-3m) and MeX (cF8, Fm-3m)
$
 PHASE FCC_A1 %A 2 1 1 !
 CONST FCC_A1 : B CU% : VA : !
$
$ Bcc (cI2, Im-3m)
$
 PHASE BCC_A2 %B 2 1 3 !
 CONST BCC_A2 : CU : VA : !
$
$ Hcp (hP2, P6_3/mmc) and Me2X (NiAs-type, hP4, P6_3/mmc, B8_1)
$
 PHASE HCP_A3 %A 2 1 0.5 !
 CONST HCP_A3 : CU : VA : !
$
$ Prototype beta-B (hR105, R-3m)
$
 PHASE BETA_RHOMBO_B % 1 1 !
 CONST BETA_RHOMBO_B : B% CU : !
$ ------------------------------------------------------------------------------
$ Defaults
$
 DEFINE-SYSTEM-DEFAULT ELEMENT 2 !
 DEFAULT-COM DEFINE_SYSTEM_ELEMENT VA !
 TYPE-DEF % SEQ * !
 TYPE-DEF A GES AMEND_PHASE_DESCRIPTION @ MAGNETIC -3 0.28 !
 TYPE-DEF B GES AMEND_PHASE_DESCRIPTION @ MAGNETIC -1 0.4 !
 FUNCTION ZERO      298.15  0;                                         6000 N !
 FUNCTION UN_ASS    298.15  0;                                         6000 N !
 FUNCTION R         298.15  +8.31451;                                  6000 N !
$ ------------------------------------------------------------------------------
$ Element data
$ ------------------------------------------------------------------------------
$ B
$
$ FCC_A1, HCP_A3, DIAMOND_A4 and GRAPHITE added in unary 3.0
$ BCC_A2 added in unary 4.1
$ GRAPHITE revised in unary 4.4 (using the value from COST 507)
$ FCC_A1, BCC_A2 and HCP_A3 removed in unary 5.0
$ ALPHA_RHOMBO_B added in unary 5.0
$
$ FCC_A1, BCC_A2 and HCP_A3 still in SGSOL 5.0
$ The value for FCC_A1 in COST (and SGTE) is possibly incorrect.
$
 PAR  G(BETA_RHOMBO_B,B),,              +GHSERBB;,,                   N 91Din !
$PAR  G(ALPHA_RHOMBO_B,B),,             +GALPBB;,,                    N 09SGUN !
$PAR  G(FCC_A1,B:VA),,                  +GHSERBB+43514-12.217*T;,,    N SGCOST !
 PAR  G(FCC_A1,B:VA),,                  +GHSERBB+50208-13.472*T;,,    N 94Hal !
$PAR  G(BCC_A2,B:VA),,                  +GHSERBB+43514-12.217*T;,,    N 94Hal !
$PAR  G(HCP_A3,B:VA),,                  +GHSERBB+50208-9.706*T;,,     N SGCOST !
$PAR  G(GRAPHITE,B),,                   +GHSERBB+10000-2*T;,,         N SGCOST !
$PAR  G(GRAPHITE,B),,                   +GHSERBB+5000;,,              N 96SGUN !
$PAR  G(DIAMOND_A4,B),,                 +GHSERBB+10;,,                N 99SGUN !
$PAR  G(DIAMOND_A4,B),,                 +GHSERBB+20;,,                N COST !
$PAR  G(DIAMOND_A4,B),,                 +GHSERBB;,,                   N 96SGUN !
 PAR  G(LIQUID,B),,                     +GLIQBB;,,                    N 91Din !
$
 FUNCTION GHSERBB   298.15  -7735.284+107.111864*T-15.6641*T*LN(T)
       -0.006864515*T**2+6.18878E-07*T**3+370843*T**(-1);
      1100.00  Y  -16649.474+184.801744*T-26.6047*T*LN(T)
       -7.9809E-04*T**2-2.556E-08*T**3+1748270*T**(-1);
      2348.00  Y  -36667.582+231.336244*T-31.5957527*T*LN(T)
       -0.00159488*T**2+1.34719E-07*T**3+11205883*T**(-1);
      3000.00  Y  -21530.653+222.396264*T-31.4*T*LN(T);
      6000.00  N !
 FUNCTION GALPBB    298.15  -6076.24+86.648762*T-12.942464*T*LN(T)
       -7.089468E-3*T**2+0.659896E-6*T**3-45*T**(-1);
      1400.00  Y  +28477.506-106.789208*T+12.1072478*T*LN(T)
       -13.316875E-3*T**2+0.706895E-6*T**3-8002403*T**(-1);
      3000.00  Y  -25699.64+225.127135*T-31.4*T*LN(T);
      6000.00  N !
 FUNCTION GLIQBB    298.15  +48458.559-20.268025*T+GHSERBB;
       500.00  Y  +41119.703+82.101722*T-14.9827763*T*LN(T)
       -0.007095669*T**2+5.07347E-07*T**3+335484*T**(-1);
      2348.00  Y  +28842.012+200.94731*T-31.4*T*LN(T);
      3000.00  Y  +50372.665-21.448954*T+GHSERBB;
      6000.00  N !
 FUNCTION GFCCBB    298.15  +GHSERBB+43514-12.217*T;                   6000 N !
$ ------------------------------------------------------------------------------
$ Cu
$
$ BETA_RHOMBO_B from 09Wan not included in unary
$
 PAR  G(FCC_A1,CU:VA),,                 +GHSERCU;                3200 N 91Din !
 PAR  G(BCC_A2,CU:VA),,                 +GHSERCU+4017-1.255*T;   3200 N 91Din !
 PAR  G(HCP_A3,CU:VA),,                 +GHSERCU+600+0.2*T;      3200 N 91Din !
 PAR  G(BETA_RHOMBO_B,CU),,             +GHSERCU+5000;           3200 N 09Wan !
 PAR  G(LIQUID,CU),,                    +GLIQCU;                 3200 N 91Din !
$
 FUNCTION GHSERCU   298.15  -7770.458+130.485235*T-24.112392*T*LN(T)
       -0.00265684*T**2+1.29223E-07*T**3+52478*T**(-1);
      1357.77  Y  -13542.026+183.803828*T-31.38*T*LN(T)+3.64167E+29*T**(-9);
      3200.00  N !
 FUNCTION GLIQCU    298.15  +12964.735-9.511904*T+GHSERCU-5.8489E-21*T**7;
      1357.77  Y  -46.545+173.881484*T-31.38*T*LN(T);
      3200.00  N !
$ ------------------------------------------------------------------------------
$ Binary system
$
$ C.P. Wang, S.H. Guo, A.T. Tang, F.S. Pan, X.J. Liu, K. Ishida,
$ J. Alloys Compd., 482, 67-72(2009).
$
$ Checked against paper. Checked at 6000 K.
$
 PAR  L(LIQUID,B,CU;0),,                -3156.2;,,                    N 09Wan !
 PAR  L(LIQUID,B,CU;1),,                +14390.26-9.98*T;,,           N 09Wan !
 PAR  L(LIQUID,B,CU;2),,                +42620-20*T;,,                N 09Wan !
$
 PAR  L(FCC_A1,B,CU:VA;0),,             +29600;,,                     N 09Wan !
$
 PAR  L(BETA_RHOMBO_B,B,CU;0),,         +34386;,,                     N 09Wan !
$ ------------------------------------------------------------------------------
$
$
 LIST-OF-REFERENCE
 NUMBER  SOURCE
  Null   'Unknown source'
  Same   'Same or similar interaction as in the corresponding stable phase'
  REFLAV 'Laves phase convention: G(LAVES,X:X)=+3*GHSERXX+15000'
  COST   'COST 507 database'
  SGCOST 'COST 507 database, SGTE unary database V.3.0, 1996; Al, B, Nd, Ti, Zn'
  91Din  'A.T. Dinsdale, Calphad, 15, 317-425(1991).'
  94Hal  'B. Hallemans, P. Wollants, J.R. Roos,
          Z. Metallkd., 85, 676-82(1994), SGTE unary database V.4.1, 1999; B'
  96SGUN 'SGTE unary database V.3.0, 1996.'
  99SGUN 'SGTE unary database V.4.1, 1999.'
  09SGUN 'SGTE unary database V.5.0, 2009.'
  09Wan  'C.P. Wang, S.H. Guo, A.T. Tang, F.S. Pan, X.J. Liu, K. Ishida,
          J. Alloys Compd., 482, 67-72(2009); Cu, Tm, Cu-B'
!
