$
$ Database for Cs-O from C. Gueneau and J.-L. Fleche 2015.
$
$ C. Gueneau, J.-L. Fleche, Calphad, 49, 67-78(2015).
$
$ Dataset created 2020.10.18 by Bengt Hallstedt.
$
$ ------------------------------------------------------------------------------
 TEMP-LIM 298.15 6000.00 !
$
$ELEMENT NAME  REF. STATE               ATOMIC MASS H298-H0    S298    !
$
 ELEMENT /-   ELECTRON_GAS                0.0          0.0      0.0    ! 
 ELEMENT VA   VACUUM                      0.0          0.0      0.0    ! 
 ELEMENT CS   BCC_A2                    132.9054    7711.000   85.23   ! 
 ELEMENT O    1/2_MOLE_O2(G)             15.999     4341.0    102.52   ! 
$ ------------------------------------------------------------------------------
$ Species
$
 SPECIE  CS2                                CS2 !
 SPECIE  CS+1                               CS/+1 !
 SPECIE  CS2O                               CS2O1 !
 SPECIE  CSO                                CS1O1 !
 SPECIE  CS2O2                              CS2O2 !
 SPECIE  CSO2                               CS1O2 !
 SPECIE  O-2                                O/-2 !
 SPECIE  O2                                 O2 !
 SPECIE  O2-1                               O2/-1 !
 SPECIE  O2-2                               O2/-2 !
 SPECIE  O3                                 O3 !
 SPECIE  O3-1                               O3/-1 !
$ ------------------------------------------------------------------------------
$ Phase definitions
$
 PHASE LIQUID:L % 1 1 !
 CONST LIQUID:L : CS : !
$
 PHASE ION:Y % 2 1 1 !
 CONST ION:Y : CS+1 : O-2 VA CSO2 O : !
$
$ Fcc (cF4, Fm-3m) and MeX (cF8, Fm-3m)
$
 PHASE FCC_A1 %A 2 1 1 !
 CONST FCC_A1 : CS : VA : !
$
$ Bcc (cI2, Im-3m)
$
 PHASE BCC_A2 %B 2 1 3 !
 CONST BCC_A2 : CS : VA : !
$
$ Hcp (hP2, P6_3/mmc) and Me2X (NiAs-type, hP4, P6_3/mmc, B8_1)
$
 PHASE HCP_A3 %A 2 1 0.5 !
 CONST HCP_A3 : CS : VA : !
$
$ Prototype Cs7O (hP24, P-6m2)
$
 PHASE CS7O % 2 7 1 !
 CONST CS7O : CS : O : !
$
$ Prototype Cs4O (oP60, Pna2_1)
$
 PHASE CS4O % 2 4 1 !
 CONST CS4O : CS : O : !
$
$ Prototype Cs11O3 (mP56, P2_1/c)
$
 PHASE CS7O2 % 2 7 2 !
 CONST CS7O2 : CS : O : !
$
$ Prototype Cs3O (hP8, P6_3/mcm)
$
 PHASE CS3O % 2 3 1 !
 CONST CS3O : CS : O : !
$
$ Prototype alpha-Sm (hR3, R-3m)
$
 PHASE CS2O_C19:I %A 2 2 1 !
 CONST CS2O_C19:I : CS+1 : O-2 : !
$
$ Prototype Rb2O2 (oI8, Immm)
$
 PHASE CS2O2:I %A 2 2 1 !
 CONST CS2O2:I : CS+1 : O2-2 : !
$
$ Prototype CaC2 (tI6, I4/mmm)
$ There is a high-T form with NaCl structure
$
 PHASE CSO2_C11A:I %A 2 1 1 !
 CONST CSO2_C11A:I : CS+1 : O2-1 : !
$
$ Prototype RbO3 (mP16, P2_1/c)
$
 PHASE CSO3:I %A 2 1 1 !
 CONST CSO3:I : CS+1 : O3-1 : !
$
 PHASE O2GAS % 1 1 !
 CONST O2GAS : O2 :!
$
 PHASE GAS:G % 1 1 !
 CONST GAS:G : CS CS2 CS2O CSO CS2O2 O O2 O3 : !
$ ------------------------------------------------------------------------------
$ Defaults
$
 DEFINE-SYSTEM-DEFAULT ELEMENT 2 !
 DEFAULT-COM DEFINE_SYSTEM_ELEMENT VA /- !
 DEFAULT-COM REJECT-PHASE LIQUID !
 TYPE-DEF % SEQ * !
 TYPE-DEF A GES AMEND_PHASE_DESCRIPTION @ MAGNETIC -3 0.28 !
 TYPE-DEF B GES AMEND_PHASE_DESCRIPTION @ MAGNETIC -1 0.4 !
 FUNCTION ZERO      298.15  0;                                         6000 N !
 FUNCTION UN_ASS    298.15  0;                                         6000 N !
 FUNCTION R         298.15  +8.31451;                                  6000 N !
 FUNCTION RTLNP     298.15  +8.31451*T*LN(1E-05*P);                    6000 N !
$ ------------------------------------------------------------------------------
$ Element data
$ ------------------------------------------------------------------------------
$ Cs
$
 PAR  G(BCC_A2,CS:VA)           200.00  +GHSERCS;                2000 N 91Din !
 PAR  G(HCP_A3,CS:VA)           200.00  +GHSERCS+500+2*T;        2000 N 91Din !
 PAR  G(FCC_A1,CS:VA)           200.00  +GHSERCS+500+1.3*T;      2000 N 91Din !
 PAR  G(LIQUID,CS)              200.00  +GLIQCS;                 2000 N 91Din !
$
 PAR  G(ION,CS+1:VA)            200.00  +GLIQCS;                 2000 N 91Din !
$
 PAR  G(GAS,CS),,                       +F7798T+RTLNP;,,              N 97SUB !
 PAR  G(GAS,CS2),,                      +F7910T+RTLNP;,,              N 97SUB !
$
 FUNCTION GHSERCS   200.00  -17373.82+436.899787*T-90.5212584*T*LN(T)
       +0.2029422*T**2-1.27907669E-04*T**3+245245*T**(-1);
       301.59  Y  -13553.817+218.689955*T-46.7273304*T*LN(T)
       +0.02043269*T**2-4.074846E-06*T**3+181528*T**(-1)+7.8016E+21*T**(-9);
      2000.00  N !
 FUNCTION GLIQCS    200.00  +2091.141-6.931035*T+GHSERCS-3.56867E-18*T**7;
       301.59  Y  +2099.779-6.961111*T+GHSERCS-7.8016E+21*T**(-9);
      2000.00  N !
$
$ Cs(g)
 FUNCTION F7798T    298.15  +70221.1856-34.9432613*T-21.01225*T*LN(T)
       +2.3869595E-04*T**2-4.17045667E-08*T**3+4922.448*T**(-1);
      1600.00  Y  +65030.9623+16.0373202*T-28.23664*T*LN(T)
       +0.0041988735*T**2-4.22771E-07*T**3+522968.5*T**(-1);
      3400.00  Y  +366608.608-1031.64395*T+100.1023*T*LN(T)
       -0.020285495*T**2+4.61329E-07*T**3-1.333813E+08*T**(-1);
      5300.00  Y  +21277.4246-330.32731*T+20.43107*T*LN(T)
       -0.012545005*T**2+3.32779833E-07*T**3+1.375229E+08*T**(-1);
      7000.00  Y  -1347367.74+2313.0949*T-278.8398*T*LN(T)
       +0.016571635*T**2-1.98924E-07*T**3+1.3125275E+09*T**(-1);
     10000.00  N !
$ Cs2(g)
 FUNCTION F7910T    298.15  +100114.046-81.875233*T-29.1921*T*LN(T)
       -0.01584241*T**2+4.411035E-06*T**3-87527.95*T**(-1);
       700.00  Y  +76365.616+232.868669*T-76.74226*T*LN(T)
       +0.026454175*T**2-2.64218333E-06*T**3+2135020*T**(-1);
      1700.00  Y  +250375.533-857.020866*T+68.80663*T*LN(T)
       -0.028077265*T**2+1.22328533E-06*T**3-37126965*T**(-1);
      3000.00  Y  -161131.901+641.492818*T-115.7658*T*LN(T)
       +0.008419445*T**2-1.1690215E-07*T**3+1.3370865E+08*T**(-1);
      4900.00  Y  -155428.027+692.773745*T-122.889*T*LN(T)
       +0.01069752*T**2-2.11018E-07*T**3+1.1397085E+08*T**(-1);
      6000.00  N !
$ ------------------------------------------------------------------------------
$ O
$
$ GHSEROO modified in unary 3.0
$
 PAR  G(O2GAS,O2),,                     +2*GHSEROO+RTLNP;,,           N 91Din !
$
 PAR  G(GAS,O),,                        +F7397T+RTLNP;,,              N 92SUB !
 PAR  G(GAS,O2),,                       +2*GHSEROO+RTLNP;,,           N 91Din !
 PAR  G(GAS,O3),,                       +F7683T+RTLNP;,,              N 92SUB !
$
 PAR  G(ION,O),,                        +GHSEROO-2648.9+31.44*T;,,    N 91Din !
$
$ 1/2 O2(g)
 FUNCTION GHSEROO   298.15  -3480.87-25.503038*T-11.1355*T*LN(T)
       -0.005098875*T**2+6.61845833E-07*T**3-38365*T**(-1);
      1000.00  Y  -6568.763+12.659879*T-16.8138*T*LN(T)
       -5.957975E-04*T**2+6.781E-09*T**3+262905*T**(-1);
      3300.00  Y  -13986.728+31.259624*T-18.9536*T*LN(T)
       -4.25243E-04*T**2+1.0721E-08*T**3+4383200*T**(-1);
      6000.00  N !
$ O(g)
 FUNCTION F7397T    298.15  +243206.529-42897.0876*T**(-1)-20.7513421*T
       -21.0155542*T*LN(T)+1.26870532E-04*T**2-1.23131285E-08*T**3;
      2950.00  Y  +252301.473-3973170.33*T**(-1)-51.974853*T
       -17.2118798*T*LN(T)-5.41356254E-04*T**2+7.64520703E-09*T**3;
      6000.00  N !
$ O3(g)
 FUNCTION F7683T    298.15  +133772.042-11328.9959*T**(-1)-84.8602165*T
       -19.8314069*T*LN(T)-0.0392015696*T**2+7.90727187E-06*T**3;  
       600.00  Y  +120765.524+997137.156*T**(-1)+120.113376*T
       -51.8410152*T*LN(T)-0.00353983136*T**2+3.20640143E-07*T**3;
      1500.00  Y  +115412.196+1878139.02*T**(-1)+164.679664*T
       -58.069736*T*LN(T)-2.84399032E-04*T**2+5.95650279E-10*T**3;
      6000.00  N !
$ ------------------------------------------------------------------------------
$ Binary system
$
$ C. Gueneau, J.-L. Fleche, Calphad, 49, 67-78(2015).
$
$ Checked against paper and author's tdb. Checked at 6000 K.
$
 PAR  G(ION,CS+1:O-2),,                 +GCS2O+25799.2-33.592632*T;,, N 15Gue !
 PAR  G(ION,CSO2),,                     +GCSO2+24942-32*T;,,          N 15Gue !
 PAR  L(ION,CS+1:O-2,VA;0),,            -29927+5.4535*T;,,            N 15Gue !
 PAR  L(ION,CS+1:O-2,VA;1),,            -4978+9.926*T;,,              N 15Gue !
 PAR  L(ION,CS+1:O-2,VA;2),,            +6971;,,                      N 15Gue !
 PAR  L(ION,CS+1:O-2,CSO2;0),,          +7000;,,                      N 15Gue !
 PAR  L(ION,CSO2,O;0),,                 -30000;,,                     N 15Gue !
$
 PAR  G(CS7O,CS:O),,                    +GCS7O;,,                     N 15Gue !
 PAR  G(CS4O,CS:O),,                    +GCS4O;,,                     N 15Gue !
 PAR  G(CS7O2,CS:O),,                   +GCS7O2;,,                    N 15Gue !
 PAR  G(CS3O,CS:O),,                    +GCS3O;,,                     N 15Gue !
 PAR  G(CS2O_C19,CS+1:O-2),,            +GCS2O;,,                     N 15Gue !
 PAR  G(CS2O2,CS+1:O2-2),,              +GCS2O2;,,                    N 15Gue !
 PAR  G(CSO2_C11A,CS+1:O2-1),,          +GCSO2;,,                     N 15Gue !
 PAR  G(CSO3,CS+1:O3-1),,               +GCSO3;,,                     N 15Gue !
$
 PAR  G(GAS,CS2O),,                     +F7946T+RTLNP;,,              N 97SUB !
 PAR  G(GAS,CSO),,                      +F7893T+RTLNP;,,              N 97SUB !
 PAR  G(GAS,CS2O2),,                    +F7954T+RTLNP;,,              N 97SUB !
$
 FUNCTION GCS7O     298.15  -400474+663.75459*T-188.96318*T*LN(T)
       -0.037314641*T**2-1.8346513E-07*T**3+39275*T**(-1);
      6000.00  N !
 FUNCTION GCS4O     298.15  -376829+449.05376*T-119.84977*T*LN(T)
       -0.016702234*T**2-1.5941993E-07*T**3+52329*T**(-1);
      6000.00  N !
 FUNCTION GCS7O2    298.15  -750000+843.9*T-216.051744*T*LN(T)
       -0.028718178*T**2-2.48625E-07*T**3+100276*T**(-1);
      6000.00  N !
 FUNCTION GCS3O     298.15  -371929+388.84685*T-95.926195*T*LN(T)
       -0.012825603*T**2-1.3849564E-07*T**3+42364*T**(-1);
      6000.00  N !
 FUNCTION GCS2O     298.15  -368025+323.73258*T-69.0158626*T*LN(T)
       -0.0135009113*T**2+6.2073265E-07*T**3+44634*T**(-1);
      6000.00  N !
 FUNCTION GCS2O2    298.15  -417219+362*T-84.555089*T*LN(T)
       -0.01781807*T**2+6.45545997E-07*T**3+60716*T**(-1);
      6000.00  N !
 FUNCTION GCSO2     298.15  -261350+263.5*T-62.655412*T*LN(T)
       -0.011244787*T**2+8.0672586E-08*T**3+38406*T**(-1);
      6000.00  N !
 FUNCTION GCSO3     298.15  -295000+278*T-63.382374*T*LN(T)
       -0.036474421*T**2+1.8841036E-07*T**3+36096*T**(-1);
      6000.00  N !
$
$ Cs2O (g)
 FUNCTION F7946T    298.15  -161240.908+66.5067199*T-58.05409*T*LN(T)
       -3.703865E-05*T**2+1.47770633E-09*T**3+159043.25*T**(-1);
      6000.00  N !
$ CsO (g)
 FUNCTION F7893T    298.15  +25053.347-18.4689621*T-32.13257*T*LN(T)
       -0.025288645*T**2+7.99658E-06*T**3+167293.3*T**(-1);
       500.00  Y  +15656.9395+160.303108*T-60.96222*T*LN(T)
       +0.013344885*T**2-1.54543667E-06*T**3+730908.5*T**(-1);
      1200.00  Y  +36010.3943-17.7559633*T-35.84777*T*LN(T)
       -7.936695E-04*T**2-1.51388933E-08*T**3-2441246*T**(-1);
      3400.00  Y  -6437.51915+60.0762373*T-44.1186*T*LN(T)
       -0.001270003*T**2+8.12868667E-08*T**3+25439625*T**(-1);
      6000.00  N !
$ Cs2O2 (g)
 FUNCTION F7954T    298.15  -272449.069+182.840576*T-77.36208*T*LN(T)
       -0.0042472945*T**2+5.75533833E-07*T**3+291071.3*T**(-1);
      1200.00  Y  -275862.125+221.851897*T-83.10167*T*LN(T)
       -7.53585E-06*T**2+2.38408167E-10*T**3+676619*T**(-1);
      6000.00  N !
$ ------------------------------------------------------------------------------
$
$
 LIST-OF-REFERENCE
 NUMBER  SOURCE
  Null   'Unknown source'
  91Din  'A.T. Dinsdale, Calphad, 15, 317-425(1991).'
  92SUB  'SGTE Substance Database, version 1992'
  97SUB  'SGTE Substance Database, version 1997'
  15Gue  'C. Gueneau, J.-L. Fleche, Calphad, 49, 67-78(2015); Cs-O'
!
