$
$ Database for Ga-Ni from Z.-M. Cao et al. 2015.
$
$ Z.-M. Cao, X. Shi, W. Xie, I. Ohnuma, K. Ishida, Z.-Y. Qiao,
$ Rare Met., 34, 864-72(2015).
$
$ Dataset created 2022.04.10 by Bengt Hallstedt.
$
$ There are many misprints in the parameter list. GaNi3_L12 is modelled as
$ stand-alone (?), but the parameters are from the add-on model from 04Yua.
$
$ There is a large region of GaNi-B2 on the Ni-rich side above 3500 K.
$
$ Ga7Ni3 is stable up to 661 K instead of 642 K. Other equilibria differ by
$ less than 5 K.
$
$ ------------------------------------------------------------------------------
 TEMP-LIM 298.15 6000.00 !
$
$ELEMENT NAME  REF. STATE               ATOMIC MASS H298-H0    S298    !
$
 ELEMENT VA   VACUUM                      0.0          0.0      0.0    ! 
 ELEMENT GA   ORTHORHOMBIC_A11           69.72      5572.0     40.7271 ! 
 ELEMENT NI   FCC_A1                     58.69      4787.0     29.7955 ! 
$ ------------------------------------------------------------------------------
$ Phase definitions
$
 PHASE LIQUID:L % 1 1 !
 CONST LIQUID:L : GA NI : !
$
$ Fcc (cF4, Fm-3m) and MeX (cF8, Fm-3m)
$
 PHASE FCC_A1 %A 2 1 1 !
 CONST FCC_A1 : GA NI% : VA : !
$
$ Disordered part of L12_FCC, identical to FCC_A1
$
 PHASE A1_FCC %A 2 1 1 !
 CONST A1_FCC : GA NI : VA : !
$
$ Prototype AuCu3 (cP4, Pm-3m)
$
 PHASE L12_FCC %AY 3 0.75 0.25 1 !
 CONST L12_FCC : GA NI% : GA% NI : VA :  !
$
$ Bcc (cI2, Im-3m)
$
 PHASE BCC_A2 %B 2 1 3 !
 CONST BCC_A2 : GA NI : VA : !
$
$ Hcp (hP2, P6_3/mmc) and Me2X (NiAs-type, hP4, P6_3/mmc, B8_1)
$
 PHASE HCP_A3 %A 2 1 0.5 !
 CONST HCP_A3 : GA NI : VA : !
$
$ alpha-Ga (oC8, Cmce)
$
 PHASE ORTHORHOMBIC_A11 % 1 1 !
 CONST ORTHORHOMBIC_A11 : GA : !
$
$ Prototype Ru3Sn7 (cI40, Im-3m)
$
 PHASE GA7NI3_D8F % 2 7 3 !
 CONST GA7NI3_D8F : GA : NI : !
$
$ Prototype Al3Ni2 (hP5, P-3m1)
$
 PHASE GA3NI2_D513 % 2 3 2 !
 CONST GA3NI2_D513 : GA : NI : !
$
$ Prototype Ga4Ni3 (cI112, Ia-3d)
$
 PHASE GA4NI3 % 2 4 3 !
 CONST GA4NI3 : GA : NI : !
$
$ Prototype CsCl (cP2, Pm-3m)
$
 PHASE GANI_B2 % 2 1 1 !
 CONST GANI_B2 : GA% NI : NI% VA : !
$
$ Prototype Ga9Ni13 (mC44, C2/m)
$
 PHASE GA9NI13 % 2 9 13 !
 CONST GA9NI13 : GA : NI : !
$
$ Prototype InNi2 (hP6, P6_3/mmc, B8_2)
$
 PHASE GA2NI3_B82 % 3 1 1 1 !
 CONST GA2NI3_B82 : GA% NI : NI% VA : NI VA% : !
$
$ Prototype Ga3Pt5 (oC16, Cmmm)
$
 PHASE GA3NI5 % 2 3 5 !
 CONST GA3NI5 : GA% NI : NI : !
$ ------------------------------------------------------------------------------
$ Defaults
$
 DEFINE-SYSTEM-DEFAULT ELEMENT 2 !
 DEFAULT-COM DEFINE_SYSTEM_ELEMENT VA !
 TYPE-DEF % SEQ * !
 TYPE-DEF A GES AMEND_PHASE_DESCRIPTION @ MAGNETIC -3 0.28 !
 TYPE-DEF B GES AMEND_PHASE_DESCRIPTION @ MAGNETIC -1 0.4 !
 TYPE-DEF Y GES AMEND_PHASE_DESCRIPTION L12_FCC DIS_PART A1_FCC !
 FUNCTION ZERO      298.15  0;                                         6000 N !
 FUNCTION UN_ASS    298.15  0;                                         6000 N !
 FUNCTION R         298.15  +8.31451;                                  6000 N !
$ ------------------------------------------------------------------------------
$ Element data
$ ------------------------------------------------------------------------------
$ Ga
$
$ DIAMOND_A4 added in unary 5.0
$
$ Changed name from ORTHORHOMBIC_GA to ORTHORHOMBIC_A11
$
 PAR  G(ORTHORHOMBIC_A11,GA)    200.00  +GHSERGA;                4000 N 91Din !
 PAR  G(FCC_A1,GA:VA)           200.00  +GHSERGA+3800-10.2*T;    4000 N 91Din !
 PAR  G(A1_FCC,GA:VA)           200.00  +GHSERGA+3800-10.2*T;    4000 N 91Din !
 PAR  G(BCC_A2,GA:VA)           200.00  +GHSERGA+4500-11.7*T;    4000 N 91Din !
 PAR  G(HCP_A3,GA:VA)           200.00  +GHSERGA+4500-9.5*T;     4000 N 91Din !
$PAR  G(DIAMOND_A4,GA)          200.00  +GHSERGA+20900-2*T;      4000 N 09SGUN !
$PAR  G(BCT_A5,GA)              200.00  +GHSERGA+3846-9.8*T;     4000 N 91Din !
$PAR  G(TETRAGONAL_A6,GA)       200.00  +GHSERGA+3500-10*T;      4000 N 91Din !
 PAR  G(LIQUID,GA)              200.00  +GLIQGA;                 4000 N 91Din !
$
 PAR  G(GANI_B2,GA:VA),,                +GBCCGA+10000-T;,,            N 04Yua !
$PAR  G(GANI3_L12,GA:GA),,              +4*GFCCGA;,,                  N 15Cao !
$
 FUNCTION GHSERGA   200.00  -21312.331+585.263691*T-108.228783*T*LN(T)
       +0.227155636*T**2-1.18575257E-04*T**3+439954*T**(-1);
       302.91  Y  -7055.643+132.73019*T-26.0692906*T*LN(T)
       +1.506E-04*T**2-4.0173E-08*T**3-118332*T**(-1)+1.64547E+23*T**(-9);
      4000.00  N !
 FUNCTION GLIQGA    200.00  +5491.298-18.073995*T+GHSERGA-7.0171E-17*T**7;
       302.91  Y  +5666.455-18.681147*T+GHSERGA-1.64547E+23*T**(-9);
      4000.00  N !
 FUNCTION GFCCGA    200.00  +GHSERGA+3800-10.2*T;                      4000 N !
 FUNCTION GBCCGA    200.00  +GHSERGA+4500-11.7*T;                      4000 N !
$ ------------------------------------------------------------------------------
$ Ni
$
$ FCC_A1 and LIQUID modified in unary 5.0 (slight change in upper T interval)
$ BCT_A5 added in unary 5.0
$
 PAR  G(FCC_A1,NI:VA),,                 +GHSERNI;                3000 N 91Din !
 PAR  TC(FCC_A1,NI:VA),,                  633.00;                3000 N 91Din !
 PAR  BM(FCC_A1,NI:VA),,                    0.52;                3000 N 91Din !
 PAR  G(A1_FCC,NI:VA),,                 +GHSERNI;                3000 N 91Din !
 PAR  TC(A1_FCC,NI:VA),,                  633.00;                3000 N 91Din !
 PAR  BM(A1_FCC,NI:VA),,                    0.52;                3000 N 91Din !
 PAR  G(BCC_A2,NI:VA),,                 +GHSERNI
             +8715.084-3.556*T;                                  3000 N 91Din !
 PAR  TC(BCC_A2,NI:VA),,                  575.00;                3000 N 91Din !
 PAR  BM(BCC_A2,NI:VA),,                    0.85;                3000 N 91Din !
 PAR  G(HCP_A3,NI:VA),,                 +GHSERNI+1046+1.255*T;   3000 N 91Din !
 PAR  TC(HCP_A3,NI:VA),,                  633.00;                3000 N 91Din !
 PAR  BM(HCP_A3,NI:VA),,                    0.52;                3000 N 91Din !
$PAR  G(BCT_A5,NI),,                    +GHSERNI+10023-4.556*T;  3000 N 99Gho !
$PAR  G(CBCC_A12,NI:VA),,               +GHSERNI+3556;           3000 N 91Din !
$PAR  G(CUB_A13,NI:VA),,                +GHSERNI+2092;           3000 N 91Din !
 PAR  G(LIQUID,NI),,                    +GLIQNI;                 3000 N 91Din !
$
 PAR  G(GANI_B2,NI:NI),,                +2*GBCCNI;,,                  N 04Yua !
 PAR  G(GANI_B2,NI:VA),,                +GBCCNI+10000-T
             +109562-34.25*T;,,                                       N 15Cao !
 PAR  G(GA3NI5,NI:NI),,                 +8*GHSERNI+24000;,,           N 15Cao !
 PAR  G(GA2NI3_B82,NI:NI:NI),,          +3*GB82NI;,,                  N 15Cao !
 PAR  G(GA2NI3_B82,NI:NI:VA),,          +2*GB82NI;,,                  N 15Cao !
 PAR  G(GA2NI3_B82,NI:VA:NI),,          +2*GB82NI;,,                  N 15Cao !
 PAR  G(GA2NI3_B82,NI:VA:VA),,          +GB82NI;,,                    N 15Cao !
$PAR  G(GANI3_L12,NI:NI),,              +4*GHSERNI;,,                 N 15Cao !
$
 FUNCTION GHSERNI   298.15  -5179.159+117.854*T-22.096*T*LN(T)-0.0048407*T**2;
      1728.00  Y  -27840.62+279.134977*T-43.1*T*LN(T)+1.12754E+31*T**(-9);
      3000.00  N !
 FUNCTION GLIQNI    298.15  +16414.686-9.397*T+GHSERNI-3.82318E-21*T**7;
      1728.00  Y  -9549.817+268.597977*T-43.1*T*LN(T);
      3000.00  N !
 FUNCTION GBCCNI    298.15  +GHSERNI+8715.084-3.556*T;                 3000 N !
 FUNCTION GB82NI    298.15  +10545.766+118.392*T-22.096*T*LN(T)
       -0.004840689*T**2;
      6000.00  N !
$ ------------------------------------------------------------------------------
$ Binary system
$
$ Z.-M. Cao, X. Shi, W. Xie, I. Ohnuma, K. Ishida, Z.-Y. Qiao,
$ Rare Met., 34, 864-72(2015).
$
$ Checked against paper. Checked at 6000 K.
$
$ There are many misprints in the parameter list. GaNi3_L12 is modelled as
$ stand-alone (?), but the parameters are from the add-on model from 04Yua.
$
$ There is a large region of GaNi-B2 on the Ni-rich side above 3500 K.
$
$ Ga7Ni3 is stable up to 661 K instead of 642 K. Other equilibria differ by
$ less than 5 K.
$
 PAR  L(LIQUID,GA,NI;0),,               -135550+44.89*T;,,            N 15Cao !
 PAR  L(LIQUID,GA,NI;1),,               +19378-15.7*T;,,              N 15Cao !
 PAR  L(LIQUID,GA,NI;2),,               +14000-8.43*T;,,              N 15Cao !
$
 PAR  L(FCC_A1,GA,NI:VA;0),,            -130120+39.5*T;,,             N 15Cao !
 PAR  L(A1_FCC,GA,NI:VA;0),,            -130120+39.5*T;,,             N 15Cao !
$
$PAR  G(L12_FCC,NI:GA:VA),,             -27789+1.64*T;,,              N 04Yua !
$PAR  G(L12_FCC,GA:NI:VA),,             -27789+1.64*T;,,              N 04Yua !
 PAR  G(L12_FCC,NI:GA:VA),,             -27689+1.64*T;,,              N 04Yua !
 PAR  G(L12_FCC,GA:NI:VA),,             -27689+1.64*T;,,              N 04Yua !
 PAR  L(L12_FCC,GA,NI:GA:VA;0),,        -55578+3.28*T;,,              N 04Yua !
 PAR  L(L12_FCC,GA,NI:NI:VA;0),,        -55578+3.28*T;,,              N 04Yua !
$PAR  L(L12_FCC,GA,NI:GA:VA;1),,        +14040-8.01*T;,,              N 04Yua !
$PAR  L(L12_FCC,GA,NI:NI:VA;1),,        +14040-8.01*T;,,              N 04Yua !
 PAR  L(L12_FCC,GA,NI:GA:VA;1),,        +13440-8.01*T;,,              N 04Yua !
 PAR  L(L12_FCC,GA,NI:NI:VA;1),,        +13440-8.01*T;,,              N 04Yua !
 PAR  L(L12_FCC,NI:GA,NI:VA;0),,        +ZERO;,,                      N 04Yua !
 PAR  L(L12_FCC,GA:GA,NI:VA;0),,        +ZERO;,,                      N 04Yua !
$PAR  L(L12_FCC,NI:GA,NI:VA;1),,        +4680-2.67*T;,,               N 04Yua !
$PAR  L(L12_FCC,GA:GA,NI:VA;1),,        +4680-2.67*T;,,               N 04Yua !
 PAR  L(L12_FCC,NI:GA,NI:VA;1),,        +4380-2.67*T;,,               N 04Yua !
 PAR  L(L12_FCC,GA:GA,NI:VA;1),,        +4380-2.67*T;,,               N 04Yua !
$
 PAR  G(GA7NI3_D8F,GA:NI),,             +7*GHSERGA+3*GHSERNI
             -496165+228.4322*T;,,                                    N 15Cao !
$PAR  G(GA3NI2_D513,GA:NI),,            +3*GHSERGA+2*GHSERNI
$            -262471+62.5473*T;,,                                     N 15Cao !
 PAR  G(GA3NI2_D513,GA:NI),,            +3*GHSERGA+2*GHSERNI
             -262471+66.0717*T;,,                                     N 15Cao !
$PAR  G(GA4NI3,GA:NI),,                 +4*GHSERGA+3*GHSERNI
$            -357390+78.0189*T;,,                                     N 15Cao !
 PAR  G(GA4NI3,GA:NI),,                 +4*GHSERGA+3*GHSERNI
             -358390+83.6382*T;,,                                     N 15Cao !
$
 PAR  G(GANI_B2,GA:NI),,                +GBCCGA+GBCCNI
             -109562+34.25*T;,,                                       N 15Cao !
 PAR  L(GANI_B2,GA,NI:NI;0),,           -17248-5.96*T;,,              N 15Cao !
 PAR  L(GANI_B2,GA,NI:VA;0),,           -17248-5.96*T;,,              N 15Cao !
 PAR  L(GANI_B2,GA:NI,VA;0),,           -70033+40.62*T;,,             N 04Yua !
 PAR  L(GANI_B2,NI:NI,VA;0),,           -70033+40.62*T;,,             N 04Yua !
$
$PAR  G(GA9NI13,GA:NI),,                +9*GHSERGA+13*GHSERNI
$            -949592+164.1684*T;,,                                    N 15Cao !
 PAR  G(GA9NI13,GA:NI),,                +9*GHSERGA+13*GHSERNI
             -949592+184.5028*T;,,                                    N 15Cao !
$
 PAR  G(GA2NI3_B82,GA:NI:NI),,          +GHSERGA+2*GHSERNI
             -106048+17.45*T;,,                                       N 15Cao !
 PAR  G(GA2NI3_B82,GA:NI:VA),,          +GHSERGA+GHSERNI
             -87600+19.5*T;,,                                         N 15Cao !
 PAR  G(GA2NI3_B82,GA:VA:NI),,          +GHSERGA+GHSERNI
             -13500-12*T;,,                                           N 15Cao !
 PAR  G(GA2NI3_B82,GA:VA:VA),,          +GHSERGA+22500+15*T;,,        N 15Cao !
 PAR  L(GA2NI3_B82,GA:NI,VA:NI;0),,     -13500-9*T;,,                 N 15Cao !
 PAR  L(GA2NI3_B82,GA:NI,VA:VA;0),,     -13500-9*T;,,                 N 15Cao !
 PAR  L(GA2NI3_B82,GA:NI,VA:NI;1),,     +2700+3*T;,,                  N 15Cao !
 PAR  L(GA2NI3_B82,GA:NI,VA:VA;1),,     +2700+3*T;,,                  N 15Cao !
 PAR  L(GA2NI3_B82,GA:NI:NI,VA;0),,     -29700+27.75*T;,,             N 15Cao !
 PAR  L(GA2NI3_B82,GA:VA:NI,VA;0),,     -29700+27.75*T;,,             N 15Cao !
 PAR  L(GA2NI3_B82,GA:NI:NI,VA;1),,     -1500;,,                      N 15Cao !
 PAR  L(GA2NI3_B82,GA:VA:NI,VA;1),,     -1500;,,                      N 15Cao !
$
 PAR  G(GA3NI5,GA:NI),,                 +3*GHSERGA+5*GHSERNI
             -329244+66.72*T;,,                                       N 15Cao !
 PAR  L(GA3NI5,GA,NI:NI;0),,            -44000+14.48*T;,,             N 15Cao !
 PAR  L(GA3NI5,GA,NI:NI;1),,            +8400+0.64*T;,,               N 15Cao !
$
$ Metastable
$
 PAR  L(BCC_A2,GA,NI:VA;0),,            -130120+39.5*T;,,             N Same !
 PAR  L(HCP_A3,GA,NI:VA;0),,            -130120+39.5*T;,,             N Same !
$ ------------------------------------------------------------------------------
$
$
 LIST-OF-REFERENCE
 NUMBER  SOURCE
  Null   'Unknown source'
  Same   'Same or similar interaction as in the corresponding stable phase'
  91Din  'A.T. Dinsdale, Calphad, 15, 317-425(1991).'
  99Gho  'G. Ghosh, Metall. Mater. Trans. A, 30A, 1481-94(1999),
          SGTE unary database V.5.0, 2009; Ni'
  09SGUN 'SGTE unary database V.5.0, 2009.'
  04Yua  'W.X. Yuan, Z.Y. Qiao, H. Ipser, G. Eriksson,
          J. Phase Equilib. Diffus., 25, 68-74(2004); Ga-Ni'
  15Cao  'Z.-M. Cao, X. Shi, W. Xie, I. Ohnuma, K. Ishida, Z.-Y. Qiao,
          Rare Met., 34, 864-72(2015); Ga-Ni'
!
