$
$ Database for Au-Th from C.P. Wang et al. 2013.
$
$ C.P. Wang, G.C. Wang, Y. Lu, D. Wang, X.J. Liu,
$ J. Nucl. Mater., 440, 214-19(2013).
$
$ Dataset created 2019.10.05 by Bengt Hallstedt.
$
$ Au2Th is stable also above 3740 K.
$
$ ------------------------------------------------------------------------------
 TEMP-LIM 298.15 6000.00 !
$
$ELEMENT NAME  REF. STATE               ATOMIC MASS H298-H0    S298    !
$
 ELEMENT VA   VACUUM                      0.0          0.0      0.0    ! 
 ELEMENT AU   FCC_A1                    196.9665    6016.592   47.4884 ! 
 ELEMENT TH   FCC_A1                    232.0381    6350.0     51.8    ! 
$ ------------------------------------------------------------------------------
$ Phase definitions
$
 PHASE LIQUID:L % 1 1 !
 CONST LIQUID:L : AU TH : !
$
$ Fcc (cF4, Fm-3m) and MeX (cF8, Fm-3m)
$
 PHASE FCC_A1 %A 2 1 1 !
 CONST FCC_A1 : AU% TH% : VA : !
$
$ Bcc (cI2, Im-3m)
$
 PHASE BCC_A2 %B 2 1 3 !
 CONST BCC_A2 : AU TH% : VA : !
$
$ Hcp (hP2, P6_3/mmc) and Me2X (NiAs-type, hP4, P6_3/mmc, B8_1)
$
 PHASE HCP_A3 %A 2 1 0.5 !
 CONST HCP_A3 : AU : VA : !
$
$ Prototype Ag51Gd14 (hP68, P6/m)
$
 PHASE AU51TH14 % 2 51 14 !
 CONST AU51TH14 : AU : TH : !
$
$ Prototype Hg2U (hP3, P6/mmm), Al2B (same space group) suggested in paper
$
 PHASE AU2TH % 2 2 1 !
 CONST AU2TH : AU : TH : !
$
$ Prototype Pd4Pu3 (hR14, R-3)
$
 PHASE AU4TH3 % 2 4 3 !
 CONST AU4TH3 : AU : TH : !
$
$ Prototype CrB (oC8, Cmcm)
$
 PHASE AUTH_B33 % 2 1 1 !
 CONST AUTH_B33 : AU : TH : !
$
$ Pearson c** 
$
 PHASE AU2TH3 % 2 2 3 !
 CONST AU2TH3 : AU : TH : !
$
$ Prototype Al2Cu (tI12, I4/mcm)
$
 PHASE AUTH2_C16 % 2 1 2 !
 CONST AUTH2_C16 : AU : TH : !
$ ------------------------------------------------------------------------------
$ Defaults
$
 DEFINE-SYSTEM-DEFAULT ELEMENT 2 !
 DEFAULT-COM DEFINE_SYSTEM_ELEMENT VA !
 TYPE-DEF % SEQ * !
 TYPE-DEF A GES AMEND_PHASE_DESCRIPTION @ MAGNETIC -3 0.28 !
 TYPE-DEF B GES AMEND_PHASE_DESCRIPTION @ MAGNETIC -1 0.4 !
 FUNCTION ZERO      298.15  0;                                         6000 N !
 FUNCTION UN_ASS    298.15  0;                                         6000 N !
 FUNCTION R         298.15  +8.31451;                                  6000 N !
$ ------------------------------------------------------------------------------
$ Element data
$ ------------------------------------------------------------------------------
$ Au
$
$ DHCP added in unary 5.0
$ DHCP replaced by the value from 92Ans in SGSOL 5.0
$
$ The DHCP phase is labelled D0_24 in 03Liu and alpha-prime in 92Ans. The
$ phase is present between the fcc and hcp phases in the Au-Sn and Au-In
$ systems. The value for DHCP from 92Ans was used to model these systems,
$ thus this value must be included in the unary database and not the 04Du
$ value.
$
 PAR  G(FCC_A1,AU:VA),,                 +GHSERAU;                3200 N 91Din !
 PAR  G(HCP_A3,AU:VA),,                 +GHSERAU+240.75+1.6*T;   3200 N 91Din !
 PAR  G(BCC_A2,AU:VA),,                 +GHSERAU+4250-1.1*T;     3200 N 91Din !
$PAR  G(DHCP,AU),,                      +GHSERAU+125+0.79*T;     3200 N 92Ans !
$PAR  G(DHCP,AU),,                      +GHSERAU+5000;           3200 N 04Du !
 PAR  G(LIQUID,AU),,                    +GHSERAU
             +12552-9.385866*T;                                  3200 N 91Din !
$
 FUNCTION GHSERAU   298.15  -6938.856+106.830098*T-22.75455*T*LN(T)
       -0.00385924*T**2+3.79625E-07*T**3-25097*T**(-1);
       929.40  Y  -93586.481+1021.69543*T-155.706745*T*LN(T)
       +0.08756015*T**2-1.1518713E-05*T**3+10637210*T**(-1);
      1337.33  Y  +314067.829-2016.37825*T+263.252259*T*LN(T)
       -0.118216828*T**2+8.923844E-06*T**3-67999832*T**(-1);
      1735.80  Y  -12133.783+165.272524*T-30.9616*T*LN(T);
      3200.00  N !
$ ------------------------------------------------------------------------------
$ Th
$
$ FCC_A1, BCC_A2 and LIQUID modified in unary 4.4
$
 PAR  G(FCC_A1,TH:VA),,                 +GHSERTH;                4000 N 01SGUN !
 PAR  G(BCC_A2,TH:VA),,                 +GBCCTH;                 4000 N 01SGUN !
 PAR  G(LIQUID,TH),,                    +GLIQTH;                 4000 N 01SGUN !
$
 FUNCTION GHSERTH   298.15  -7732.08+116.273975*T-24.841*T*LN(T)
       -0.00236725*T**2-5.2883E-07*T**3+13010*T**(-1);
      1633.00  Y  -37352.871+236.906118*T-39.107*T*LN(T)
       -0.00358025*T**2+2.36893E-07*T**3+7981000*T**(-1);
      2900.00  Y  -33353.313+283.231045*T-46.024*T*LN(T);
      4000.00  N !
 FUNCTION GBCCTH    298.15  -2321.06+133.531195*T-28.244*T*LN(T)
       +4.3775E-04*T**2-5.3048E-07*T**3+91190*T**(-1);
      1633.00  Y  -115978.348+800.909049*T-116.453*T*LN(T)
       +0.03098*T**2-2.536883E-06*T**3+27512600*T**(-1);
      2023.00  Y  -33602.796+208.774709*T-35.813*T*LN(T)
       -0.00346655*T**2+1.66067E-07*T**3+11876950*T**(-1);
      3600.00  Y  -980.302-0.049551*T+GHSERTH;
      4000.00  N !
 FUNCTION GLIQTH    298.15  +5031.109+110.886346*T-24.987*T*LN(T)
       -0.00168345*T**2-9.09067E-07*T**3+10865*T**(-1);
      1499.80  Y  -15602.847+127.657716*T-24.03*T*LN(T)
       -0.0136421*T**2+1.210117E-06*T**3+7111100*T**(-1);
      2014.50  Y  -17273.382+275.001274*T-46.024*T*LN(T);
      4000.00  N !
$ ------------------------------------------------------------------------------
$ Binary system
$
$ C.P. Wang, G.C. Wang, Y. Lu, D. Wang, X.J. Liu,
$ J. Nucl. Mater., 440, 214-19(2013).
$
$ Checked against paper and author's tdb. Checked at 6000 K.
$
$ Au2Th is stable also above 3740 K.
$
 PAR  L(LIQUID,AU,TH;0),,               -65000-35*T;,,                N 13Wan !
 PAR  L(LIQUID,AU,TH;1),,               -31000;,,                     N 13Wan !
 PAR  L(LIQUID,AU,TH;2),,               +500;,,                       N 13Wan !
 PAR  L(LIQUID,AU,TH;3),,               -11800;,,                     N 13Wan !
$
 PAR  L(FCC_A1,AU,TH:VA;0),,            +350;,,                       N 13Wan !
 PAR  L(BCC_A2,AU,TH:VA;0),,            +500;,,                       N 13Wan !
$
 PAR  G(AU51TH14,AU:TH),,               +51*GHSERAU+14*GHSERTH
             -520195-585*T-93.6*T*LN(T)+9.75E-05*T**3;,,              N 13Wan !
 PAR  G(AU2TH,AU:TH),,                  +2*GHSERAU+GHSERTH
             -50100-34.542*T+1.35*T*LN(T)-0.012*T**2+9.3E-07*T**3;,,  N 13Wan !
 PAR  G(AU4TH3,AU:TH),,                 +4*GHSERAU+3*GHSERTH
             -146300-54.53*T+0.7*T*LN(T)-0.0259*T**2+1.75E-06*T**3;,, N 13Wan !
 PAR  G(AUTH_B33,AU:TH),,               +GHSERAU+GHSERTH
             -42200-11.87*T-2.46*T*LN(T)+0.005*T**2;,,                N 13Wan !
 PAR  G(AU2TH3,AU:TH),,                 +2*GHSERAU+3*GHSERTH
             -102500-15.2*T-6.15*T*LN(T)+0.0125*T**2;,,               N 13Wan !
 PAR  G(AUTH2_C16,AU:TH),,              +GHSERAU+2*GHSERTH
             -56562-10.185*T-1.5*T*LN(T)+0.0015*T**2;,,               N 13Wan !
$ ------------------------------------------------------------------------------
$
$
 LIST-OF-REFERENCE
 NUMBER  SOURCE
  Null   'Unknown source'
  COST   'COST 507 database'
  91Din  'A.T. Dinsdale, Calphad, 15, 317-425(1991).'
  92Ans  'I. Ansara, J.-Ph. Nabot, Calphad, 16, 13-18(1992); Au'
  01SGUN 'SGTE unary database V.4.4, 2001.'
  04Du   'Z. Du, C. Guo, D. Lu, J. Alloys Compd., 364, 117-20(2004),
          SGTE unary database V.5.0, 2009; Au'
  13Wan  'C.P. Wang, G.C. Wang, Y. Lu, D. Wang, X.J. Liu,
          J. Nucl. Mater., 440, 214-19(2013); Au-Th'
!
