$
$ Database for Hf-Ni from A.J. Ross et al. 2018.
$
$ A.J. Ross, T. Gheno, P.K. Ray, M.J. Kramer, X.L. Liu, G. Lindwall, B. Zhou,
$ S.L. Shang, B. Gleeson, Z.-K. Liu, Thermochim. Acta, 668, 142-51(2018).
$
$ Dataset created 2022.11.06 by Bengt Hallstedt.
$
$ The parameters are not written in the paper, but taken from the supplemetary
$ tdb.
$
$ High temperature HfNi identified as B2 and modelled as B2_BCC.
$ L_12 fcc (HfNi3) is also included, but not stable in this system.
$
$ The hcp interaction (or lack thereof) is not ok.
$
$ ------------------------------------------------------------------------------
 TEMP-LIM 298.15 6000.00 !
$
$ELEMENT NAME  REF. STATE               ATOMIC MASS H298-H0    S298    !
$
 ELEMENT VA   VACUUM                      0.0          0.0      0.0    ! 
 ELEMENT HF   HCP_A3                    178.49      5845.0     43.56   ! 
 ELEMENT NI   FCC_A1                     58.69      4787.0     29.7955 ! 
$ ------------------------------------------------------------------------------
$ Phase definitions
$
 PHASE LIQUID:L % 1 1 !
 CONST LIQUID:L : HF NI : !
$
$ Fcc (cF4, Fm-3m) and MeX (cF8, Fm-3m)
$
 PHASE FCC_A1 %A 2 1 1 !
 CONST FCC_A1 : HF NI% : VA : !
$
$ Disordered part of L12_FCC, identical to FCC_A1
$
 PHASE A1_FCC %A 2 1 1 !
 CONST A1_FCC : HF NI% : VA : !
$
$ Prototype AuCu3 (cP4, Pm-3m)
$
 PHASE L12_FCC %AY 3 0.75 0.25 1 !
 CONST L12_FCC : HF NI% : HF% NI : VA :  !
$
$ Bcc (cI2, Im-3m)
$
 PHASE BCC_A2 %B 2 1 3 !
 CONST BCC_A2 : HF% NI : VA : !
$
$ Disordered part of B2_BCC, identical to BCC_A2 (except Va)
$
 PHASE A2_BCC %B 2 1 3 !
 CONST A2_BCC : HF% NI : VA : !
$
$ Prototype CsCl (cP2, Pm-3m)
$
 PHASE B2_BCC %BO 3 0.5 0.5 3 !
 CONST B2_BCC : HF% NI : HF NI% : VA : !
$
$ Hcp (hP2, P6_3/mmc) and Me2X (NiAs-type, hP4, P6_3/mmc, B8_1)
$
 PHASE HCP_A3 %A 2 1 0.5 !
 CONST HCP_A3 : HF% NI : VA : !
$
$ Prototype Al2Cu (tI12, I4/mcm)
$
 PHASE HF2NI_C16 % 2 2 1 !
 CONST HF2NI_C16 : HF : NI VA : !
$
$ Prototype CrB (oC8, Cmcm)
$
 PHASE HFNI_B33 % 2 1 1 !
 CONST HFNI_B33 : HF : NI : !
$
$ Prototype Pt11Zr9 (tI40, I4/m)
$
 PHASE HF9NI11 % 2 9 11 !
 CONST HF9NI11 : HF : NI : !
$
$ Prototype Ni10Zr7 (oC68, Cmca)
$
 PHASE HF7NI10 % 2 7 10 !
 CONST HF7NI10 : HF : NI : !
$
$ Prototype Hf3Ni7 (aP20, P-1)
$
 PHASE HF3NI7 % 2 3 7 !
 CONST HF3NI7 : HF : NI : !
$
$ Prototype Hf8Ni21 (aP29, P-1)
$
 PHASE HF8NI21 % 2 8 21 !
 CONST HF8NI21 : HF : NI : !
$
$ Prototype Pd2RhTa (hP40, P6_3/mmc)
$
 PHASE HFNI3_RT % 2 1 3 !
 CONST HFNI3_RT : HF : NI : !
$
$ Prototype BaPb3 (hR12, R-3m)
$
 PHASE HFNI3_HT % 2 1 3 !
 CONST HFNI3_HT : HF : NI : !
$
$ Prototype Ni7Zr2 (mC36, C2/m)
$
 PHASE HF2NI7 % 2 2 7 !
 CONST HF2NI7 : HF% NI : NI : !
$
$ Prototype AuBe5 (cF24, F-43m)
$
 PHASE HFNI5_C15B % 2 1 5 !
 CONST HFNI5_C15B : HF : NI : ! 
$ ------------------------------------------------------------------------------
$ Defaults
$
 DEFINE-SYSTEM-DEFAULT ELEMENT 2 !
 DEFAULT-COM DEFINE_SYSTEM_ELEMENT VA !
 TYPE-DEF % SEQ * !
 TYPE-DEF A GES AMEND_PHASE_DESCRIPTION @ MAGNETIC -3 0.28 !
 TYPE-DEF B GES AMEND_PHASE_DESCRIPTION @ MAGNETIC -1 0.4 !
 TYPE-DEF O GES AMEND_PHASE_DESCRIPTION B2_BCC DIS_PART A2_BCC !
 TYPE-DEF Y GES AMEND_PHASE_DESCRIPTION L12_FCC DIS_PART A1_FCC !
 FUNCTION ZERO      298.15  0;                                         6000 N !
 FUNCTION UN_ASS    298.15  0;                                         6000 N !
 FUNCTION R         298.15  +8.31451;                                  6000 N !
$ ------------------------------------------------------------------------------
$ Element data
$ ------------------------------------------------------------------------------
$ Hf
$
$ HCP_A3 and BCC_A2 modified in unary 5.0
$ (upper T interval added + trailing decimals added)
$
 PAR  G(HCP_A3,HF:VA),,                 +GHSERHF;                3001 N 91Din !
 PAR  G(BCC_A2,HF:VA),,                 +GBCCHF;                 3001 N 91Din !
 PAR  G(A2_BCC,HF:VA),,                 +GBCCHF;                 3001 N 91Din !
 PAR  G(FCC_A1,HF:VA),,                 +GHSERHF+10000-2.2*T;    3001 N 91Din !
 PAR  G(A1_FCC,HF:VA),,                 +GHSERHF+10000-2.2*T;    3001 N 91Din !
 PAR  G(LIQUID,HF),,                    +GLIQHF;                 3001 N 91Din !
$
 PAR  G(HF2NI_C16,HF:VA),,              +2*GHSERHF+39000-3.9*T;  3001 N 01Wan !
$
 FUNCTION GHSERHF   298.15  -6987.297+110.744026*T-22.7075*T*LN(T)
       -0.004146145*T**2-4.77E-10*T**3-22590*T**(-1);
      2506.00  Y  -1446776.329+6193.609991*T-787.5363829*T*LN(T)
       +0.1735215*T**2-7.575759E-06*T**3+5.01742495E+08*T**(-1);
      3000.00  Y  -34274.698+277.882368*T-44*T*LN(T);
      3001.00  N !
 FUNCTION GBCCHF    298.15  +5370.703+103.836026*T-22.8995*T*LN(T)
       -0.004206605*T**2+8.71923E-07*T**3-22590*T**(-1)-1.446E-10*T**4;
      2506.00  Y  +1912456.771-8624.20573*T+1087.6141247*T*LN(T)
       -0.286857065*T**2+1.3427829E-05*T**3-6.10085091E+08*T**(-1);
      3000.00  Y  -32498.178+276.723247*T-44*T*LN(T);
      3001.00  N !
 FUNCTION GLIQHF    298.15  +27402.256-10.953093*T+GHSERHF;
      1000.00  Y  +49731.499-149.91739*T+12.116812*T*LN(T)
       -0.021262021*T**2+1.376466E-06*T**3-4449699*T**(-1);
      2506.00  Y  -4247.217+265.470523*T-44*T*LN(T);
      3001.00  N !
$ ------------------------------------------------------------------------------
$ Ni
$
$ FCC_A1 and LIQUID modified in unary 5.0 (slight change in upper T interval)
$ BCT_A5 added in unary 5.0
$
 PAR  G(FCC_A1,NI:VA),,                 +GHSERNI;                3000 N 91Din !
 PAR  TC(FCC_A1,NI:VA),,                  633.00;                3000 N 91Din !
 PAR  BM(FCC_A1,NI:VA),,                    0.52;                3000 N 91Din !
 PAR  G(A1_FCC,NI:VA),,                 +GHSERNI;                3000 N 91Din !
 PAR  TC(A1_FCC,NI:VA),,                  633.00;                3000 N 91Din !
 PAR  BM(A1_FCC,NI:VA),,                    0.52;                3000 N 91Din !
 PAR  G(BCC_A2,NI:VA),,                 +GHSERNI
             +8715.084-3.556*T;                                  3000 N 91Din !
 PAR  TC(BCC_A2,NI:VA),,                  575.00;                3000 N 91Din !
 PAR  BM(BCC_A2,NI:VA),,                    0.85;                3000 N 91Din !
 PAR  G(A2_BCC,NI:VA),,                 +GHSERNI
             +8715.084-3.556*T;                                  3000 N 91Din !
 PAR  TC(A2_BCC,NI:VA),,                  575.00;                3000 N 91Din !
 PAR  BM(A2_BCC,NI:VA),,                    0.85;                3000 N 91Din !
 PAR  G(HCP_A3,NI:VA),,                 +GHSERNI+1046+1.255*T;   3000 N 91Din !
 PAR  TC(HCP_A3,NI:VA),,                  633.00;                3000 N 91Din !
 PAR  BM(HCP_A3,NI:VA),,                    0.52;                3000 N 91Din !
$PAR  G(BCT_A5,NI),,                    +GHSERNI+10023-4.556*T;  3000 N 99Gho !
$PAR  G(CBCC_A12,NI:VA),,               +GHSERNI+3556;           3000 N 91Din !
$PAR  G(CUB_A13,NI:VA),,                +GHSERNI+2092;           3000 N 91Din !
 PAR  G(LIQUID,NI),,                    +GLIQNI;                 3000 N 91Din !
$
 PAR  G(HF2NI7,NI:NI),,                 +9*GHSERNI+169803;,,          N 18Ros !
$
 FUNCTION GHSERNI   298.15  -5179.159+117.854*T-22.096*T*LN(T)-0.0048407*T**2;
      1728.00  Y  -27840.62+279.134977*T-43.1*T*LN(T)+1.12754E+31*T**(-9);
      3000.00  N !
 FUNCTION GLIQNI    298.15  +16414.686-9.397*T+GHSERNI-3.82318E-21*T**7;
      1728.00  Y  -9549.817+268.597977*T-43.1*T*LN(T);
      3000.00  N !
 FUNCTION GBCCNI    298.15  +GHSERNI+8715.084-3.556*T;                 3000 N !
$ ------------------------------------------------------------------------------
$ Binary system
$
$ A.J. Ross, T. Gheno, P.K. Ray, M.J. Kramer, X.L. Liu, G. Lindwall, B. Zhou,
$ S.L. Shang, B. Gleeson, Z.-K. Liu, Thermochim. Acta, 668, 142-51(2018).
$
$ Checked against paper and author's tdb. Checked at 6000 K.
$
$ The parameters are not written in the paper, but taken from the supplemetary
$ tdb.
$
$ High temperature HfNi identified as B2 and modelled as B2_BCC.
$ L_12 fcc (HfNi3) is also included, but not stable in this system.
$
$ The hcp interaction (or lack thereof) is not ok.
$
 PAR  L(LIQUID,HF,NI;0),,               -219411+34.632*T;,,           N 18Ros !
 PAR  L(LIQUID,HF,NI;1),,               +87562-21.728*T;,,            N 18Ros !
 PAR  L(LIQUID,HF,NI;2),,               +ZERO;,,                      N 18Ros !
 PAR  L(LIQUID,HF,NI;3),,               -47698;,,                     N 18Ros !
$
 PAR  L(FCC_A1,HF,NI:VA;0),,            -40579.86-6.38*T;,,           N 18Ros !
 PAR  L(FCC_A1,HF,NI:VA;1),,            +91849.49;,,                  N 18Ros !
$
 PAR  L(A1_FCC,HF,NI:VA;0),,            -40579.86-6.38*T;,,           N 18Ros !
 PAR  L(A1_FCC,HF,NI:VA;1),,            +91849.49;,,                  N 18Ros !
$
 PAR  G(L12_FCC,HF:NI:VA;0),,           +GFHF3NI;,,                   N 18Ros !
 PAR  G(L12_FCC,NI:HF:VA;0),,           +GFHFNI3;,,                   N 18Ros !
 PAR  L(L12_FCC,HF,NI:HF:VA;0),,        -1.5*GFHFNI3+1.5*GFHF2NI2
             +1.5*GFHF3NI;,,                                          N 18Ros !
 PAR  L(L12_FCC,HF,NI:HF:VA;1),,        +0.5*GFHFNI3-1.5*GFHF2NI2
             +1.5*GFHF3NI;,,                                          N 18Ros !
 PAR  L(L12_FCC,HF,NI:NI:VA;0),,        +1.5*GFHFNI3+1.5*GFHF2NI2
             -1.5*GFHF3NI;,,                                          N 18Ros !
 PAR  L(L12_FCC,HF,NI:NI:VA;1),,        -1.5*GFHFNI3+1.5*GFHF2NI2
             -0.5*GFHF3NI;,,                                          N 18Ros !
 PAR  L(L12_FCC,*:HF,NI:VA;1),,         +L1FHFNI;,,                   N 18Ros !
 PAR  L(L12_FCC,HF,NI:*:VA;1),,         +3*L1FHFNI;,,                 N 18Ros !
$
 PAR  L(BCC_A2,HF,NI:VA;0),,            -97143-10.563*T;,,            N 18Ros !
 PAR  L(BCC_A2,HF,NI:VA;1),,            +81526-22.728*T;,,            N 18Ros !
$
 PAR  L(A2_BCC,HF,NI:VA;0),,            -97143-10.563*T;,,            N 18Ros !
 PAR  L(A2_BCC,HF,NI:VA;1),,            +81526-22.728*T;,,            N 18Ros !
$
 PAR  G(B2_BCC,HF:NI:VA),,              -62142+13.788*T;,,            N 18Ros !
 PAR  G(B2_BCC,NI:HF:VA),,              -62142+13.788*T;,,            N 18Ros !
$
 PAR  L(HCP_A3,HF,NI:VA;0),,            +ZERO;,,                      N 18Ros !
$
 PAR  G(HF2NI_C16,HF:NI),,              +2*GHSERHF+GHSERNI
             -100318+0.466*T;,,                                       N 18Ros !
 PAR  L(HF2NI_C16,HF:NI,VA;0),,         -2104;,,                      N 01Wan !
$
 PAR  G(HFNI_B33,HF:NI),,               +GHSERHF+GHSERNI
             -104534+8.366*T;,,                                       N 18Ros !
 PAR  G(HF9NI11,HF:NI),,                +9*GHSERHF+11*GHSERNI
             -972420+28.62*T;,,                                       N 18Ros !
 PAR  G(HF7NI10,HF:NI),,                +7*GHSERHF+10*GHSERNI
             -842129+38.556*T;,,                                      N 18Ros !
 PAR  G(HF3NI7,HF:NI),,                 +3*GHSERHF+7*GHSERNI
             -468070+29.92*T;,,                                       N 18Ros !
 PAR  G(HF8NI21,HF:NI),,                +8*GHSERHF+21*GHSERNI
             -1355692+108.605*T;,,                                    N 18Ros !
 PAR  G(HFNI3_RT,HF:NI),,               +GHSERHF+3*GHSERNI
             -205096+30.868*T;,,                                      N 18Ros !
 PAR  G(HFNI3_HT,HF:NI),,               +GHSERHF+3*GHSERNI
             -191348+21.516*T;,,                                      N 18Ros !
$
 PAR  G(HF2NI7,HF:NI),,                 +2*GHSERHF+7*GHSERNI
             -393255+35.28*T;,,                                       N 18Ros !
 PAR  L(HF2NI7,HF,NI:NI;0),,            -149501.295;,,                N 18Ros !
$
 PAR  G(HFNI5_C15B,HF:NI),,             +GHSERHF+5*GHSERNI
             -203400+19.5*T;,,                                        N 18Ros !
$
 FUNCTION UFHFNI    298.15  -6417+14.703*T;                            6000 N !
 FUNCTION GFHFNI3   298.15  +3*UFHFNI-59466;                           6000 N !
 FUNCTION GFHF3NI   298.15  +3*UFHFNI;                                 6000 N !
 FUNCTION GFHF2NI2  298.15  +4*UFHFNI;                                 6000 N !
 FUNCTION L1FHFNI   298.15  ++8362.962;                                6000 N !
$ ------------------------------------------------------------------------------
$
$
 LIST-OF-REFERENCE
 NUMBER  SOURCE
  Null   'Unknown source'
  Lin    'Linear combination of lattice stabilities'
  Same   'Same or similar interaction as in the corresponding stable phase'
  REFLAV 'Laves phase convention: G(LAVES,X:X)=+3*GHSERXX+15000'
  91Din  'A.T. Dinsdale, Calphad, 15, 317-425(1991).'
  99Gho  'G. Ghosh, Metall. Mater. Trans. A, 30A, 1481-94(1999),
          SGTE unary database V.5.0, 2009; Ni'
  01Wan  'T. Wang, Z.P. Jin, J.-C. Zhao, Z. Metallkd., 92, 441-46(2001); Hf-Ni'
  18Ros  'A.J. Ross, T. Gheno, P.K. Ray, M.J. Kramer, X.L. Liu, G. Lindwall,
          B. Zhou, S.L. Shang, B. Gleeson, Z.-K. Liu,
          Thermochim. Acta, 668, 142-51(2018); Hf-Ni'
!
