$
$ Database for Ge-Y from M. Idbenali and C. Servant 2013.
$
$ M. Idbenali, C. Servant, J. Therm. Anal. Calorim., 111, 911-16(2013).
$
$ Dataset created 2022.07.03 by Bengt Hallstedt.
$
$ Most invariants are within 1 K, but the stability range of Ge2Y too small.
$
$ There is a huge inverse stability range of bcc above 3450 K, covering an
$ inverse liquid miscibility gap.
$
$ ------------------------------------------------------------------------------
 TEMP-LIM 298.15 6000.00 !
$
$ELEMENT NAME  REF. STATE               ATOMIC MASS H298-H0    S298    !
$
 ELEMENT VA   VACUUM                      0.0          0.0      0.0    ! 
 ELEMENT GE   DIAMOND_A4                 72.59      4636.0     31.09   ! 
 ELEMENT Y    HCP_A3                     88.9059    5983.457   44.7875 ! 
$ ------------------------------------------------------------------------------
$ Phase definitions
$
 PHASE LIQUID:L % 1 1 !
 CONST LIQUID:L : GE Y : !
$
$ Fcc (cF4, Fm-3m) and MeX (cF8, Fm-3m)
$
 PHASE FCC_A1 %A 2 1 1 !
 CONST FCC_A1 : GE Y : VA : !
$
$ Bcc (cI2, Im-3m)
$
 PHASE BCC_A2 %B 2 1 3 !
 CONST BCC_A2 : GE Y% : VA : !
$
$ Hcp (hP2, P6_3/mmc) and Me2X (NiAs-type, hP4, P6_3/mmc, B8_1)
$
 PHASE HCP_A3 % 2 1 0.5 !
 CONST HCP_A3 : GE Y% : VA : !
$
$ Prototype C (cF8, Fd-3m)
$
 PHASE DIAMOND_A4 % 1 1 !
 CONST DIAMOND_A4 : GE : !
$
$ Prototype DyGe3 (oC16, Cmcm)
$
 PHASE GE7Y2 % 2 7 2 !
 CONST GE7Y2 : GE : Y : !
$
$ Prototype Ge2Tb (oC24, Cmmm)
$
 PHASE GE2Y % 2 2 1 !
 CONST GE2Y : GE : Y : !
$
$ Prototype Si2Th (tI12, I4_1/amd)
$
 PHASE GE5Y3_CC % 2 5 3 !
 CONST GE5Y3_CC : GE : Y : !
$
$ Prototype AlB2 (hP3, P6/mmm)
$
 PHASE GE3Y2_C32 % 2 3 2 !
 CONST GE3Y2_C32 : GE : Y : !
$
$ Pearson oP*, Pccm
$
 PHASE GE3Y2_HT % 2 3 2 !
 CONST GE3Y2_HT : GE : Y : !
$
$ Prototype CrB (oC8, Cmcm)
$
 PHASE GEY_B33 % 2 1 1 !
 CONST GEY_B33 : GE : Y : !
$
$ Prototype Ge10Ho11 (tI84, I4/mmm)
$
 PHASE GE10Y11 % 2 10 11 !
 CONST GE10Y11 : GE : Y : !
$
$ Prototype Ge4Sm5 (oP36, Pnma)
$
 PHASE GE4Y5 % 2 4 5 !
 CONST GE4Y5 : GE : Y : !
$
$ Prototype Mn5Si3 (hP16, P6_3/mcm)
$
 PHASE GE3Y5_D88 % 2 3 5 !
 CONST GE3Y5_D88 : GE : Y : !
$ ------------------------------------------------------------------------------
$ Defaults
$
 DEFINE-SYSTEM-DEFAULT ELEMENT 2 !
 DEFAULT-COM DEFINE_SYSTEM_ELEMENT VA !
 TYPE-DEF % SEQ * !
 TYPE-DEF A GES AMEND_PHASE_DESCRIPTION @ MAGNETIC -3 0.28 !
 TYPE-DEF B GES AMEND_PHASE_DESCRIPTION @ MAGNETIC -1 0.4 !
 FUNCTION ZERO      298.15  0;                                         6000 N !
 FUNCTION UN_ASS    298.15  0;                                         6000 N !
 FUNCTION R         298.15  +8.31451;                                  6000 N !
$ ------------------------------------------------------------------------------
$ Element data
$ ------------------------------------------------------------------------------
$ Ge
$
$ BCT_A5 and RHOMBOHEDRAL_A7 added in unary 4.1
$
 PAR  G(DIAMOND_A4,GE),,                +GHSERGE;                3200 N 91Din !
 PAR  G(FCC_A1,GE:VA),,                 +GHSERGE+36000-22.3*T;   3200 N 91Din !
 PAR  G(BCC_A2,GE:VA),,                 +GHSERGE+34100-23.5*T;   3200 N 91Din !
 PAR  G(HCP_A3,GE:VA),,                 +GHSERGE+35000-21.5*T;   3200 N 91Din !
$PAR  G(BCT_A5,GE),,                    +GHSERGE+28800-16.5*T;   3600 N 99SGUN !
$PAR  G(RHOMBOHEDRAL_A7,GE),,           +GHSERGE+29800-16.5*T;   3600 N 99SGUN !
 PAR  G(LIQUID,GE),,                    +GLIQGE;                 3200 N 91Din !
$
 FUNCTION GHSERGE   298.15  -9486.153+165.635573*T-29.5337682*T*LN(T)
       +0.005568297*T**2-1.513694E-06*T**3+163298*T**(-1);
       900.00  Y  -5689.239+102.86087*T-19.8536239*T*LN(T)-0.003672527*T**2;
      1211.40  Y  -9548.204+156.708024*T-27.6144*T*LN(T)-8.59809E+28*T**(-9);
      3200.00  N !
 FUNCTION GLIQGE    298.15  +37141.489-30.687043*T+GHSERGE+8.56632E-21*T**7;
      1211.40  Y  +27243.473+126.324186*T-27.6144*T*LN(T);
      3200.00  N !
$ ------------------------------------------------------------------------------
$ Y
$
$ HCP_A3, BCC_A2 and LIQUID revised in unary 3.0
$ FCC_A1 added in unary 4.1
$
 PAR  G(HCP_A3,Y:VA)            100.00  +GHSERYY;                3700 N 95She3 !
 PAR  G(BCC_A2,Y:VA)            100.00  +GBCCYY;                 3700 N 95She3 !
 PAR  G(FCC_A1,Y:VA)            100.00  +GHSERYY+6000;           3700 N Frie2 !
 PAR  G(LIQUID,Y)               100.00  +GLIQYY;                 3700 N 95She3 !
$
 FUNCTION GHSERYY   100.00  -8011.09379+128.572856*T-25.6656992*T*LN(T)
       -0.00175716414*T**2-4.17561786E-07*T**3+26911.509*T**(-1);
      1000.00  Y  -7179.74574+114.497104*T-23.4941827*T*LN(T)
       -0.0038211802*T**2-8.2534534E-08*T**3;
      1795.15  Y  -67480.7761+382.124727*T-56.9527111*T*LN(T)
       +0.00231774379*T**2-7.22513088E-08*T**3+18077162.6*T**(-1);
      3700.00  N !
 FUNCTION GBCCYY    100.00  -833.658863+123.667346*T-25.5832578*T*LN(T)
       -0.00237175965*T**2+9.10372497E-09*T**3+27340.0687*T**(-1);
      1000.00  Y  -1297.79829+134.528352*T-27.3038477*T*LN(T)
       -5.41757644E-04*T**2-3.05012175E-07*T**3;
      1795.15  Y  +15389.4975+0.981325399*T-8.88296647*T*LN(T)
       -0.00904576576*T**2+4.02944768E-07*T**3-2542575.96*T**(-1);
      3700.00  N !
 FUNCTION GLIQYY    100.00  +2098.50738+119.41873*T-24.6467508*T*LN(T)
       -0.00347023463*T**2-8.12981167E-07*T**3+23713.7332*T**(-1);
      1000.00  Y  +7386.44846+19.4520171*T-9.0681627*T*LN(T)
       -0.0189533369*T**2+1.7595327E-06*T**3;
      1795.15  Y  -12976.5957+257.400783*T-43.0952*T*LN(T);
      3700.00  N !
$ ------------------------------------------------------------------------------
$ Binary system
$
$ M. Idbenali, C. Servant, J. Therm. Anal. Calorim., 111, 911-16(2013).
$
$ Checked against paper. Checked at 6000 K.
$
$ Most invariants are within 1 K, but the stability range of Ge2Y too small.
$
$ There is a huge inverse stability range of bcc above 3450 K, covering an
$ inverse liquid miscibility gap.
$
 PAR  L(LIQUID,GE,Y;0),,                -325857.633+72.4738522*T;,,   N 13Idb !
 PAR  L(LIQUID,GE,Y;1),,                +16510.5176-4.65893352*T;,,   N 13Idb !
 PAR  L(LIQUID,GE,Y;2),,                +43797.7362-0.090413928*T;,,  N 13Idb !
$
 PAR  L(BCC_A2,GE,Y:VA;0),,             -141713.309;,,                N 13Idb !
 PAR  L(HCP_A3,GE,Y:VA;0),,             -19680.9005;,,                N 13Idb !
$
 PAR  G(GE7Y2,GE:Y),,                   +7*GHSERGE+2*GHSERYY
             -381141+5.76*T;,,                                        N 13Idb !
 PAR  G(GE2Y,GE:Y),,                    +2*GHSERGE+GHSERYY
             -208731+20.49*T;,,                                       N 13Idb !
 PAR  G(GE5Y3_CC,GE:Y),,                +5*GHSERGE+3*GHSERYY
             -638670.6424+73.6*T;,,                                   N 13Idb !
 PAR  G(GE3Y2_C32,GE:Y),,               +3*GHSERGE+2*GHSERYY
             -423927.1025+48.395*T;,,                                 N 13Idb !
 PAR  G(GE3Y2_HT,GE:Y),,                +3*GHSERGE+2*GHSERYY
             -415124.5+43.2394472*T;,,                                N 13Idb !
 PAR  G(GEY_B33,GE:Y),,                 +GHSERGE+GHSERYY
             -203059.234+29.0239238*T;,,                              N 13Idb !
 PAR  G(GE10Y11,GE:Y),,                 +10*GHSERGE+11*GHSERYY
             -2201122.623+331.0240689*T;,,                            N 13Idb !
 PAR  G(GE4Y5,GE:Y),,                   +4*GHSERGE+5*GHSERYY
             -985918.59+163.056312*T;,,                               N 13Idb !
 PAR  G(GE3Y5_D88,GE:Y),,               +3*GHSERGE+5*GHSERYY
             -859272+152.1332*T;,,                                    N 13Idb !
$
$ Metastable
$
 PAR  L(FCC_A1,GE,Y:VA;0),,             -19680.9005;,,                N Same !
$ ------------------------------------------------------------------------------
$
$
 LIST-OF-REFERENCE
 NUMBER  SOURCE
  Null   'Unknown source'
  Same   'Same or similar interaction as in the corresponding stable phase'
  Frie2  'Suzana Fries and Leo Lukas, unpublished,
          SGTE unary database V.4.1, 1999; Y'
  91Din  'A.T. Dinsdale, Calphad, 15, 317-425(1991).'
  95She3 'H. Shen, W. Zhang, G. Liu, R. Wang, Z. Du, Report F-95-03,
          University of Science and Technology, Beijing, May 1995,
          SGTE unary database V.3.0, 1996; Y'
  99SGUN 'SGTE unary database V.4.1, 1999.'
  13Idb  'M. Idbenali, C. Servant,
          J. Therm. Anal. Calorim., 111, 911-16(2013); Ge-Y'
!
