$
$ Database for Ge-S from S. Chen et al. 2022.
$
$ S. Chen, J. Wang, S. Yu, B. Hu, Q. Wu, Y. Du,
$ J. Electron. Mater., 51, 2114-30(2022).
$
$ Dataset created 2022.10.23 by Bengt Hallstedt.
$
$ Associated liquid model. Liquid is stable also below 230 K at GeS2.
$
$ ------------------------------------------------------------------------------
 TEMP-LIM 298.15 6000.00 !
$
$ELEMENT NAME  REF. STATE               ATOMIC MASS H298-H0    S298    !
$
 ELEMENT VA   VACUUM                      0.0          0.0      0.0    ! 
 ELEMENT GE   DIAMOND_A4                 72.59      4636.0     31.09   ! 
 ELEMENT S    ORTHORHOMBIC_A16           32.06      4412.0     32.07   ! 
$ ------------------------------------------------------------------------------
$ Species
$
 SPECIE  GES2                               GE1S2 !
$ ------------------------------------------------------------------------------
$ Phase definitions
$
 PHASE LIQUID:L % 1 1 !
 CONST LIQUID:L : GE GES2 S : !
$
$ Fcc (cF4, Fm-3m) and MeX (cF8, Fm-3m)
$
 PHASE FCC_A1 %A 2 1 1 !
 CONST FCC_A1 : GE S : VA : !
$
$ Bcc (cI2, Im-3m)
$
 PHASE BCC_A2 %B 2 1 3 !
 CONST BCC_A2 : GE S : VA : !
$
$ Hcp (hP2, P6_3/mmc) and Me2X (NiAs-type, hP4, P6_3/mmc, B8_1)
$
 PHASE HCP_A3 %A 2 1 0.5 !
 CONST HCP_A3 : GE : VA : !
$
$ Prototype C (cF8, Fd-3m)
$
 PHASE DIAMOND_A4 % 1 1 !
 CONST DIAMOND_A4 : GE : !
$
$ Prototype alpha-S (oF128, Fddd)
$
 PHASE ORTHORHOMBIC_A16 % 1 1 !
 CONST ORTHORHOMBIC_A16 : S : !
$
$ Prototype beta-S (mP48, P2_1/a)
$
 PHASE MONOCLINIC_S % 1 1 !
 CONST MONOCLINIC_S : S : !
$
$ Prototype GeS (oP8, Pnma)
$
 PHASE GES_B16 % 2 1 1 !
 CONST GES_B16 : GE : S : !
$
$ unknown structure
$
 PHASE GES_BETA % 2 1 1 !
 CONST GES_BETA : GE : S : !
$
$ Prototype GeS2 (mP36, Pc) alpha
$ Prototype GeS2 (mP48, P2_1/c) beta
$
 PHASE GES2 % 2 1 2 !
 CONST GES2 : GE : S : !
$ ------------------------------------------------------------------------------
$ Defaults
$
 DEFINE-SYSTEM-DEFAULT ELEMENT 2 !
 DEFAULT-COM DEFINE_SYSTEM_ELEMENT VA !
 TYPE-DEF % SEQ * !
 TYPE-DEF A GES AMEND_PHASE_DESCRIPTION @ MAGNETIC -3 0.28 !
 TYPE-DEF B GES AMEND_PHASE_DESCRIPTION @ MAGNETIC -1 0.4 !
 FUNCTION ZERO      298.15  0;                                         6000 N !
 FUNCTION UN_ASS    298.15  0;                                         6000 N !
 FUNCTION R         298.15  +8.31451;                                  6000 N !
 FUNCTION RTLNP     298.15  +8.31451*T*LN(1E-05*P);                    6000 N !
$ ------------------------------------------------------------------------------
$ Element data
$ ------------------------------------------------------------------------------
$ Ge
$
$ BCT_A5 and RHOMBOHEDRAL_A7 added in unary 4.1
$
 PAR  G(DIAMOND_A4,GE),,                +GHSERGE;                3200 N 91Din !
 PAR  G(FCC_A1,GE:VA),,                 +GHSERGE+36000-22.3*T;   3200 N 91Din !
 PAR  G(BCC_A2,GE:VA),,                 +GHSERGE+34100-23.5*T;   3200 N 91Din !
 PAR  G(HCP_A3,GE:VA),,                 +GHSERGE+35000-21.5*T;   3200 N 91Din !
$PAR  G(BCT_A5,GE),,                    +GHSERGE+28800-16.5*T;   3600 N 99SGUN !
$PAR  G(RHOMBOHEDRAL_A7,GE),,           +GHSERGE+29800-16.5*T;   3600 N 99SGUN !
 PAR  G(LIQUID,GE),,                    +GLIQGE;                 3200 N 91Din !
$
 FUNCTION GHSERGE   298.15  -9486.153+165.635573*T-29.5337682*T*LN(T)
       +0.005568297*T**2-1.513694E-06*T**3+163298*T**(-1);
       900.00  Y  -5689.239+102.86087*T-19.8536239*T*LN(T)-0.003672527*T**2;
      1211.40  Y  -9548.204+156.708024*T-27.6144*T*LN(T)-8.59809E+28*T**(-9);
      3200.00  N !
 FUNCTION GLIQGE    298.15  +37141.489-30.687043*T+GHSERGE+8.56632E-21*T**7;
      1211.40  Y  +27243.473+126.324186*T-27.6144*T*LN(T);
      3200.00  N !
$ ------------------------------------------------------------------------------
$ S
$
$ FCC_A1 and BCC_A2 revised in unary 3.0
$ ORTHORHOMBIC_A16 and LIQUID modified in unary 4.1
$ MONOCLINIC revised in unary 4.1
$ ORTHORHOMBIC_A16 and LIQUID revised in unary 4.4
$
 PAR  G(ORTHORHOMBIC_A16,S),,           +GHSERSS;                1300 N 01SGUN !
 PAR  G(MONOCLINIC_S,S),,               +GMONSS;                 1300 N 01SGUN !
 PAR  G(FCC_A1,S:VA),,                  +GHSERSS+105000;         1300 N Sundm !
$PAR  G(FCC_A1,S:VA),,                  +GHSERSS+30000+32*T;     1300 N 91Din !
 PAR  G(BCC_A2,S:VA),,                  +GHSERSS+105000;         1300 N Sundm !
$PAR  G(BCC_A2,S:VA),,                  +GHSERSS+31000+32*T;     1300 N 91Din !
 PAR  G(LIQUID,S),,                     +GLIQSS;                 1300 N 01SGUN !
$
 FUNCTION GHSERSS   298.15  -5198.294+53.913855*T-10.726*T*LN(T)
       -0.0273801*T**2+8.179537E-6*T**3; 
       368.30  Y  -6475.706+94.182332*T-17.8693298*T*LN(T)
       -0.010936877*T**2+1.406467E-6*T**3+36871*T**(-1); 
      1300.00  Y  -12485.546+188.304687*T-32*T*LN(T); 
      1301.00  N !
 FUNCTION GMONSS    298.15  -5725.422+89.544275*T-17.413*T*LN(T)
       -0.00993935*T**2-0.070062E-6*T**3+1250*T**(-1); 
       388.36  Y  -7455.008+114.782945*T-21.1531404*T*LN(T)
       -0.008566163*T**2+1.112484E-6*T**3+122167*T**(-1); 
      1300.00  Y  -11779.415+186.699065*T-32*T*LN(T); 
      1301.00  N !
 FUNCTION GLIQSS    298.15  -4196.575+85.63027*T-17.413*T*LN(T)
       -0.00993935*T**2-0.070062E-6*T**3+1250*T**(-1); 
       335.00  Y  1790361.982-44195.451432*T+7511.6194258*T*LN(T)
       -13.985517511*T**2+4838.738601E-6*T**3-79880891*T**(-1); 
       388.36  Y  -876313.954+23366.872986*T-4028.756*T*LN(T)
       +7.954595*T**2-2908.513333E-6*T**3+33980035*T**(-1); 
       432.25  Y  454088.687-7814.670231*T+1237.001*T*LN(T)
       -1.5607295*T**2+359.883667E-6*T**3-31765395*T**(-1); 
       500.00  Y  18554.561-144.895285*T+16.535*T*LN(T)
       -0.0454119*T**2+8.327402E-6*T**3-2705030*T**(-1); 
       700.00  Y  21243.126-113.298877*T+9.944*T*LN(T)
       -0.0288384*T**2+3.791365E-6*T**3-3507570*T**(-1); 
       900.00  Y  16117.849-32.79523*T-2.425*T*LN(T)
       -0.01712545*T**2+1.84974E-6*T**3-3215170*T**(-1); 
      1300.00  Y  -6461.814+175.590536*T-32*T*LN(T); 
      1301.00  N !
$ ------------------------------------------------------------------------------
$ Binary system
$
$ S. Chen, J. Wang, S. Yu, B. Hu, Q. Wu, Y. Du,
$ J. Electron. Mater., 51, 2114-30(2022).
$
$ Checked against paper. Checked at 6000 K.
$
$ Associated liquid model. Liquid is stable also below 230 K at GeS2.
$
 PAR  G(LIQUID,GES2),,                  +GLIQGE+2*GLIQSS
             -189798+123.715*T;,,                                     N 22Che !
 PAR  L(LIQUID,GE,GES2;0),,             -54153+51.783*T;,,            N 22Che !
 PAR  L(LIQUID,GE,GES2;1),,             -71783+65.328*T;,,            N 22Che !
 PAR  L(LIQUID,GE,GES2;2),,             -53247+52.369*T;,,            N 22Che !
 PAR  L(LIQUID,GES2,S;0),,              +28095-18.979*T;,,            N 22Che !
 PAR  L(LIQUID,GES2,S;1),,              +10054-0.494*T;,,             N 22Che !
 PAR  L(LIQUID,GES2,S;2),,              +6078-5.942*T;,,              N 22Che !
$
 PAR  G(GES_B16,GE:S),,                 +GHSERGE+GHSERSS
             -75940+37.19*T;,,                                        N 22Che !
 PAR  G(GES_BETA,GE:S),,                +GHSERGE+GHSERSS
             -74346+35.344*T;,,                                       N 22Che !
 PAR  G(GES2,GE:S),,                    +GHSERGE+2*GHSERSS
             -146310+72*T;,,                                          N 22Che !
$ ------------------------------------------------------------------------------
$
$
 LIST-OF-REFERENCE
 NUMBER  SOURCE
  Null   'Unknown source'
  Same   'Same or similar interaction as in the corresponding stable phase'
  REFLAV 'Laves phase convention: G(LAVES,X:X)=+3*GHSERXX+15000'
  COST   'COST 507 database, 1998'
  Sundm  'Bosse Sundman, unpublished, SGTE unary database V.3.0, 1996; S'
  91Din  'A.T. Dinsdale, Calphad, 15, 317-425(1991).'
  99SGUN 'SGTE unary database V.4.1, 1999.'
  01SGUN 'SGTE unary database V.4.4, 2001.'
  22Che  'S. Chen, J. Wang, S. Yu, B. Hu, Q. Wu, Y. Du,
          J. Electron. Mater., 51, 2114-30(2022); Ge-S'
!
