$
$ Database for Tm-W from N. Krishnamurthy et al. 2000.
$
$ N. Krishnamurthy, T. Kundu, A. Awasthi, S.P. Garg,
$ Z. Metallkd., 91, 234-40(2000).
$
$ Dataset created 2025.02.11 by Bengt Hallstedt.
$
$ The liquid interaction was refitted to approximately match measured
$ liquid solubilities. The discrepancy probably originates from differences
$ in elemental W.
$
$ The solid interactions were set to 1.5 times the liquid interaction. This
$ should be revised when there are data.
$
$ ------------------------------------------------------------------------------
 TEMP-LIM 298.15 6000.00 !
$
$ELEMENT NAME  REF. STATE               ATOMIC MASS H298-H0    S298    !
$
 ELEMENT VA   VACUUM                      0.0          0.0      0.0    ! 
 ELEMENT TM   HCP_A3                    168.9342    7397.312   74.01496! 
 ELEMENT W    BCC_A2                    183.85      4970.0     32.6176 ! 
$ ------------------------------------------------------------------------------
$ Phase definitions
$
 PHASE LIQUID:L % 1 1 !
 CONST LIQUID:L : TM W : !
$
$ Fcc (cF4, Fm-3m) and MeX (cF8, Fm-3m)
$
 PHASE FCC_A1 %A 2 1 1 !
 CONST FCC_A1 : W : VA : !
$
$ Bcc (cI2, Im-3m)
$
 PHASE BCC_A2 %B 2 1 3 !
 CONST BCC_A2 : W : VA : !
$
$ Hcp (hP2, P6_3/mmc) and Me2X (NiAs-type, hP4, P6_3/mmc, B8_1)
$
 PHASE HCP_A3 % 2 1 0.5 !
 CONST HCP_A3 : TM% W : VA : !
$ ------------------------------------------------------------------------------
$ Defaults
$
 DEFINE-SYSTEM-DEFAULT ELEMENT 2 !
 DEFAULT-COM DEFINE_SYSTEM_ELEMENT VA !
 TYPE-DEF % SEQ * !
 TYPE-DEF A GES AMEND_PHASE_DESCRIPTION @ MAGNETIC -3 0.28 !
 TYPE-DEF B GES AMEND_PHASE_DESCRIPTION @ MAGNETIC -1 0.4 !
 FUNCTION ZERO      298.15  0;                                         6000 N !
 FUNCTION UN_ASS    298.15  0;                                         6000 N !
 FUNCTION R         298.15  +8.31451;                                  6000 N !
$ ------------------------------------------------------------------------------
$ Element data
$ ------------------------------------------------------------------------------
$ Tm
$
 PAR  G(HCP_A3,TM:VA),,                 +GHSERTM;                2300 N 91Din !
 PAR  G(LIQUID,TM),,                    +GLIQTM;                 2300 N 91Din !
$
 FUNCTION GHSERTM   298.15  -10016.715+151.037648*T-34.3664974*T*LN(T)
       +0.012110965*T**2-3.831156E-06*T**3+95982*T**(-1);
       700.00  Y  -14701.965+147.957496*T-32.1951269*T*LN(T)
       +4.44753E-04*T**2-3.96694E-07*T**3+1091664*T**(-1);
      1600.00  Y  -8669.227+97.98144*T-25.1816969*T*LN(T)-0.003384563*T**2;
      1818.00  Y  +727125.608-4147.40063*T+534.082763*T*LN(T)
       -0.19093039*T**2+1.1689185E-05*T**3-1.8038222E+08*T**(-1);
      2300.00  N !
 FUNCTION GLIQTM    298.15  +13199.249-6.557671*T+GHSERTM;
       600.00  Y  +22640.028-126.738485*T+6.8744933*T*LN(T)
       -0.025487085*T**2+2.288172E-06*T**3-1585412*T**(-1);
      1818.00  Y  -10090.305+214.184413*T-41.37976*T*LN(T);
      2300.00  N !
$ ------------------------------------------------------------------------------
$ W
$
 PAR  G(BCC_A2,W:VA),,                  +GHSERWW;,,                   N 91Din !
 PAR  G(FCC_A1,W:VA),,                  +GHSERWW+19300+0.63*T;,,      N 91Din !
 PAR  G(HCP_A3,W:VA),,                  +GHSERWW+14750;,,             N 91Din !
 PAR  G(LIQUID,W),,                     +GLIQWW;,,                    N 91Din !
$
 FUNCTION GHSERWW   298.15  -7646.311+130.4*T-24.1*T*LN(T)
       -0.001936*T**2+2.07E-07*T**3+44500*T**(-1)-5.33E-11*T**4;
      3695.00  Y  -82868.801+389.362335*T-54*T*LN(T)+1.528621E+33*T**(-9);
      6000.00  N !
 FUNCTION GLIQWW    298.15  +52160.584-14.10999*T+GHSERWW-2.713468E-24*T**7;
      3695.00  Y  -30436.051+375.175*T-54*T*LN(T);
      6000.00  N !
 FUNCTION GFCCWW    298.15  +GHSERWW+19300+0.63*T;                     6000 N !
$ ------------------------------------------------------------------------------
$ Binary system
$
$ N. Krishnamurthy, T. Kundu, A. Awasthi, S.P. Garg,
$ Z. Metallkd., 91, 234-40(2000).
$
$ Checked against paper. Checked at 6000 K.
$
$ The liquid interaction was refitted to approximately match measured
$ liquid solubilities. The discrepancy probably originates from differences
$ in elemental W.
$
$ The solid interactions were set to 1.5 times the liquid interaction. This
$ should be revised when there are data.
$
$PAR  L(LIQUID,TM,W;0),,                +70700;,,                     N 00Kri !
 PAR  L(LIQUID,TM,W;0),,                +65000;,,                     N 00Kri !
$
 PAR  L(HCP_A3,TM,W:VA;0),,             +98000;,,                     N 25Hal !
$ ------------------------------------------------------------------------------
$
$
 LIST-OF-REFERENCE
 NUMBER  SOURCE
  Null   'Unknown source'
  Same   'Same or similar interaction as in the corresponding stable phase'
  REFLAV 'Laves phase convention: G(LAVES,X:X)=+3*GHSERXX+15000'
  91Din  'A.T. Dinsdale, Calphad, 15, 317-425(1991).'
  00Kri  'N. Krishnamurthy, T. Kundu, A. Awasthi, S.P. Garg,
          Z. Metallkd., 91, 234-40(2000); Tm-W'
  25Hal  'B. Hallstedt, dummy solid interaction, 2025; Tm-W'
!
