$
$ Database for Pr-Si from K. Xu et al. 2020.
$
$ K. Xu, K. Chang, X. Zhou, L. Chen, J. Liu, Z. Deng, F.Huang, Q. Huang,
$ J. Am. Ceram. Soc., 103, 3812-25(2020).
$
$ Dataset created 2020.01.11 by Bengt Hallstedt.
$
$ ------------------------------------------------------------------------------
 TEMP-LIM 298.15 6000.00 !
$
$ELEMENT NAME  REF. STATE               ATOMIC MASS H298-H0    S298    !
$
 ELEMENT VA   VACUUM                      0.0          0.0      0.0    ! 
 ELEMENT PR   DHCP                      140.9077    7418.232   73.9313 ! 
 ELEMENT SI   DIAMOND_A4                 28.0855    3217.      18.81   ! 
$ ------------------------------------------------------------------------------
$ Phase definitions
$
 PHASE LIQUID:L % 1 1 !
 CONST LIQUID:L : PR SI : !
$
$ Fcc (cF4, Fm-3m) and MeX (cF8, Fm-3m)
$
 PHASE FCC_A1 %A 2 1 1 !
 CONST FCC_A1 : SI : VA : !
$
$ Bcc (cI2, Im-3m)
$
 PHASE BCC_A2 %B 2 1 3 !
 CONST BCC_A2 : PR% SI : VA : !
$
$ Hcp (hP2, P6_3/mmc) and Me2X (NiAs-type, hP4, P6_3/mmc, B8_1)
$
 PHASE HCP_A3 %A 2 1 0.5 !
 CONST HCP_A3 : SI : VA : !
$
$ Prototype alpha-La (hP4, P6_3/mmc)
$
 PHASE DHCP % 1 1 !
 CONST DHCP : PR : !
$
$ Prototype C (cF8, Fd-3m)
$
 PHASE DIAMOND_A4 % 1 1 !
 CONST DIAMOND_A4 : SI : !
$
$ Prototype Cr5B3 (tI32, I4/mcm)
$
 PHASE PR5SI3_D8L % 2 5 3 !
 CONST PR5SI3_D8L : PR : SI : !
$
$ Prototype Si4Zr5 (tP36, P4_12_12)
$
 PHASE PR5SI4 % 2 5 4 !
 CONST PR5SI4 : PR : SI : !
$
$ Prototype FeB (oP8, Pnma)
$
 PHASE PRSI_B27 % 2 1 1 !
 CONST PRSI_B27 : PR : SI : !
$
$ Prototype V2B3 (oC20, Cmcm)
$
 PHASE PR3SI4 % 2 3 4 !
 CONST PR3SI4 : PR : SI : !
$
$ Prototype GdSi1.4 (oI12, Imma)
$
 PHASE PR5SI9_ALPHA % 2 5 9 !
 CONST PR5SI9_ALPHA : PR : SI : !
$
$ Prototype Si2Th (tI12, I4_1/amd)
$
 PHASE PR5SI9_CC % 2 5 9 !
 CONST PR5SI9_CC : PR : SI : !
$ ------------------------------------------------------------------------------
$ Defaults
$
 DEFINE-SYSTEM-DEFAULT ELEMENT 2 !
 DEFAULT-COM DEFINE_SYSTEM_ELEMENT VA !
 TYPE-DEF % SEQ * !
 TYPE-DEF A GES AMEND_PHASE_DESCRIPTION @ MAGNETIC -3 0.28 !
 TYPE-DEF B GES AMEND_PHASE_DESCRIPTION @ MAGNETIC -1 0.4 !
 FUNCTION ZERO      298.15  0;                                         6000 N !
 FUNCTION UN_ASS    298.15  0;                                         6000 N !
 FUNCTION R         298.15  +8.31451;                                  6000 N !
$ ------------------------------------------------------------------------------
$ Element data
$ ------------------------------------------------------------------------------
$ Pr
$
 PAR  G(DHCP,PR),,                      +GHSERPR;                3800 N 91Din !
 PAR  G(BCC_A2,PR:VA),,                 +GBCCPR;                 3800 N 91Din !
 PAR  G(LIQUID,PR),,                    +GLIQPR;                 3800 N 91Din !
$
 FUNCTION GHSERPR   298.15  -18803.379+356.587384*T-68.9176*T*LN(T)
       +0.072929*T**2-2.5184333E-05*T**3+507385*T**(-1);
       500.00  Y  -7246.848+82.427384*T-22.8909*T*LN(T)
       -0.00497126*T**2-1.22951E-06*T**3;
       800.00  Y  +95411.023-1073.55111*T+146.764*T*LN(T)
       -0.1288205*T**2+1.5592233E-05*T**3-11588800*T**(-1);
      1068.00  Y  -481663.131+4234.33311*T-606.120311*T*LN(T)
       +0.305181506*T**2-3.0994702E-05*T**3+70926840*T**(-1);
      1204.00  Y  -20014.678+227.685155*T-42.9697*T*LN(T);
      3800.00  N !
 FUNCTION GBCCPR    298.15  -2863.651+28.274853*T-13.7470527*T*LN(T)
       -0.02284377*T**2+3.542468E-06*T**3-87486*T**(-1);
      1068.00  Y  -11985.919+188.657121*T-38.451*T*LN(T);
      1204.00  Y  +953.224+100.826281*T-26.6824313*T*LN(T)
       -0.004106833*T**2+1.76214E-07*T**3-2473024*T**(-1);
      3800.00  N !
 FUNCTION GLIQPR    298.15  +3848.961-29.099465*T-4.7344931*T*LN(T)
       -0.035119723*T**2+5.427467E-06*T**3-207406*T**(-1);
      1068.00  Y  -10539.574+219.508805*T-42.9697*T*LN(T);
      3800.00  N !
$ ------------------------------------------------------------------------------
$ Si
$
 PAR  G(DIAMOND_A4,SI),,                +GHSERSI;                3600 N 91Din !
 PAR  G(FCC_A1,SI:VA),,                 +GHSERSI+51000-21.8*T;   3600 N 91Din !
 PAR  G(BCC_A2,SI:VA),,                 +GHSERSI+47000-22.5*T;   3600 N 91Din !
 PAR  G(HCP_A3,SI:VA),,                 +GHSERSI+49200-20.8*T;   3600 N 91Din !
$PAR  G(CBCC_A12,SI:VA),,               +GHSERSI+50208-20.377*T; 3600 N 91Din !
$PAR  G(CUB_A13,SI:VA),,                +GHSERSI+47279-20.377*T; 3600 N 91Din !
 PAR  G(LIQUID,SI),,                    +GLIQSI;                 3600 N 91Din !
$
 FUNCTION GHSERSI   298.15  -8162.609+137.236859*T-22.8317533*T*LN(T)
       -0.001912904*T**2-3.552E-09*T**3+176667*T**(-1);
      1687.00  Y  -9457.642+167.281367*T-27.196*T*LN(T)-4.20369E+30*T**(-9);
      3600.00  N !
 FUNCTION GLIQSI    298.15  +50696.36-30.099439*T+GHSERSI+2.09307E-21*T**7;
      1687.00  Y  +40370.523+137.722298*T-27.196*T*LN(T);
      3600.00  N !
 FUNCTION GBCCSI    298.15  +GHSERSI+47000-22.5*T;                     3600 N !
$ ------------------------------------------------------------------------------
$ Binary system
$
$ K. Xu, K. Chang, X. Zhou, L. Chen, J. Liu, Z. Deng, F.Huang, Q. Huang,
$ J. Am. Ceram. Soc., 103, 3812-25(2020).
$
$ Checked against paper. Checked at 6000 K.
$
 PAR  L(LIQUID,PR,SI;0),,               -290000+30*T;,,               N 20Xu !
 PAR  L(LIQUID,PR,SI;1),,               +18000;,,                     N 20Xu !
 PAR  L(LIQUID,PR,SI;2),,               +65000;,,                     N 20Xu !
$
 PAR  L(BCC_A2,PR,SI:VA;0),,            -150000;,,                    N 20Xu !
$
 PAR  G(PR5SI3_D8L,PR:SI),,             -610000+1029*T-213.63*T*LN(T)
             -0.018898*T**2+364436.5*T**(-1);,,                       N 20Xu !
 PAR  G(PR5SI4,PR:SI),,                 -760000+1217.5*T-242.91*T*LN(T)
             -0.01824*T**2+872820*T**(-1);,,                          N 20Xu !
 PAR  G(PRSI_B27,PR:SI),,               -172000+232*T-47.76*T*LN(T)
             -0.005942*T**2+152890.5*T**(-1);,,                       N 20Xu !
 PAR  G(PR3SI4,PR:SI),,                 +3*GHSERPR+4*GHSERSI
             -512000-0.9*T;,,                                         N 20Xu !
 PAR  G(PR5SI9_ALPHA,PR:SI),,           -1000000+1537*T-296.85*T*LN(T)
             -0.0857*T**2+547782.5*T**(-1);,,                         N 20Xu !
 PAR  G(PR5SI9_CC,PR:SI),,              -980000+1688*T-335.95*T*LN(T)
             -0.04392*T**2+30297.5*T**(-1);,,                         N 20Xu !
$ ------------------------------------------------------------------------------
$
$
 LIST-OF-REFERENCE
 NUMBER  SOURCE
  Null   'Unknown source'
  Same   'Same or similar interaction as in the corresponding stable phase'
  REFLAV 'Laves phase convention: G(LAVES,X:X)=+3*GHSERXX+15000'
  91Din  'A.T. Dinsdale, Calphad, 15, 317-425(1991).'
  20Xu   'K. Xu, K. Chang, X. Zhou, L. Chen, J. Liu, Z. Deng, F.Huang,
          Q. Huang, J. Am. Ceram. Soc., 103, 3812-25(2020); Pr-Si'
!
