$
$ Database for Co-Ge from J. Korb 2004 (included in LB Vol. 5)
$
$ J. Korb, GTT-Technologies, unpublished work, 2004.
$
$ Dataset created 2015.04.04 by Bengt Hallstedt.
$ 2020.04.19: Modified for use with GES6.
$
$ The invariant equilibria differ by up to 0.6 K compared to LB (both printed
$ and lb5-v2.tdb). This is caused by a (minor) misprint in lb5-v2.tdb and
$ LBall-v7+fun.tdb for fcc-Co.
$
$ ------------------------------------------------------------------------------
 TEMP-LIM 298.15 6000.00 !
$
$ELEMENT NAME  REF. STATE               ATOMIC MASS H298-H0    S298    !
$
 ELEMENT VA   VACUUM                      0.0          0.0      0.0    ! 
 ELEMENT CO   HCP_A3                     58.9332    4765.567   30.0400 ! 
 ELEMENT GE   DIAMOND_A4                 72.59      4636.0     31.09   ! 
$ ------------------------------------------------------------------------------
$ Phase definitions
$
 PHASE LIQUID:L % 1 1 !
 CONST LIQUID:L : CO GE : !
$
$ Fcc (cF4, Fm-3m) and MeX (cF8, Fm-3m)
$
 PHASE FCC_A1 %A 2 1 1 !
 CONST FCC_A1 : CO% GE : VA : !
$
$ Bcc (cI2, Im-3m)
$
 PHASE BCC_A2 %B 2 1 3 !
 CONST BCC_A2 : CO GE : VA : !
$
$ Hcp (hP2, P6_3/mmc) and Me2X (NiAs-type, hP4, P6_3/mmc, B8_1)
$
 PHASE HCP_A3 %A 2 1 0.5 !
 CONST HCP_A3 : CO% GE : VA : !
$
$ Prototype C (cF8, Fd-3m)
$
 PHASE DIAMOND_A4 % 1 1 !
 CONST DIAMOND_A4 : GE : !
$
$ Prototype Cr3Si (cP8, Pm-3n) ?
$
 PHASE CO3GE % 2 3 1 !
 CONST CO3GE : CO : GE : !
$
$ Pearson hP*
$
 PHASE CO5GE2 % 2 5 2 !
 CONST CO5GE2 : CO : GE : !
$
$ alpha: (oP*, Pbnm ?)
$ beta: Prototype InNi2 (hP6, P6_3/mmc) B8_2
$
 PHASE CO5GE3 % 2 5 3 !
 CONST CO5GE3 : CO : GE : !
$
$ Prototype CoGe (mC16, C2/m)
$
 PHASE COGE % 2 1 1 !
 CONST COGE : CO : GE : !
$
$ Prototype Co5Ge7 (tI24, I4mm)
$
 PHASE CO5GE7 % 2 5 7 !
 CONST CO5GE7 : CO : GE : !
$
$ Prototype CoGe2 (oC24, Cmce)
$
 PHASE COGE2 % 2 1 2 !
 CONST COGE2 : CO : GE : !
$ ------------------------------------------------------------------------------
$ Defaults
$
 DEFINE-SYSTEM-DEFAULT ELEMENT 2 !
 DEFAULT-COM DEFINE_SYSTEM_ELEMENT VA !
 TYPE-DEF % SEQ * !
 TYPE-DEF A GES AMEND_PHASE_DESCRIPTION @ MAGNETIC -3 0.28 !
 TYPE-DEF B GES AMEND_PHASE_DESCRIPTION @ MAGNETIC -1 0.4 !
 FUNCTION ZERO      298.15  0;                                         6000 N !
 FUNCTION UN_ASS    298.15  0;                                         6000 N !
 FUNCTION R         298.15  +8.31451;                                  6000 N !
$ ------------------------------------------------------------------------------
$ Element data
$ ------------------------------------------------------------------------------
$ Co
$
 PAR  G(HCP_A3,CO:VA),,                 +GHSERCO;,,                   N 91Din !
 PAR  TC(HCP_A3,CO:VA),,                 1396.00;,,                   N 91Din !
 PAR  BM(HCP_A3,CO:VA),,                    1.35;,,                   N 91Din !
 PAR  G(FCC_A1,CO:VA),,                 +GHSERCO
             +427.591-0.615248*T;,,                                   N 91Din !
 PAR  TC(FCC_A1,CO:VA),,                 1396.00;,,                   N 91Din !
 PAR  BM(FCC_A1,CO:VA),,                    1.35;,,                   N 91Din !
 PAR  G(BCC_A2,CO:VA),,                 +GHSERCO+2938-0.7138*T;,,     N 91Din !
 PAR  TC(BCC_A2,CO:VA),,                 1450.00;,,                   N 91Din !
 PAR  BM(BCC_A2,CO:VA),,                    1.35;,,                   N 91Din !
$PAR  G(CBCC_A12,CO:VA),,               +GHSERCO+4155;,,              N 91Din !
$PAR  G(CUB_A13,CO:VA),,                +GHSERCO+3155;,,              N 91Din !
 PAR  G(LIQUID,CO),,                    +GLIQCO;,,                    N 91Din !
$
 FUNCTION GHSERCO   298.15  +310.241+133.36601*T-25.0861*T*LN(T)
       -0.002654739*T**2-1.7348E-07*T**3+72527*T**(-1);
      1768.00  Y  -17197.666+253.28374*T-40.5*T*LN(T)+9.3488E+30*T**(-9);
      6000.00  N !
 FUNCTION GLIQCO    298.15  +15085.037-8.931932*T+GHSERCO-2.19801E-21*T**7;
      1768.00  Y  -846.61+243.599944*T-40.5*T*LN(T);
      6000.00  N !
$ ------------------------------------------------------------------------------
$ Ge
$
$ BCT_A5 and RHOMBOHEDRAL_A7 added in unary 4.1
$
 PAR  G(DIAMOND_A4,GE),,                +GHSERGE;                3200 N 91Din !
 PAR  G(FCC_A1,GE:VA),,                 +GHSERGE+36000-22.3*T;   3200 N 91Din !
 PAR  G(BCC_A2,GE:VA),,                 +GHSERGE+34100-23.5*T;   3200 N 91Din !
 PAR  G(HCP_A3,GE:VA),,                 +GHSERGE+35000-21.5*T;   3200 N 91Din !
$PAR  G(BCT_A5,GE),,                    +GHSERGE+28800-16.5*T;   3600 N 99SGUN !
$PAR  G(RHOMBOHEDRAL_A7,GE),,           +GHSERGE+29800-16.5*T;   3600 N 99SGUN !
 PAR  G(LIQUID,GE),,                    +GLIQGE;                 3200 N 91Din !
$
 FUNCTION GHSERGE   298.15  -9486.153+165.635573*T-29.5337682*T*LN(T)
       +0.005568297*T**2-1.513694E-06*T**3+163298*T**(-1);
       900.00  Y  -5689.239+102.86087*T-19.8536239*T*LN(T)-0.003672527*T**2;
      1211.40  Y  -9548.204+156.708024*T-27.6144*T*LN(T)-8.59809E+28*T**(-9);
      3200.00  N !
 FUNCTION GLIQGE    298.15  +37141.489-30.687043*T+GHSERGE+8.56632E-21*T**7;
      1211.40  Y  +27243.473+126.324186*T-27.6144*T*LN(T);
      3200.00  N !
$ ------------------------------------------------------------------------------
$ Binary system
$
$ From J. Korb 2004 (included in LB Vol. 5)
$
$ J. Korb, GTT-Technologies, unpublished work, 2004.
$
$ Checked against LB. Checked at 6000 K.
$
$ The invariant equilibria differ by up to 0.6 K compared to LB (both printed
$ and lb5-v2.tdb). This is caused by a (minor) misprint in lb5-v2.tdb and
$ LBall-v7+fun.tdb for fcc-Co.
$
 PAR  L(LIQUID,CO,GE;0),,               -76738-83.018*T;,,            N 04Kor !
 PAR  L(LIQUID,CO,GE;1),,               -64000;,,                     N 04Kor !
$
 PAR  L(FCC_A1,CO,GE:VA;0),,            -110000+0.189634*T;,,         N 04Kor !
 PAR  L(FCC_A1,CO,GE:VA;1),,            -197266-0.1*T;,,              N 04Kor !
$
 PAR  L(HCP_A3,CO,GE:VA;0),,            -127000-1.8*T;,,              N 04Kor !
 PAR  L(HCP_A3,CO,GE:VA;1),,            -184967+10.2857*T;,,          N 04Kor !
$
 PAR  G(CO3GE,CO:GE),,                  +GCO3GE;,,                    N 04Kor !
 PAR  G(CO5GE2,CO:GE),,                 +GCO5GE2;,,                   N 04Kor !
 PAR  G(CO5GE3,CO:GE),,                 +GCO5GE3;,,                   N 04Kor !
 PAR  G(COGE,CO:GE),,                   +GCOGE;,,                     N 04Kor !
 PAR  G(CO5GE7,CO:GE),,                 +GCO5GE7;,,                   N 04Kor !
 PAR  G(COGE2,CO:GE),,                  +GCOGE2;,,                    N 04Kor !
$
$ Metastable
$
 PAR  L(BCC_A2,CO,GE:VA;0),,            -110000+0.189634*T;,,         N Same !
 PAR  L(BCC_A2,CO,GE:VA;1),,            -197266-0.1*T;,,              N Same !
$
 FUNCTION GCO3GE    298.15  -192910.27+564.23221*T-104.79207*T*LN(T)
       -0.00239592*T**2-2.03413E-06*T**3+380879*T**(-1);
      1043.15  Y  -203293.83+691.99915*T-122.37144*T*LN(T);
      1044.15  N !
 FUNCTION GCO5GE2   298.15  -383347+1009.18*T-184.498*T*LN(T)
       -0.0021371*T**2-3.89478E-06*T**3+689231*T**(-1);
       909.00  Y  -393781+1162.97*T-206.024*T*LN(T);
       910.00  N !
 FUNCTION GCO5GE3   298.15  -558211+1255.66*T-219.284*T*LN(T)
       -0.019981*T**2+1648000*T**(-1);
      1483.00  Y  -597709+1675.2*T-277.049*T*LN(T);
      1484.00  N !
 FUNCTION GCOGE     298.15  -123025+310.491*T-54.33*T*LN(T)
       -0.005208*T**2+412000*T**(-1);
      1258.00  Y  -129957+399.516*T-66.9127*T*LN(T);
      1259.00  N !
 FUNCTION GCO5GE7   298.15  -637465+1861.76*T-332.167*T*LN(T)
       +0.0257044*T**2-1.14633E-05*T**3+1505720*T**(-1); 
       900.00  Y  -610887+1422.33*T-264.406*T*LN(T)
       -0.0389814*T**2-8.674E-07*T**3+362635*T**(-1);
      1211.40  Y  -673062+2146.63*T-365.993*T*LN(T);
      1212.40  N !
 FUNCTION GCOGE2    298.15  -140353.99+470.39823*T-81.266*T*LN(T)
       -0.006975*T**2+618000*T**(-1);
      1105.15  Y  -146636.16+569.82566*T-95.670853*T*LN(T);
      1106.15  N !
$ ------------------------------------------------------------------------------
$
 ASSESSED_SYSTEM
  CO-GE(TDB -* +LIQUID +FCC +HCP_A3 +CO3GE +CO5GE2 +CO5GE3 +COGE +CO5GE7
  +COGE2 +DIAMOND ;P3 *) !
$
$
 LIST-OF-REFERENCE
 NUMBER  SOURCE
  Null   'Unknown source'
  Same   'Same or similar interaction as in the corresponding stable phase'
  91Din  'A.T. Dinsdale, Calphad, 15, 317-425(1991).'
  99SGUN 'SGTE unary database V.4.1, 1999.'
  04Kor  'J. Korb, GTT-Technologies, unpublished work, 2004; Co-Ge'
!
