$
$ Database for Co-Ta from K. Shinagawa et al. 2014.
$
$ K. Shinagawa, H. Chinen, T. Omori, K. Oikawa, I. Ohnuma, K. Ishida,
$ R. Kainuma, Intermetallics, 49, 87-97(2014).
$
$ Dataset created 2020.07.05 by Bengt Hallstedt.
$
$ There is an inverse stability range of fcc with a minimum at 5352 K and
$ x(Ta)=0.52.
$
$ ------------------------------------------------------------------------------
 TEMP-LIM 298.15 6000.00 !
$
$ELEMENT NAME  REF. STATE               ATOMIC MASS H298-H0    S298    !
$
 ELEMENT VA   VACUUM                      0.0          0.0      0.0    ! 
 ELEMENT CO   HCP_A3                     58.9332    4765.567   30.0400 ! 
 ELEMENT TA   BCC_A2                    180.9479    5681.872   41.4718 ! 
$ ------------------------------------------------------------------------------
$ Phase definitions
$
 PHASE LIQUID:L % 1 1 !
 CONST LIQUID:L : CO TA : !
$
$ Fcc (cF4, Fm-3m) and MeX (cF8, Fm-3m)
$
 PHASE FCC_A1 %A 2 1 1 !
 CONST FCC_A1 : CO% TA : VA : !
$
$ Disordered part of L12_FCC, identical to FCC_A1
$
 PHASE A1_FCC %A 2 1 1 !
 CONST A1_FCC : CO% TA : VA : !
$
$ Prototype AuCu3 (cP4, Pm-3m)
$
 PHASE L12_FCC %AY 3 0.75 0.25 1 !
 CONST L12_FCC : CO% TA : CO TA% : VA :  !
$
$ Bcc (cI2, Im-3m)
$
 PHASE BCC_A2 %B 2 1 3 !
 CONST BCC_A2 : CO TA% : VA : !
$
$ Hcp (hP2, P6_3/mmc) and Me2X (NiAs-type, hP4, P6_3/mmc, B8_1)
$
 PHASE HCP_A3 %A 2 1 0.5 !
 CONST HCP_A3 : CO% TA : VA : !
$
$ Prototype BaPb3 (hR12, R-3m)
$
 PHASE CO7TA2 % 2 7 2  !
 CONST CO7TA2 : CO : TA : !
$
$ Prototype MgZn2 (hP12, P6_3/mmc)
$
 PHASE CO2TA_C14 % 2 2 1  !
 CONST CO2TA_C14 : CO% TA : CO TA% : !
$
$ Prototype Cu2Mg (cF24, Fd-3m)
$
 PHASE CO2TA_C15 % 2 2 1  !
 CONST CO2TA_C15 : CO% TA : CO TA% : !
$
$ Prototype MgNi2 (hP24, P6_3/mmc)
$
 PHASE CO2TA_C36 % 2 2 1  !
 CONST CO2TA_C36 : CO% TA : CO TA% : !
$
$ Prototype Fe7W6 (hR13, R-3m)
$
 PHASE MU_D85 % 3 6 4 3 !
 CONST MU_D85 : CO : TA : CO TA : !
$
$ Prototype Al2Cu (tI12, I4/mcm)
$
 PHASE COTA2_C16 % 2 1 2  !
 CONST COTA2_C16 : CO% TA : CO TA% : !
$ ------------------------------------------------------------------------------
$ Defaults
$
 DEFINE-SYSTEM-DEFAULT ELEMENT 2 !
 DEFAULT-COM DEFINE_SYSTEM_ELEMENT VA !
 DEFAULT-COM REJECT_PHASE A1_FCC L12_FCC !
 TYPE-DEF % SEQ * !
 TYPE-DEF A GES AMEND_PHASE_DESCRIPTION @ MAGNETIC -3 0.28 !
 TYPE-DEF B GES AMEND_PHASE_DESCRIPTION @ MAGNETIC -1 0.4 !
 TYPE-DEF Y GES AMEND_PHASE_DESCRIPTION L12_FCC DIS_PART A1_FCC !
 FUNCTION ZERO      298.15  0;                                         6000 N !
 FUNCTION UN_ASS    298.15  0;                                         6000 N !
 FUNCTION R         298.15  +8.31451;                                  6000 N !
$ ------------------------------------------------------------------------------
$ Element data
$ ------------------------------------------------------------------------------
$ Co
$
 PAR  G(HCP_A3,CO:VA),,                 +GHSERCO;,,                   N 91Din !
 PAR  TC(HCP_A3,CO:VA),,                 1396.00;,,                   N 91Din !
 PAR  BM(HCP_A3,CO:VA),,                    1.35;,,                   N 91Din !
 PAR  G(FCC_A1,CO:VA),,                 +GHSERCO
             +427.591-0.615248*T;,,                                   N 91Din !
 PAR  TC(FCC_A1,CO:VA),,                 1396.00;,,                   N 91Din !
 PAR  BM(FCC_A1,CO:VA),,                    1.35;,,                   N 91Din !
 PAR  G(A1_FCC,CO:VA),,                 +GHSERCO
             +427.591-0.615248*T;,,                                   N 91Din !
 PAR  TC(A1_FCC,CO:VA),,                 1396.00;,,                   N 91Din !
 PAR  BM(A1_FCC,CO:VA),,                    1.35;,,                   N 91Din !
 PAR  G(BCC_A2,CO:VA),,                 +GHSERCO+2938-0.7138*T;,,     N 91Din !
 PAR  TC(BCC_A2,CO:VA),,                 1450.00;,,                   N 91Din !
 PAR  BM(BCC_A2,CO:VA),,                    1.35;,,                   N 91Din !
$PAR  G(CBCC_A12,CO:VA),,               +GHSERCO+4155;,,              N 91Din !
$PAR  G(CUB_A13,CO:VA),,                +GHSERCO+3155;,,              N 91Din !
 PAR  G(LIQUID,CO),,                    +GLIQCO;,,                    N 91Din !
$
 PAR  G(CO2TA_C14,CO:CO),,              +3*GHSERCO+21408.54;,,        N 14Shi !
 PAR  G(CO2TA_C15,CO:CO),,              +3*GHSERCO+18000;,,           N 14Shi !
 PAR  G(CO2TA_C36,CO:CO),,              +3*GHSERCO+18000;,,           N 14Shi !
 PAR  G(COTA2_C16,CO:CO),,              +3*GHSERCO+15000;,,           N 14Shi !
$
 FUNCTION GHSERCO   298.15  +310.241+133.36601*T-25.0861*T*LN(T)
       -0.002654739*T**2-1.7348E-07*T**3+72527*T**(-1);
      1768.00  Y  -17197.666+253.28374*T-40.5*T*LN(T)+9.3488E+30*T**(-9);
      6000.00  N !
 FUNCTION GLIQCO    298.15  +15085.037-8.931932*T+GHSERCO-2.19801E-21*T**7;
      1768.00  Y  -846.61+243.599944*T-40.5*T*LN(T);
      6000.00  N !
 FUNCTION GBCCCO    298.15  +GHSERCO+2938-0.7138*T;                    6000 N !
$ ------------------------------------------------------------------------------
$ Ta
$
 PAR  G(BCC_A2,TA:VA),,                 +GHSERTA;,,                   N 91Din !
 PAR  G(FCC_A1,TA:VA),,                 +GHSERTA+16000+1.7*T;,,       N 91Din !
 PAR  G(A1_FCC,TA:VA),,                 +GHSERTA+16000+1.7*T;,,       N 91Din !
 PAR  G(HCP_A3,TA:VA),,                 +GHSERTA+12000+2.4*T;,,       N 91Din !
 PAR  G(LIQUID,TA),,                    +GLIQTA;,,                    N 91Din !
$
 PAR  G(CO2TA_C14,TA:TA),,              +3*GHSERTA+130933.2;,,        N 14Shi !
 PAR  G(CO2TA_C15,TA:TA),,              +3*GHSERTA+9000;,,            N 14Shi !
 PAR  G(CO2TA_C36,TA:TA),,              +3*GHSERTA+9000;,,            N 14Shi !
 PAR  G(COTA2_C16,TA:TA),,              +3*GHSERTA+15000;,,           N 14Shi !
$
 FUNCTION GHSERTA   298.15  -7285.889+119.139857*T-23.7592624*T*LN(T)
       -0.002623033*T**2+1.70109E-07*T**3-3293*T**(-1);
      1300.00  Y  -22389.955+243.88676*T-41.137088*T*LN(T)
       +0.006167572*T**2-6.55136E-07*T**3+2429586*T**(-1);
      2500.00  Y  +229382.886-722.59722*T+78.5244752*T*LN(T)
       -0.017983376*T**2+1.95033E-07*T**3-93813648*T**(-1);
      3290.00  Y  -1042384.01+2985.49125*T-362.159132*T*LN(T)
       +0.043117795*T**2-1.055148E-06*T**3+5.54714342E+08*T**(-1);
      6000.00  N !
 FUNCTION GLIQTA    298.15  +29160.975-7.578729*T+GHSERTA;
      1000.00  Y  +43884.339-61.981795*T+0.0279523*T*LN(T)
       -0.012330066*T**2+6.14599E-07*T**3-3523338*T**(-1);
      3290.00  Y  -6314.543+258.110873*T-41.84*T*LN(T);
      6000.00  N !
 FUNCTION GFCCTA    298.15  +GHSERTA+16000+1.7*T;                      6000 N !
$ ------------------------------------------------------------------------------
$ Binary system
$
$ K. Shinagawa, H. Chinen, T. Omori, K. Oikawa, I. Ohnuma, K. Ishida,
$ R. Kainuma, Intermetallics, 49, 87-97(2014).
$
$ Checked against paper. Checked at 6000 K.
$
$ There is an inverse stability range of fcc with a minimum at 5352 K and
$ x(Ta)=0.52.
$
 PAR  L(LIQUID,CO,TA;0),,               -199948.7+44.5468*T;,,        N 14Shi !
 PAR  L(LIQUID,CO,TA;1),,               -13651.5;,,                   N 14Shi !
 PAR  L(LIQUID,CO,TA;2),,               +38187.4;,,                   N 14Shi !
$
 PAR  L(FCC_A1,CO,TA:VA;0),,            -116349.4;,,                  N 14Shi !
 PAR  L(FCC_A1,CO,TA:VA;1),,            +18595.2;,,                   N 14Shi !
 PAR  TC(FCC_A1,CO,TA:VA;0),,           -2200;,,                      N 14Shi !
 PAR  TC(FCC_A1,CO,TA:VA;1),,            -804;,,                      N 14Shi !
$
 PAR  L(A1_FCC,CO,TA:VA;0),,            -116349.4;,,                  N 14Shi !
 PAR  L(A1_FCC,CO,TA:VA;1),,            +18595.2;,,                   N 14Shi !
 PAR  TC(A1_FCC,CO,TA:VA;0),,           -2200;,,                      N 14Shi !
 PAR  TC(A1_FCC,CO,TA:VA;1),,            -804;,,                      N 14Shi !
$
 PAR  G(L12_FCC,CO:TA:VA),,             +GFCO3TA;,,                   N 14Shi !
 PAR  L(L12_FCC,CO,TA:CO:VA;0),,        +0.25*GFCO3TA;,,              N 14Shi !
 PAR  L(L12_FCC,CO,TA:CO:VA;2),,        -0.25*GFCO3TA;,,              N 14Shi !
 PAR  L(L12_FCC,CO,TA:TA:VA;0),,        -1.75*GFCO3TA;,,              N 14Shi !
 PAR  L(L12_FCC,CO,TA:TA:VA;1),,        -GFCO3TA;,,                   N 14Shi !
 PAR  L(L12_FCC,CO,TA:TA:VA;2),,        -0.25*GFCO3TA;,,              N 14Shi !
 PAR  L(L12_FCC,CO:CO,TA:VA;0),,        -GFCO3TA;,,                   N 14Shi !
 PAR  L(L12_FCC,CO,TA:CO,TA:VA;0),,     +GFCO3TA;,,                   N 14Shi !
$
 PAR  L(BCC_A2,CO,TA:VA;0),,            -95196.5+18.5567*T;,,         N 14Shi !
 PAR  L(BCC_A2,CO,TA:VA;1),,            -3489.72;,,                   N 14Shi !
 PAR  L(BCC_A2,CO,TA:VA;2),,            +35362;,,                     N 14Shi !
$
 PAR  L(HCP_A3,CO,TA:VA;0),,            -102000+15*T;,,               N 14Shi !
$
 PAR  G(CO7TA2,CO:TA),,                 +7*GHSERCO+2*GHSERTA
             -297823.5+46.44*T;,,                                     N 14Shi !
$
 PAR  G(CO2TA_C14,CO:TA),,              +2*GHSERCO+GHSERTA
             -143467.2+24.77916*T;,,                                  N 14Shi !
 PAR  G(CO2TA_C14,TA:CO),,              +2*GHSERTA+GHSERCO;,,         N 14Shi !
 PAR  L(CO2TA_C14,CO,TA:TA;0),,         -172563.6;,,                  N 14Shi !
$
 PAR  G(CO2TA_C15,CO:TA),,              +2*GHSERCO+GHSERTA
             -145925.4+25.4736*T;,,                                   N 14Shi !
 PAR  G(CO2TA_C15,TA:CO),,              +2*GHSERTA+GHSERCO;,,         N 14Shi !
 PAR  L(CO2TA_C15,CO:CO,TA;0),,         -12420.63;,,                  N 14Shi !
$
 PAR  G(CO2TA_C36,CO:TA),,              +2*GHSERCO+GHSERTA
             -145361.55+25.335*T;,,                                   N 14Shi !
 PAR  G(CO2TA_C36,TA:CO),,              +2*GHSERTA+GHSERCO;,,         N 14Shi !
 PAR  L(CO2TA_C36,CO:CO,TA;0),,         -14230.86;,,                  N 14Shi !
$
 PAR  G(MU_D85,CO:TA:CO),,              +9*GHSERCO+4*GHSERTA
             -366619.5;,,                                             N 14Shi !
 PAR  G(MU_D85,CO:TA:TA),,              +6*GHSERCO+7*GHSERTA
             -428048.4;,,                                             N 14Shi !
 PAR  L(MU_D85,CO:TA:CO,TA;0),,         -578705.4+293.722*T;,,        N 14Shi !
$
 PAR  G(COTA2_C16,CO:TA),,              +GHSERCO+2*GHSERTA
             -75351.3;,,                                              N 14Shi !
 PAR  G(COTA2_C16,TA:CO),,              +GHSERTA+2*GHSERCO;,,         N 14Shi !
 PAR  L(COTA2_C16,CO,TA:TA;0),,         +28134.6;,,                   N 14Shi !
 PAR  L(COTA2_C16,CO:CO,TA;0),,         -132189.6;,,                  N 14Shi !
$
 FUNCTION GFCO3TA   298.15  -9977.3;                                   6000 N !
$ ------------------------------------------------------------------------------
$
 ASSESSED_SYSTEM
  CO-TA(TDB -* +LIQUID +BCC_A2 +FCC_A1 +HCP_A3 +CO7TA2 +COTA2_C16 
  +CO2TA_C14 +CO2TA_C15 +CO2TA_C36 +MU_D85 ;P3 TMM:500/3500 STP:.1/1600/-2) !
$
$
 LIST-OF-REFERENCE
 NUMBER  SOURCE
  Null   'Unknown source'
  Same   'Same or similar interaction as in the corresponding stable phase'
  REFLAV 'Laves phase convention: G(LAVES,X:X)=+3*GHSERXX+15000'
  91Din  'A.T. Dinsdale, Calphad, 15, 317-425(1991).'
  14Shi  'K. Shinagawa, H. Chinen, T. Omori, K. Oikawa, I. Ohnuma, K. Ishida,
          R. Kainuma, Intermetallics, 49, 87-97(2014); Co-Ta'
!
