$
$ Database for Bi-Co from J. Hu et al. 2022.
$
$ J. Hu, N. Su, X. Wang, F. Yin, X. Ouyang, Calphad, 77, 102404(2022).
$
$ Dataset created 2022.07.16 by Bengt Hallstedt.
$ 2023.02.24: Unary Bi changed from V4.4 to V5.0.
$
$ ------------------------------------------------------------------------------
 TEMP-LIM 298.15 6000.00 !
$
$ELEMENT NAME  REF. STATE               ATOMIC MASS H298-H0    S298    !
$
 ELEMENT VA   VACUUM                      0.0          0.0      0.0    ! 
 ELEMENT BI   RHOMBOHEDRAL_A7           208.98      6426.6     56.735  !
 ELEMENT CO   HCP_A3                     58.9332    4765.567   30.0400 ! 
$ ------------------------------------------------------------------------------
$ Phase definitions
$
 PHASE LIQUID:L % 1 1 !
 CONST LIQUID:L : BI CO : !
$
$ Fcc (cF4, Fm-3m) and MeX (cF8, Fm-3m)
$
 PHASE FCC_A1 %A 2 1 1 !
 CONST FCC_A1 : BI CO% : VA : !
$
$ Bcc (cI2, Im-3m)
$
 PHASE BCC_A2 %B 2 1 3 !
 CONST BCC_A2 : BI CO : VA : !
$
$ Hcp (hP2, P6_3/mmc) and Me2X (NiAs-type, hP4, P6_3/mmc, B8_1)
$
 PHASE HCP_A3 %A 2 1 0.5 !
 CONST HCP_A3 : BI CO% : VA: !
$
$ Prototype alpha-As (hR2, R-3m)
$
 PHASE RHOMBOHEDRAL_A7 % 1 1 !
 CONST RHOMBOHEDRAL_A7 : BI : !
$ ------------------------------------------------------------------------------
$ Defaults
$
 DEFINE-SYSTEM-DEFAULT ELEMENT 2 !
 DEFAULT-COM DEFINE_SYSTEM_ELEMENT VA !
 TYPE-DEF % SEQ * !
 TYPE-DEF A GES AMEND_PHASE_DESCRIPTION @ MAGNETIC -3 0.28 !
 TYPE-DEF B GES AMEND_PHASE_DESCRIPTION @ MAGNETIC -1 0.4 !
 FUNCTION ZERO      298.15  0;                                         6000 N !
 FUNCTION UN_ASS    298.15  0;                                         6000 N !
 FUNCTION R         298.15  +8.31451;                                  6000 N !
$ ------------------------------------------------------------------------------
$ Element data
$ ------------------------------------------------------------------------------
$ Bi
$
$ RHOMBOHEDRAL_A7 and LIQUID modified in unary 5.0
$ DIAMOND_A4 added in unary 5.0
$
 PAR  G(RHOMBOHEDRAL_A7,BI),,           +GHSERBI;                3000 N 09SGUN !
 PAR  G(FCC_A1,BI:VA),,                 +GHSERBI+9900-12.5*T;    3000 N 91Din !
 PAR  G(BCC_A2,BI:VA),,                 +GHSERBI+11297-13.9*T;   3000 N 91Din !
 PAR  G(HCP_A3,BI:VA),,                 +GHSERBI+9900-11.8*T;    3000 N 91Din !
$PAR  G(DIAMOND_A4,BI),,                +GHSERBI
$            +11296.8+9.253655*T;                                3000 N 88Che2 !
$PAR  G(BCT_A5,BI),,                    +GHSERBI+4184.07;        3000 N 91Din !
$PAR  G(TETRAGONAL_A6,BI),,             +GHSERBI+4184.07;        3000 N 91Din !
$PAR  G(TET_ALPHA1_A6,BI),,             +GHSERBI+4234;           3000 N 91Din !
 PAR  G(LIQUID,BI),,                    +GLIQBI;                 3000 N 09SGUN ! 
$
 FUNCTION GHSERBI   298.15  -7817.776+128.418925*T-28.4096529*T*LN(T)
       +0.012338888*T**2-8.381598E-6*T**3;
       544.55  Y  +29293.369-379.605174*T+49.678*T*LN(T)
       -0.0730245*T**2+1.3052833E-5*T**3-3544705*T**(-1)+1.66309E+25*T**(-9);
       800.00  Y  -11085.609+182.955328*T-36.041*T*LN(T)
       +7.4641E-3*T**2-1.05047E-6*T**3+5175*T**(-1)+1.66309E+25*T**(-9);
      1200.00  Y  -7580.864+124.770814*T-27.196*T*LN(T)+1.66309E+25*T**(-9);
      3000.00  N !
 FUNCTION GLIQBI    298.15  +11246.017-20.636399*T+GHSERBI-5.9608E-19*T**7;
       544.55  Y  +40629.667-400.415652*T+49.678*T*LN(T)
       -0.0730245*T**2+1.3052833E-5*T**3-3544705*T**(-1);
       800.00  Y  +250.689+162.14485*T-36.041*T*LN(T)
       +0.0074641*T**2-1.05047E-6*T**3+5175*T**(-1);
      1200.00  Y  +3755.434+103.960336*T-27.196*T*LN(T);
      3000.00 N !
 FUNCTION GHCPBI    298.15  +GHSERBI+9900-11.8*T;                      3000 N !
$ ------------------------------------------------------------------------------
$ Co
$
 PAR  G(HCP_A3,CO:VA),,                 +GHSERCO;,,                   N 91Din !
 PAR  TC(HCP_A3,CO:VA),,                 1396.00;,,                   N 91Din !
 PAR  BM(HCP_A3,CO:VA),,                    1.35;,,                   N 91Din !
 PAR  G(FCC_A1,CO:VA),,                 +GHSERCO
             +427.591-0.615248*T;,,                                   N 91Din !
 PAR  TC(FCC_A1,CO:VA),,                 1396.00;,,                   N 91Din !
 PAR  BM(FCC_A1,CO:VA),,                    1.35;,,                   N 91Din !
 PAR  G(BCC_A2,CO:VA),,                 +GHSERCO+2938-0.7138*T;,,     N 91Din !
 PAR  TC(BCC_A2,CO:VA),,                 1450.00;,,                   N 91Din !
 PAR  BM(BCC_A2,CO:VA),,                    1.35;,,                   N 91Din !
$PAR  G(CBCC_A12,CO:VA),,               +GHSERCO+4155;,,              N 91Din !
$PAR  G(CUB_A13,CO:VA),,                +GHSERCO+3155;,,              N 91Din !
 PAR  G(LIQUID,CO),,                    +GLIQCO;,,                    N 91Din !
$
 FUNCTION GHSERCO   298.15  +310.241+133.36601*T-25.0861*T*LN(T)
       -0.002654739*T**2-1.7348E-07*T**3+72527*T**(-1);
      1768.00  Y  -17197.666+253.28374*T-40.5*T*LN(T)+9.3488E+30*T**(-9);
      6000.00  N !
 FUNCTION GLIQCO    298.15  +15085.037-8.931932*T+GHSERCO-2.19801E-21*T**7;
      1768.00  Y  -846.61+243.599944*T-40.5*T*LN(T);
      6000.00  N !
$ ------------------------------------------------------------------------------
$ Binary system
$
$ J. Hu, N. Su, X. Wang, F. Yin, X. Ouyang, Calphad, 77, 102404(2022).
$
$ Checked against paper and author's tdb. Checked at 6000 K.
$
$
 PAR  L(LIQUID,BI,CO;0),,               +111000-42.5*T;,,             N 22Hu !
 PAR  L(LIQUID,BI,CO;1),,               +10000+0.1*T;,,               N 22Hu !
 PAR  L(LIQUID,BI,CO;2),,               +5680;,,                      N 22Hu !
$
 PAR  L(FCC_A1,BI,CO:VA;0),,            +45000+10*T;,,                N 22Hu !
 PAR  L(HCP_A3,BI,CO:VA;0),,            +100000;,,                    N 22Hu !
$
$ Metastable
$
 PAR  L(BCC_A2,BI,CO:VA;0),,            +45000+10*T;,,                N Same !
$ ------------------------------------------------------------------------------
$
$
 LIST-OF-REFERENCE
 NUMBER  SOURCE
  Null   'Unknown source'
  Same   'Same or similar interaction as in the corresponding stable phase'
  COST   'COST 507 database'
  88Che2 'P.-Y. Chevalier, Thermochim. Acta, 132, 111-16(1988),
          SGTE unary database V.5.0, 2009; Bi' 
  91Din  'A.T. Dinsdale, Calphad, 15, 317-425(1991).'
  09SGUN 'SGTE unary database V.5.0, 2009.'
  22Hu   'J. Hu, N. Su, X. Wang, F. Yin, X. Ouyang,
          Calphad, 77, 102404(2022); Bi-Co'
!
