$
$ Database for Cd-Cu from X. Chen et al. 2010.
$
$ X.M. Chen, L.B. Liu, L.G. Zhang, H. Bo, Z.P. Jin,
$ Trans. Nonferrous Met. Soc. China, 20, 649-54(2010).
$
$ Dataset created 2018.05.19 by Bengt Hallstedt.
$ 2020.12.25: Modified for use with GES6.
$
$ Invariant equilibria differ by up to 3 K.
$
$ ------------------------------------------------------------------------------
 TEMP-LIM 298.15 6000.00 !
$
$ELEMENT NAME  REF. STATE               ATOMIC MASS H298-H0    S298    !
$
 ELEMENT VA   VACUUM                      0.0          0.0      0.0    ! 
 ELEMENT CD   HCP_A3                    112.41      6247.      51.80   ! 
 ELEMENT CU   FCC_A1                     63.546     5004.      33.15   !
$ ------------------------------------------------------------------------------
$ Phase definitions
$
 PHASE LIQUID:L % 1 1 !
 CONST LIQUID:L : CD CU : !
$
$ Fcc (cF4, Fm-3m) and MeX (cF8, Fm-3m)
$
 PHASE FCC_A1 %A 2 1 1 !
 CONST FCC_A1 : CD CU% : VA : !
$
$ Bcc (cI2, Im-3m)
$
 PHASE BCC_A2 %B 2 1 3 !
 CONST BCC_A2 : CD CU : VA : !
$
$ Hcp (hP2, P6_3/mmc) and Me2X (NiAs-type, hP4, P6_3/mmc, B8_1)
$
 PHASE HCP_A3 %A 2 1 0.5 !
 CONST HCP_A3 : CD% CU : VA : !
$
$ Prototype Al5Co2 (hP28, P6_3/mmc)
$
 PHASE CD10CU3_D811 % 2 10 3 !
 CONST CD10CU3_D811 : CD : CU : !
$
$ Prototype Cu5Zn8 (cI52, I-43m)
$
 PHASE CD8CU5_D82 % 2 8 5 !
 CONST CD8CU5_D82 : CD% CU : CD CU% : !
$
$ Prototype Cd3Cu4 (cF1124, F-43m, 216)
$
 PHASE CD3CU4 % 2 3 4 !
 CONST CD3CU4 : CD : CU : !
$
$ Prototype MgZn2 (hP12, P6_3/mmc)
$
 PHASE CDCU2_C14 % 2 1 2 !
 CONST CDCU2_C14 : CD : CU : !
$ ------------------------------------------------------------------------------
$ Defaults
$
 DEFINE-SYSTEM-DEFAULT ELEMENT 2 !
 DEFAULT-COM DEFINE_SYSTEM_ELEMENT VA !
 TYPE-DEF % SEQ * !
 TYPE-DEF A GES AMEND_PHASE_DESCRIPTION @ MAGNETIC -3 0.28 !
 TYPE-DEF B GES AMEND_PHASE_DESCRIPTION @ MAGNETIC -1 0.4 !
 FUNCTION ZERO      298.15  0;                                         6000 N !
 FUNCTION UN_ASS    298.15  0;                                         6000 N !
 FUNCTION R         298.15  +8.31451;                                  6000 N !
$ ------------------------------------------------------------------------------
$ Element data
$ ------------------------------------------------------------------------------
$ Cd
$
$ FCC_A1 and TETRAGONAL_A6 added in unary 3.0
$ BCT_A5 and RHOMBO_A10 added in unary 4.1
$ BCC_A2 added in unary 5.0
$
$ FCC_A1 from 04Che2 and 10Che not included in unary
$
 PAR  G(HCP_A3,CD:VA),,                 +GHSERCD;                1600 N 91Din !
$PAR  G(FCC_A1,CD:VA),,                 +GHSERCD+892.3-0.92*T;   1600 N 93Zak !
$PAR  G(FCC_A1,CD:VA),,                 +GLIQCD-5300+9.5*T;      1600 N 04Che2 !
 PAR  G(FCC_A1,CD:VA),,                 +GHSERCD+5000;           1600 N 10Che !
 PAR  G(BCC_A2,CD:VA),,                 +GHSERCD+1000;           1600 N 04Che1 !
$PAR  G(TETRAGONAL_A6,CD),,             +GHSERCD+892.3-0.92*T;   1600 N 93Zak !
$PAR  G(BCT_A5,CD),,                    +GHSERCD+5000;           1600 N 95Yan !
$PAR  G(RHOMBO_A10,CD),,                +GHSERCD+800-0.62*T;     1600 N 95Yan !
 PAR  G(LIQUID,CD),,                    +GLIQCD;                 1600 N 91Din !
$
 PAR  G(CD8CU5_D82,CD:CD),,             +13*GHSERCD+248313;,,         N 10Che !
$
 FUNCTION GHSERCD   298.15  -7083.469+99.506198*T-22.0442408*T*LN(T)
       -0.006273908*T**2-6966*T**(-1);
       594.22  Y  -20064.971+256.812233*T-45.1611543*T*LN(T)
       +0.008832011*T**2-8.99604E-07*T**3+1241290*T**(-1);
      1500.00  Y  -9027.489+148.20548*T-29.7064*T*LN(T);
      1600.00  N !
 FUNCTION GLIQCD    298.15  +6128.444-10.296916*T+GHSERCD;
       400.00  Y  +21716.884-371.046869*T+53.1313898*T*LN(T)
       -0.115159917*T**2+2.8899781E-05*T**3-1271815*T**(-1);
       594.22  Y  -3252.303+138.251107*T-29.7064*T*LN(T);
      1500.00  Y  +5775.186-9.954373*T+GHSERCD;
      1600.00  N !
 FUNCTION GBCCCD    298.15  +GHSERCD+1000;                             6000 N !
$ ------------------------------------------------------------------------------
$ Cu
$
 PAR  G(FCC_A1,CU:VA),,                 +GHSERCU;                3200 N 91Din !
 PAR  G(BCC_A2,CU:VA),,                 +GHSERCU+4017-1.255*T;   3200 N 91Din !
 PAR  G(HCP_A3,CU:VA),,                 +GHSERCU+600+0.2*T;      3200 N 91Din !
 PAR  G(LIQUID,CU),,                    +GLIQCU;                 3200 N 91Din !
$
 PAR  G(CD8CU5_D82,CU:CU),,             +13*GHSERCU+110422;,,         N 10Che !
$
 FUNCTION GHSERCU   298.15  -7770.458+130.485235*T-24.112392*T*LN(T)
       -0.00265684*T**2+1.29223E-07*T**3+52478*T**(-1);
      1357.77  Y  -13542.026+183.803828*T-31.38*T*LN(T)+3.64167E+29*T**(-9);
      3200.00  N !
 FUNCTION GLIQCU    298.15  +12964.735-9.511904*T+GHSERCU-5.8489E-21*T**7;
      1357.77  Y  -46.545+173.881484*T-31.38*T*LN(T);
      3200.00  N !
$ ------------------------------------------------------------------------------
$ Binary system
$
$ X.M. Chen, L.B. Liu, L.G. Zhang, H. Bo, Z.P. Jin,
$ Trans. Nonferrous Met. Soc. China, 20, 649-54(2010).
$
$ Checked against paper. Checked at 6000 K.
$
$ Invariant equilibria differ by up to 3 K.
$
 PAR  L(LIQUID,CD,CU;0),,               -4630+3.557*T;,,              N 10Che !
 PAR  L(LIQUID,CD,CU;1),,               +5819-2.261*T;,,              N 10Che !
 PAR  L(LIQUID,CD,CU;2),,               +968;,,                       N 10Che !
$
 PAR  L(FCC_A1,CD,CU:VA;0),,            +23185-11*T;,,                N 10Che !
 PAR  L(HCP_A3,CD,CU:VA;0),,            +19346;,,                     N 10Che !
$
 PAR  G(CD10CU3_D811,CD:CU),,           +10*GHSERCD+3*GHSERCU
             -46800+11.7*T;,,                                         N 10Che !
$
 PAR  G(CD8CU5_D82,CD:CU),,             +8*GHSERCD+5*GHSERCU
             -59800+19.5*T;,,                                         N 10Che !
 PAR  G(CD8CU5_D82,CU:CD),,             +8*GHSERCU+5*GHSERCD
             +74100;,,                                                N 10Che !
 PAR  L(CD8CU5_D82,CD,CU:CD;0),,        -162500+247*T;,,              N 10Che !
 PAR  L(CD8CU5_D82,CD,CU:CU;0),,        -162500+247*T;,,              N 10Che !
 PAR  L(CD8CU5_D82,CD:CD,CU;0),,        -104000-247*T;,,              N 10Che !
 PAR  L(CD8CU5_D82,CU:CD,CU;0),,        -104000-247*T;,,              N 10Che !
$
 PAR  G(CD3CU4,CD:CU),,                 +3*GHSERCD+4*GHSERCU
             -22995;,,                                                N 10Che !
 PAR  G(CDCU2_C14,CD:CU),,              +GHSERCD+2*GHSERCU
             -7803;,,                                                 N 10Che !
$
$ Metastable
$
 PAR  L(BCC_A2,CD,CU:VA;0),,            +23185-11*T;,,                N Same !
$ ------------------------------------------------------------------------------
$
$
 LIST-OF-REFERENCE
 NUMBER  SOURCE
  Null   'Unknown source'
  Same   'Same or similar interaction as in the corresponding stable phase'
  COST   'COST 507 database'
  91Din  'A.T. Dinsdale, Calphad, 15, 317-425(1991).'
  93Zak  'W. Zakulski, Z. Moser, K. Rzyman, H.L. Lukas, S.G. Fries,
          M. Sukiennik, R. Kaczmarczyk, R. Castanet,
          J. Phase Equilib., 14, 184-96(1993),
          SGTE unary database V.3.0, 1996; Cd'
  95Yan  'J. Yang, N.J. Silk, A. Watson, A.W. Bryant, T.G. Chart, B.B. Argent,
          Calphad, 19, 415-30(1995), SGTE unary database V.4.1, 1999; Cd, Hg'
  04Che1 'P.-Y. Chevalier, unpublished, Thermodata, 2004,
          SGTE unary database V.5.0, 2009; Cd'
  04Che2 'P.-Y. Chevalier, unpublished, Thermodata, 2004; Cd'
  10Che  'X.M. Chen, L.B. Liu, L.G. Zhang, H. Bo, Z.P. Jin,
          Trans. Nonferrous Met. Soc. China, 20, 649-54(2010); Cd, Cd-Cu'
!
