$
$ Database for Ca-Li from J. Groebner et al. 2002 (included in LB vol. 5)
$
$ J. Groebner, R. Schmid-Fetzer, A. Pisch, C. Colinet, V.V. Pavlyuk,
$ G.S. Dmytriv, D.G. Kevorkov, O.I. Bodak, Thermochim. Acta, 389, 85-94(2002).
$
$ Dataset created 2015.03.22 by Bengt Hallstedt.
$ 2020.12.25: Modified for use with GES6.
$
$ ------------------------------------------------------------------------------
 TEMP-LIM 298.15 6000.00 !
$
$ELEMENT NAME  REF. STATE               ATOMIC MASS H298-H0    S298    !
$
 ELEMENT VA   VACUUM                      0.0          0.0      0.0    ! 
 ELEMENT CA   FCC_A1                     40.08      5736.0     41.588  ! 
 ELEMENT LI   BCC_A2                      6.941     4632.00    29.12   ! 
$ ------------------------------------------------------------------------------
$ Phase definitions
$
 PHASE LIQUID:L % 1 1 !
 CONST LIQUID:L : CA LI : !
$
$ Fcc (cF4, Fm-3m) and MeX (cF8, Fm-3m)
$
 PHASE FCC_A1 %A 2 1 1 !
 CONST FCC_A1 : CA% LI : VA : !
$
$ Bcc (cI2, Im-3m)
$
 PHASE BCC_A2 %B 2 1 3 !
 CONST BCC_A2 : CA% LI% : VA : !
$
$ Hcp (hP2, P6_3/mmc) and Me2X (NiAs-type, hP4, P6_3/mmc, B8_1)
$
 PHASE HCP_A3 %A 2 1 0.5 !
 CONST HCP_A3 : CA LI : VA : !
$
$ Prototype MgZn2 (hP12, P6_3/mmc)
$
 PHASE CALI2_C14 % 2 1 2 !
 CONST CALI2_C14 : CA : LI : !
$ ------------------------------------------------------------------------------
$ Defaults
$
 DEFINE-SYSTEM-DEFAULT ELEMENT 2 !
 DEFAULT-COM DEFINE_SYSTEM_ELEMENT VA !
 TYPE-DEF % SEQ * !
 TYPE-DEF A GES AMEND_PHASE_DESCRIPTION @ MAGNETIC -3 0.28 !
 TYPE-DEF B GES AMEND_PHASE_DESCRIPTION @ MAGNETIC -1 0.4 !
 FUNCTION ZERO      298.15  0;                                         6000 N !
 FUNCTION UN_ASS    298.15  0;                                         6000 N !
 FUNCTION R         298.15  +8.31451;                                  6000 N !
$ ------------------------------------------------------------------------------
$ Element data
$ ------------------------------------------------------------------------------
$ Ca
$
$ FCC_A1, BCC_A2, HCP_A3 and LIQUID modified in unary 5.0
$ (upper T interval added + trailing decimals added)
$
 PAR  G(FCC_A1,CA:VA),,                 +GHSERCA;                3001 N 91Din !
 PAR  G(BCC_A2,CA:VA),,                 +GBCCCA;                 3001 N 91Din !
 PAR  G(HCP_A3,CA:VA),,                 +GHSERCA+500+0.7*T;      3001 N 91Din !
 PAR  G(LIQUID,CA),,                    +GLIQCA;                 3001 N 91Din !
$
 FUNCTION GHSERCA   298.15  -4955.062+72.794266*T-16.3138*T*LN(T)
       -0.01110455*T**2-133574*T**(-1);
      1115.00  Y  -107304.428+799.982066*T-114.2922467*T*LN(T)
       +0.023733814*T**2-1.2438E-06*T**3+18245540*T**(-1);
      3000.00  Y  -3703.12+192.63995*T-35.0*T*LN(T);
      3001.00  N !
 FUNCTION GBCCCA    298.15  -7020.852+142.970155*T-28.2541*T*LN(T)
       +0.0072326*T**2-4.500217E-06*T**3+60578*T**(-1);
       716.00  Y  +1640.475+1.999694*T-6.276*T*LN(T)
       -0.0161921*T**2-523000*T**(-1);
      1115.00  Y  -142331.096+1023.549046*T-143.8726979*T*LN(T)
       +0.032543127*T**2-1.704079E-06*T**3+25353771*T**(-1);
      3000.00  Y  +321.63+189.433057*T-35*T*LN(T);
      3001.00  N !
 FUNCTION GLIQCA    298.15  +10799.908-10.310466*T+GHSERCA;
       500.00  Y  +7838.856+18.2979*T-8.9874787*T*LN(T)
       -0.02266537*T**2+3.338303E-06*T**3-230193*T**(-1);
      1115.00  Y  -2654.938+188.9223*T-35*T*LN(T);
      3001.00  N !
$ ------------------------------------------------------------------------------
$ Li
$
 PAR  G(BCC_A2,LI:VA)           200.00  +GHSERLI;                3000 N 91Din !
 PAR  G(FCC_A1,LI:VA)           200.00  +GHSERLI-108+1.3*T;      3000 N 91Din !
 PAR  G(HCP_A3,LI:VA)           200.00  +GHSERLI-154+2*T;        3000 N 91Din !
 PAR  G(LIQUID,LI)              200.00  +GLIQLI;                 3000 N 91Din !
$
 FUNCTION GHSERLI   200.00  -10583.817+217.637482*T-38.940488*T*LN(T)
       +0.035466931*T**2-1.9869816E-05*T**3+159994*T**(-1);
       453.60  Y  -559579.123+10547.8799*T-1702.88865*T*LN(T)
       +2.25832944*T**2-5.71066077E-04*T**3+33885874*T**(-1);
       500.00  Y  -9062.994+179.278285*T-31.2283718*T*LN(T)
       +0.002633221*T**2-4.38058E-07*T**3-102387*T**(-1);
      3000.00  N !
 FUNCTION GLIQLI    200.00  +2700.205-5.795621*T+GHSERLI;
       250.00  Y  +12015.027-362.187078*T+61.6104424*T*LN(T)
       -0.182426463*T**2+6.3955671E-05*T**3-559968*T**(-1);
       453.60  Y  -6057.31+172.652183*T-31.2283718*T*LN(T)
       +0.002633221*T**2-4.38058E-07*T**3-102387*T**(-1);
       500.00  Y  +3005.684-6.626102*T+GHSERLI;
      3000.00  N !
$ ------------------------------------------------------------------------------
$ Binary system
$
$ From J. Groebner et al. 2002 (included in LB vol. 5)
$
$ J. Groebner, R. Schmid-Fetzer, A. Pisch, C. Colinet, V.V. Pavlyuk,
$ G.S. Dmytriv, D.G. Kevorkov, O.I. Bodak, Thermochim. Acta, 389, 85-94(2002).
$
$ Checked against LB and paper. Checked at 6000.
$
 PAR  L(LIQUID,CA,LI;0),,               -5641.2-3.2065*T;,,           N 02Gro !
$
 PAR  L(FCC_A1,CA,LI:VA;0),,            +6458.3;,,                    N 02Gro !
 PAR  L(BCC_A2,CA,LI:VA;0),,            +5918.9;,,                    N 02Gro !
$
 PAR  G(CALI2_C14,CA:LI),,              +GHSERCA+2*GHSERLI
             -11681.91+6.396*T;,,                                     N 02Gro !
$
$ Metastable
$
 PAR  L(HCP_A3,CA,LI:VA;0),,            +5000;,,                      N 02Gro !
$ ------------------------------------------------------------------------------
$
 ASSESSED_SYSTEM
  CA-LI(TDB -* +LIQUID +FCC +BCC_A2 +CALI2_C14
  ;G5 C_S:BCC_A2/LI:VA MAJ:BCC_A2/CA:VA ;P3 *) !
$
$
 LIST-OF-REFERENCE
 NUMBER  SOURCE
  Null   'Unknown source'
  Same   'Same or similar interaction as in the corresponding stable phase'
  COST   'COST 507 database'
  91Din  'A.T. Dinsdale, Calphad, 15, 317-425(1991).'
  02Gro  'J. Groebner, R. Schmid-Fetzer, A. Pisch, C. Colinet, V.V. Pavlyuk,
          G.S. Dmytriv, D.G. Kevorkov, O.I. Bodak,
          Thermochim. Acta, 389, 85-94(2002); Ca-Li'
!
