$
$ Database for Zr-C from A. Fernandez Guillermet 1995 (Included in LB Vol. 2)
$
$ A. Fernandez Guillermet, J. Alloys Compd., 217, 69-89(1995).
$
$ Dataset created 2012.10.03 by Bengt Hallstedt.
$ 2021.02.07: Modified for use with GES6.
$
$ ------------------------------------------------------------------------------
 TEMP-LIM 298.15 6000.00 !
$
$ELEMENT NAME  REF. STATE               ATOMIC MASS H298-H0    S298    !
$
 ELEMENT VA   VACUUM                      0.0          0.0      0.0    ! 
 ELEMENT C    GRAPHITE                   12.011     1054.0      5.7423 ! 
 ELEMENT ZR   HCP_A3                     91.22      5566.27    39.1809 ! 
$ ------------------------------------------------------------------------------
$ Phase definitions
$
 PHASE LIQUID:L % 1 1 !
 CONST LIQUID:L : C ZR : !
$
$ Fcc (cF4, Fm-3m) and MeX (cF8, Fm-3m)
$
 PHASE FCC_A1 %A 2 1 1 !
 CONST FCC_A1 : ZR : C% VA : !
$
$ Bcc (cI2, Im-3m)
$
 PHASE BCC_A2 %B 2 1 3 !
 CONST BCC_A2 : ZR% : C VA% : !
$
$ Hcp (hP2, P6_3/mmc) and Me2X (NiAs-type, hP4, P6_3/mmc, B8_1)
$
 PHASE HCP_A3 %A 2 1 0.5 !
 CONST HCP_A3 : ZR% : C VA% : !
$
$ Prototype C (cF8, Fd-3m)
$
 PHASE DIAMOND_A4 % 1 1 !
 CONST DIAMOND_A4 : C : !
$
$ Prototype C (hP4, P6_3/mmc)
$
 PHASE GRAPHITE_A9 % 1 1 !
 CONST GRAPHITE_A9 : C : !
$ ------------------------------------------------------------------------------
$ Defaults
$
 DEFINE-SYSTEM-DEFAULT ELEMENT 2 !
 DEFAULT-COM DEFINE_SYSTEM_ELEMENT VA !
 TYPE-DEF % SEQ * !
 TYPE-DEF A GES AMEND_PHASE_DESCRIPTION @ MAGNETIC -3 0.28 !
 TYPE-DEF B GES AMEND_PHASE_DESCRIPTION @ MAGNETIC -1 0.4 !
 FUNCTION ZERO      298.15  0;                                         6000 N !
 FUNCTION UN_ASS    298.15  0;                                         6000 N !
 FUNCTION R         298.15  +8.31451;                                  6000 N !
$ ------------------------------------------------------------------------------
$ Element data
$ ------------------------------------------------------------------------------
$ C
$
 PAR  G(GRAPHITE_A9,C),,                +GHSERCC;,,                   N 91Din !
 PAR  G(DIAMOND_A4,C),,                 +GDIACC;,,                    N 91Din !
 PAR  G(LIQUID,C),,                     +GHSERCC+117369-24.63*T;,,    N 91Din !
$
 FUNCTION GHSERCC   298.15  -17368.441+170.73*T-24.3*T*LN(T)
       -4.723E-04*T**2+2562600*T**(-1)-2.643E+08*T**(-2)+1.2E+10*T**(-3);
      6000.00  N !
 FUNCTION GDIACC    298.15  -16359.441+175.61*T-24.31*T*LN(T)
       -4.723E-04*T**2+2698000*T**(-1)-2.61E+08*T**(-2)+1.11E+10*T**(-3);
      6000.00  N !
$ ------------------------------------------------------------------------------
$ Zr
$
$ CUB_A13, CBCC_A12, ORTHORHOMBIC_A20 and TETRAGONAL_U added in unary 4.1
$
 PAR  G(HCP_A3,ZR:VA)           130.00  +GHSERZR;,,                   N 91Din !
 PAR  G(BCC_A2,ZR:VA)           130.00  +GBCCZR;,,                    N 91Din !
$PAR  G(OMEGA,ZR)               130.00  +GOMEZR;,,                    N 91Din !
 PAR  G(FCC_A1,ZR:VA)           130.00  +GHSERZR+7600-0.9*T;,,        N 91Din !
$PAR  G(CBCC_A12,ZR:VA)         130.00  +GHSERZR+4602.2;,,            N 99SGUN !
$PAR  G(CUB_A13,ZR:VA)          130.00  +GHSERZR+7531.2;,,            N 99SGUN !
$PAR  G(ORTHORHOMBIC_A20,ZR)    130.00  +GBCCZR+5000;,,               N 99SGUN !
$PAR  G(TETRAGONAL_U,ZR)        130.00  +GBCCZR+5000;,,               N 99SGUN !
 PAR  G(LIQUID,ZR)              130.00  +GLIQZR;,,                    N 91Din !
$
 FUNCTION GHSERZR   130.00  -7827.595+125.64905*T-24.1618*T*LN(T)
       -0.00437791*T**2+34971*T**(-1);
      2128.00  Y  -26085.921+262.724183*T-42.144*T*LN(T)-1.342896E+31*T**(-9);
      6000.00  N !
 FUNCTION GBCCZR    130.00  -525.539+124.9457*T-25.607406*T*LN(T)
       -3.40084E-04*T**2-9.729E-09*T**3+25233*T**(-1)-7.6143E-11*T**4;
      2128.00  Y  -4620.034+1.55998*T+GHSERZR+1.4103476E+32*T**(-9);
      6000.00  N !
 FUNCTION GOMEZR    130.00  -8878.082+144.432234*T-26.8556*T*LN(T)
       -0.002799446*T**2+38376*T**(-1);
      2128.00  Y  -3414.603+2.566675*T+GHSERZR+8.517346E+31*T**(-9);
      6000.00  N !
 FUNCTION GLIQZR    130.00  +18147.69-9.080812*T+GHSERZR+1.6275E-22*T**7;
      2128.00  Y  -8281.26+253.812609*T-42.144*T*LN(T);
      6000.00  N !
$ ------------------------------------------------------------------------------
$ Binary system
$
$ From A. Fernandez Guillermet 1995 (Included in LB Vol. 2)
$
$ A. Fernandez Guillermet, J. Alloys Compd., 217, 69-89(1995).
$
$ Checked against LB and paper. Checked at 6000K.
$
 PAR  L(LIQUID,C,ZR;0),,                -305420.6+16.01676*T;,,       N 95Fer !
 PAR  L(LIQUID,C,ZR;1),,                -39269.66;,,                  N 95Fer !
 PAR  L(LIQUID,C,ZR;2),,                +50000;,,                     N 95Fer !
$
 PAR  G(FCC_A1,ZR:C),,                  +GZRC;,,                      N 95Fer !
 PAR  L(FCC_A1,ZR:C,VA;0),,             -41870.2-35.70271*T
             +6.042424*T*LN(T)-0.001326472*T**2;,,                    N 95Fer !
 PAR  L(FCC_A1,ZR:C,VA;1),,             -81870.2-35.70271*T
             +6.042424*T*LN(T)-0.001326472*T**2;,,                    N 95Fer !
$
 PAR  G(BCC_A2,ZR:C),,                  +GZRC3;,,                     N 95Fer !
 PAR  L(BCC_A2,ZR:C,VA;0),,             -223221.3;,,                  N 95Fer !
$
 PAR  G(HCP_A3,ZR:C),,                  +GZR2C;,,                     N 95Fer !
 PAR  L(HCP_A3,ZR:C,VA;0),,             +3206.881;,,                  N 95Fer !
$
 FUNCTION GZRC      298.15  -224784.9+297.0288*T-48.14055*T*LN(T)
       -0.001372273*T**2-1.015994E-07*T**3+517213*T**(-1)
       -8.30054316E+08*T**(-3);
      6000.00  N !
 FUNCTION GZR2C     298.15  -115822.7+212.2971*T-36.10565*T*LN(T)
       -0.001375489*T**2-1.361587E-07*T**3+217131*T**(-1)
       -1.9505689E+08*T**(-3);
      6000.00  N !
 FUNCTION GZRC3     298.15  -142838.2+631.7121*T-96.28173*T*LN(T)
       -0.001856037*T**2-9.2968513E-08*T**3+2261356*T**(-1)
       -7.933899E+09*T**(-3);
      6000.00  N !
$ ------------------------------------------------------------------------------
$
 ASSESSED_SYSTEM
  C-ZR(TDB -* +LIQ +FCC_A1 +GRAP +BCC_A2 +HCP_A3
  ;G5 C_S:FCC_A1/ZR:C ;P3 TMM:300/5000 STP:.9/1000) !
$
$
 LIST-OF-REFERENCE
 NUMBER  SOURCE
  Null   'Unknown source'
  Same   'Same or similar interaction as in the corresponding stable phase'
  REFLAV 'Laves phase convention: G(LAVES,X:X)=+3*GHSERXX+15000'
  COST   'COST 507 database'
  91Din  'A.T. Dinsdale, Calphad, 15, 317-425(1991).'
  95Fer  'A. Fernandez Guillermet, J. Alloys Compd., 217, 69-89(1995); Zr-C'
  99SGUN 'SGTE unary database V.4.1, 1999.'
!
