$
$ Database for Cu-Zr from N. Saunders 1985.
$
$ N. Saunders, Calphad, 9, 297-309(1985).
$
$ Dataset created 2021.10.17 by Bengt Hallstedt.
$
$ This is a rather simplified description of the system.
$
$ ------------------------------------------------------------------------------
 TEMP-LIM 298.15 6000.00 !
$
$ELEMENT NAME  REF. STATE               ATOMIC MASS H298-H0    S298    !
$
 ELEMENT VA   VACUUM                      0.0          0.0      0.0    ! 
 ELEMENT CU   FCC_A1                     63.546     5004.      33.15   !
 ELEMENT ZR   HCP_A3                     91.22      5566.27    39.1809 ! 
$ ------------------------------------------------------------------------------
$ Phase definitions
$
 PHASE LIQUID:L % 1 1 !
 CONST LIQUID:L : CU ZR : !
$
$ Fcc (cF4, Fm-3m) and MeX (cF8, Fm-3m)
$
 PHASE FCC_A1 %A 2 1 1 !
 CONST FCC_A1 : CU% ZR : VA : !
$
$ Bcc (cI2, Im-3m)
$
 PHASE BCC_A2 %B 2 1 3 !
 CONST BCC_A2 : CU ZR% : VA : !
$
$ Hcp (hP2, P6_3/mmc) and Me2X (NiAs-type, hP4, P6_3/mmc, B8_1)
$
 PHASE HCP_A3 %A 2 1 0.5 !
 CONST HCP_A3 : CU ZR% : VA : !
$
$ Prototype Ag51Gd14 (hP68, P6/m)
$
 PHASE CU4ZR % 2 4 1 !
 CONST CU4ZR : CU : ZR : !
$
$ Prototype Cu8Hf3 (oP44, Pnma)
$
 PHASE CU5ZR2 % 2 5 2 !
 CONST CU5ZR2 : CU : ZR : !
$
$ Prototype Ni10Zr7 (oC68, Cmca)
$
 PHASE CU10ZR7 % 2 10 7 !
 CONST CU10ZR7 : CU : ZR : !
$
$ Prototype CsCl (cP2, Pm-3m)
$
 PHASE CUZR_B2 % 2 1 1 !
 CONST CUZR_B2 : CU : ZR : !
$
$ Prototype CuZr2 (tI6, I4/mmm)
$
 PHASE CUZR2 % 2 1 2 !
 CONST CUZR2 : CU : ZR : !
$ ------------------------------------------------------------------------------
$ Defaults
$
 DEFINE-SYSTEM-DEFAULT ELEMENT 2 !
 DEFAULT-COM DEFINE_SYSTEM_ELEMENT VA !
 TYPE-DEFINITION % SEQ * !
 TYPE_DEF A GES AMEND_PHASE_DESCRIPTION @ MAGNETIC -3 0.28 !
 TYPE_DEF B GES AMEND_PHASE_DESCRIPTION @ MAGNETIC -1 0.4 !
 FUNCTION ZERO      298.15  0;                                         6000 N !
 FUNCTION UN_ASS    298.15  0;                                         6000 N !
 FUNCTION R         298.15  +8.31451;                                  6000 N !
$ ------------------------------------------------------------------------------
$ Element data
$ ------------------------------------------------------------------------------
$ Cu
$
 PAR  G(FCC_A1,CU:VA),,                 +GHSERCU;                3200 N 91Din !
 PAR  G(BCC_A2,CU:VA),,                 +GHSERCU+4017-1.255*T;   3200 N 91Din !
 PAR  G(HCP_A3,CU:VA),,                 +GHSERCU+600+0.2*T;      3200 N 91Din !
 PAR  G(LIQUID,CU),,                    +GLIQCU;                 3200 N 91Din !
$
 FUNCTION GHSERCU   298.15  -7770.458+130.485235*T-24.112392*T*LN(T)
       -0.00265684*T**2+1.29223E-07*T**3+52478*T**(-1);
      1357.77  Y  -13542.026+183.803828*T-31.38*T*LN(T)+3.64167E+29*T**(-9);
      3200.00  N !
 FUNCTION GLIQCU    298.15  +12964.735-9.511904*T+GHSERCU-5.8489E-21*T**7;
      1357.77  Y  -46.545+173.881484*T-31.38*T*LN(T);
      3200.00  N !
$ ------------------------------------------------------------------------------
$ Zr
$
$ CUB_A13, CBCC_A12, ORTHORHOMBIC_A20 and TETRAGONAL_U added in unary 4.1
$
 PAR  G(HCP_A3,ZR:VA)           130.00  +GHSERZR;,,                   N 91Din !
 PAR  G(BCC_A2,ZR:VA)           130.00  +GBCCZR;,,                    N 91Din !
$PAR  G(OMEGA,ZR)               130.00  +GOMEZR;,,                    N 91Din !
 PAR  G(FCC_A1,ZR:VA)           130.00  +GHSERZR+7600-0.9*T;,,        N 91Din !
$PAR  G(CBCC_A12,ZR:VA)         130.00  +GHSERZR+4602.2;,,            N 99SGUN !
$PAR  G(CUB_A13,ZR:VA)          130.00  +GHSERZR+7531.2;,,            N 99SGUN !
$PAR  G(ORTHORHOMBIC_A20,ZR)    130.00  +GBCCZR+5000;,,               N 99SGUN !
$PAR  G(TETRAGONAL_U,ZR)        130.00  +GBCCZR+5000;,,               N 99SGUN !
 PAR  G(LIQUID,ZR)              130.00  +GLIQZR;,,                    N 91Din !
$
 FUNCTION GHSERZR   130.00  -7827.595+125.64905*T-24.1618*T*LN(T)
       -0.00437791*T**2+34971*T**(-1);
      2128.00  Y  -26085.921+262.724183*T-42.144*T*LN(T)-1.342896E+31*T**(-9);
      6000.00  N !
 FUNCTION GBCCZR    130.00  -525.539+124.9457*T-25.607406*T*LN(T)
       -3.40084E-04*T**2-9.729E-09*T**3+25233*T**(-1)-7.6143E-11*T**4;
      2128.00  Y  -4620.034+1.55998*T+GHSERZR+1.4103476E+32*T**(-9);
      6000.00  N !
 FUNCTION GOMEZR    130.00  -8878.082+144.432234*T-26.8556*T*LN(T)
       -0.002799446*T**2+38376*T**(-1);
      2128.00  Y  -3414.603+2.566675*T+GHSERZR+8.517346E+31*T**(-9);
      6000.00  N !
 FUNCTION GLIQZR    130.00  +18147.69-9.080812*T+GHSERZR+1.6275E-22*T**7;
      2128.00  Y  -8281.26+253.812609*T-42.144*T*LN(T);
      6000.00  N !
$ ------------------------------------------------------------------------------
$ Binary system
$
$ N. Saunders, Calphad, 9, 297-309(1985).
$
$ Checked against paper. Checked at 6000K.
$
$ This is a rather simplified description of the system.
$
 PAR  L(LIQUID,CU,ZR;0),,               -67500+5.94*T;,,              N 85Sau !
 PAR  L(LIQUID,CU,ZR;1),,               -2500+1.98*T;,,               N 85Sau !
$
 PAR  L(FCC_A1,CU,ZR:VA;0),,            -10000;,,                     N 85Sau !
 PAR  L(BCC_A2,CU,ZR:VA;0),,            -18000;,,                     N 85Sau !
 PAR  L(HCP_A3,CU,ZR:VA;0),,            -5000;,,                      N 85Sau !
$
 PAR  G(CU4ZR,CU:ZR),,                  +4*GHSERCU+GBCCZR
             -60460-7.9*T;,,                                          N 85Sau !
 PAR  G(CU5ZR2,CU:ZR),,                 +5*GHSERCU+2*GBCCZR
             -119336+2.8*T;,,                                         N 85Sau !
 PAR  G(CU10ZR7,CU:ZR),,                +10*GHSERCU+7*GBCCZR
             -391034+81.6*T;,,                                        N 85Sau !
 PAR  G(CUZR_B2,CU:ZR),,                +GHSERCU+GBCCZR
             -52334+14.4*T;,,                                         N 85Sau !
 PAR  G(CUZR2,CU:ZR),,                  +GHSERCU+2*GBCCZR
             -60126+11.25*T;,,                                        N 85Sau !
$ ------------------------------------------------------------------------------
$
 ASSESSED_SYSTEM
  CU-ZR(TDB -* +LIQUID +FCC_A1 +BCC_A2 +CU10ZR7 +CU4ZR +CU5ZR2
  +CUZR_B2 +CUZR2 +HCP_A3 ;P3 TMM:300/3000 STP:.5/1500/-2) !
$
$
 LIST-OF-REFERENCE
 NUMBER  SOURCE
  Null   'Unknown source'
  COST   'COST 507 database'
  85Sau  'N. Saunders, Calphad, 9, 297-309(1985); Cu-Zr'
  91Din  'A.T. Dinsdale, Calphad, 15, 317-425(1991).'
  99SGUN 'SGTE unary database V.4.1, 1999.'
!
