$
$ Database for Cu-P from T. Noda et al. 2009
$
$ T. Noda, K. Oikawa, S. Itoh, M. Hino, T. Nagasaka, Calphad, 33, 557-60(2009).
$
$ Dataset created 2014.05.25 by Bengt Hallstedt.
$ 2020.12.26: Modified for use with GES6.
$
$ Only the Cu-Cu3P part is modelled. This dataset behaves very badly
$ for compositions above 30 at.% P.
$
$ There is an inverse miscibility gap with a minimum at 1067 K and x(P)=0.74.
$
$ ------------------------------------------------------------------------------
 TEMP-LIM 298.15 6000.00 !
$
$ELEMENT NAME  REF. STATE               ATOMIC MASS H298-H0    S298    !
$
 ELEMENT VA   VACUUM                      0.0          0.0      0.0    ! 
 ELEMENT CU   FCC_A1                     63.546     5004.      33.15   !
 ELEMENT P    WHITE_P                    30.97376   5360.0     41.09   ! 
$ ------------------------------------------------------------------------------
$ Species
$
 SPECIE  CU2                                CU2 !
 SPECIE  P2                                 P2 !
 SPECIE  P3                                 P3 !
 SPECIE  P4                                 P4 !
$ ------------------------------------------------------------------------------
$ Phase definitions
$
 PHASE LIQUID:L % 1 1 !
 CONST LIQUID:L : CU P : !
$
$ Fcc (cF4, Fm-3m) and MeX (cF8, Fm-3m)
$
 PHASE FCC_A1 %A 2 1 1 !
 CONST FCC_A1 : CU% P : VA : !
$
$ Bcc (cI2, Im-3m)
$
 PHASE BCC_A2 %B 2 1 3 !
 CONST BCC_A2 : CU P : VA : !
$
$ Hcp (hP2, P6_3/mmc) and Me2X (NiAs-type, hP4, P6_3/mmc, B8_1)
$
 PHASE HCP_A3 %A 2 1 0.5 !
 CONST HCP_A3 : CU : VA : !
$
$ Crystal structure seems not to be well defined
$
 PHASE WHITE_P % 1 1 !
 CONST WHITE_P : P : !
$
$ Crystal structure seems not to be well defined
$
 PHASE RED_P % 1 1 !
 CONST RED_P : P : !
$
$ Prototype Cu3P (hP24, P6_3cm)
$
 PHASE CU3P_D021 % 2 3 1 !
 CONST CU3P_D021 : CU : P : !
$
$ Prototype CuP2 (mP12, P2_1/c)
$
 PHASE CUP2 % 2 1 2 !
 CONST CUP2 : CU : P : !
$
 PHASE GAS:G % 1 1 !
 CONST GAS:G : CU CU2 P P2 P4 : !
$ ------------------------------------------------------------------------------
$ Defaults
$
 DEFINE-SYSTEM-DEFAULT ELEMENT 2 !
 DEFAULT-COM DEFINE_SYSTEM_ELEMENT VA !
 DEFAULT-COM REJECT_PHASE CUP2 GAS !
 TYPE-DEF % SEQ * !
 TYPE-DEF A GES AMEND_PHASE_DESCRIPTION @ MAGNETIC -3 0.28 !
 TYPE-DEF B GES AMEND_PHASE_DESCRIPTION @ MAGNETIC -1 0.4 !
 FUNCTION ZERO      298.15  0;                                         6000 N !
 FUNCTION UN_ASS    298.15  0;                                         6000 N !
 FUNCTION R         298.15  +8.31451;                                  6000 N !
 FUNCTION RTLNP     298.15  +8.31451*T*LN(1E-05*P);                    6000 N !
$ ------------------------------------------------------------------------------
$ Element data
$ ------------------------------------------------------------------------------
$ Cu
$
 PAR  G(FCC_A1,CU:VA),,                 +GHSERCU;                3200 N 91Din !
 PAR  G(BCC_A2,CU:VA),,                 +GHSERCU+4017-1.255*T;   3200 N 91Din !
 PAR  G(HCP_A3,CU:VA),,                 +GHSERCU+600+0.2*T;      3200 N 91Din !
 PAR  G(LIQUID,CU),,                    +GLIQCU;                 3200 N 91Din !
$
 PAR  G(GAS,CU),,                       +F8005T+RTLNP;,,              N 97SUB !
 PAR  G(GAS,CU2),,                      +F8130T+RTLNP;,,              N 97SUB !
$
 FUNCTION GHSERCU   298.15  -7770.458+130.485235*T-24.112392*T*LN(T)
       -0.00265684*T**2+1.29223E-07*T**3+52478*T**(-1);
      1357.77  Y  -13542.026+183.803828*T-31.38*T*LN(T)+3.64167E+29*T**(-9);
      3200.00  N !
 FUNCTION GLIQCU    298.15  +12964.735-9.511904*T+GHSERCU-5.8489E-21*T**7;
      1357.77  Y  -46.545+173.881484*T-31.38*T*LN(T);
      3200.00  N !
$ Cu(g)
 FUNCTION F8005T    298.15  +331712.276-25.4355932*T-21.044*T*LN(T)
       +2.776E-04*T**2-4.9305E-08*T**3+5295*T**(-1);
      1600.00  Y  +336105.82-35.4351873*T-20.115*T*LN(T)
       +0.00118285*T**2-2.18138333E-07*T**3-1572935*T**(-1);
      3000.00  Y  +390707.537-303.006732*T+14.175*T*LN(T)
       -0.0079804*T**2+2.27558333E-07*T**3-16772955*T**(-1);
      5300.00  Y  +110975.664+452.828908*T-75.18201*T*LN(T)
       +0.004605*T**2-1.02516667E-07*T**3+1.4589055E+08*T**(-1);
      8400.00  Y  +918206.507-898.334069*T+75.05701*T*LN(T)
       -0.0078504*T**2+9.14616667E-08*T**3-6.694665E+08*T**(-1);
     10000.00  N !
$ Cu2(g)
 FUNCTION F8130T    298.15  +462958.167+11.147823*T-37.642*T*LN(T)
       -1.1515E-04*T**2-6.7015E-08*T**3+51145*T**(-1);
      3500.00  Y  +692156.122-643.599383*T+40.105*T*LN(T)
       -0.01109485*T**2+1.90893333E-07*T**3-1.2151985E+08*T**(-1);
      5500.00  Y  +1198333.43-1966.90368*T+195.893*T*LN(T)
       -0.03229355*T**2+7.29055E-07*T**3-4.2822925E+08*T**(-1);
      6000.00  N !
$ ------------------------------------------------------------------------------
$ P
$
$ RHOMBOHEDRAL_A7 added in unary 4.4
$
 PAR  G(WHITE_P,P)              250.00  +GHSERPP;                3000 N 91Din !
 PAR  G(RED_P,P)                250.00  +GREDPP;                 3000 N 91Din !
 PAR  G(FCC_A1,P:VA)            250.00  +GREDPP+36819-13.138*T;  3000 N 91Din !
 PAR  G(BCC_A2,P:VA)            250.00  +GREDPP+44768.8-13.26*T; 3000 N 91Din !
$PAR  G(RHOMBOHEDRAL_A7,P)      250.00  +GHSERPP-188+0.12527*T;  3000 N 01SGUN !
 PAR  G(LIQUID,P)               250.00  +GLIQPP;                 3000 N 91Din !
$
 PAR  G(GAS,P),,                        +F14404T+RTLNP;,,             N 97SUB !
 PAR  G(GAS,P2),,                       +F14448T+RTLNP;,,             N 97SUB !
 PAR  G(GAS,P3),,                       +F14471T+RTLNP;,,             N 97SUB !
 PAR  G(GAS,P4),,                       +F14479T+RTLNP;,,             N 97SUB !
$
 FUNCTION GHSERPP   250.00  -43821.799+1026.69389*T-178.426*T*LN(T)
       +0.290708*T**2-1.04022667E-04*T**3+1632695*T**(-1);
       317.30  Y  -9587.448+152.341487*T-28.7335301*T*LN(T)
       +0.001715669*T**2-2.2829E-07*T**3+172966*T**(-1);
      1000.00  Y  -8093.075+135.876831*T-26.326*T*LN(T);
      3000.00  N !
 FUNCTION GREDPP    250.00  -25976.559+148.672002*T-25.55*T*LN(T)
       +0.0034121*T**2-2.418867E-06*T**3+160095*T**(-1);
       500.00  Y  -21723.721+77.671737*T-14.368*T*LN(T)
       -0.00957685*T**2+3.93917E-07*T**3-141375*T**(-1);
       852.35  Y  -119408.413+1026.02962*T-149.449556*T*LN(T)
       +0.067272364*T**2-6.651929E-06*T**3+12495943*T**(-1);
      1500.00  Y  -16431.044+17.96235*T+GHSERPP;
      3000.00  N !
 FUNCTION GLIQPP    250.00  -26316.111+434.930931*T-70.7440584*T*LN(T)
       -0.002898936*T**2+3.9049371E-05*T**3+1141147*T**(-1);
       317.30  Y  -7232.449+133.291873*T-26.326*T*LN(T);
      3000.00  N !
$ P (g)
 FUNCTION F14404T   298.15  +310152.015-21.3997112*T-21.18864*T*LN(T)
       +3.9907815E-04*T**2-6.467185E-08*T**3+9337.96*T**(-1);
      1900.00  Y  +332461.723-123.51155*T-8.27475*T*LN(T)
       -0.0025407355*T**2+2.77886167E-08*T**3-6752450*T**(-1);
      3900.00  Y  +295561.679-61.0229009*T-14.92054*T*LN(T)
       -0.002691344*T**2+7.37562667E-08*T**3+20828775*T**(-1);
      7000.00  Y  +105621.967+337.540131*T-60.52207*T*LN(T)
       +0.002171204*T**2-2.32968833E-08*T**3+1.6928265E+08*T**(-1);
     10000.00  N !
$ P2 (g)
 FUNCTION F14448T   298.15  +133357.681+.182114942*T-32.02798*T*LN(T)
       -0.004670767*T**2+7.28558667E-07*T**3+106826.35*T**(-1);
       900.00  Y  +128832.659+49.3136341*T-39.23087*T*LN(T)
       +7.156115E-04*T**2-6.82824333E-08*T**3+666443.5*T**(-1);
      3500.00  Y  +164091.361-27.2592211*T-30.65569*T*LN(T)
       +3.4990285E-04*T**2-1.0132875E-07*T**3-21312200*T**(-1);
      6000.00  N !
$ P3 (g)
 FUNCTION F14471T   298.15  +191023.012+115.134799*T-55.58992*T*LN(T)
       -0.00549647*T**2+8.37126667E-07*T**3+291982.3*T**(-1);
      1000.00  Y  +187367.887+160.095451*T-62.29736*T*LN(T)
       -1.1488665E-05*T**2+3.82699333E-10*T**3+671571.5*T**(-1);
      6000.00  N !
$ P4 (g)
 FUNCTION F14479T   298.15  +31689.2272+246.976573*T-77.33235*T*LN(T)
       -0.0046207025*T**2+6.76817E-07*T**3+563393*T**(-1);
      1100.00  Y  +28520.4461+285.801742*T-83.11153*T*LN(T)
       -6.057165E-06*T**2+1.99865333E-10*T**3+890230*T**(-1);
      6000.00  N !
$ ------------------------------------------------------------------------------
$ Binary system
$
$ T. Noda, K. Oikawa, S. Itoh, M. Hino, T. Nagasaka, Calphad, 33, 557-60(2009).
$
$ Checked against paper. Checked at 6000 K.
$
$ Only the Cu-Cu3P part is modelled. This dataset behaves very badly
$ for compositions above 30 at.% P.
$
$ There is an inverse miscibility gap with a minimum at 1067 K and x(P)=0.74.
$
 PAR  L(LIQUID,CU,P;0),,                -180379+101.068*T;,,          N 09Nod !
 PAR  L(LIQUID,CU,P;1),,                +39496-91.505*T;,,            N 09Nod !
 PAR  L(LIQUID,CU,P;3),,                +35583;,,                     N 09Nod !
$
 PAR  L(FCC_A1,CU,P:VA;0),,             -109505+14.434*T;,,           N 09Nod !
$
 PAR  G(CU3P_D021,CU:P),,               +3*GLIQCU+GLIQPP
             -144800+44.42*T;,,                                       N 09Nod !
 PAR  G(CUP2,CU:P),,                    -141011+354.237*T-64.087*T*LN(T)
             -0.0113*T**2-16474.8*T**(-1);,,                          N 14Mag !
$
$ Metastable
$
 PAR  L(BCC_A2,CU,P:VA;0),,             -109505+14.434*T;,,           N Same !
$ ------------------------------------------------------------------------------
$
$
 LIST-OF-REFERENCE
 NUMBER  SOURCE
  Null   'Unknown source'
  Same   'Same or similar interaction as in the corresponding stable phase'
  COST   'COST 507 database'
  91Din  'A.T. Dinsdale, Calphad, 15, 317-425(1991).'
  97SUB  'SGTE substance database, version 1997'
  01SGUN 'SGTE unary database V.4.4, 2001.'
  09Nod  'T. Noda, K. Oikawa, S. Itoh, M. Hino, T. Nagasaka,
          Calphad, 33, 557-60(2009); Cu-P'
  14Mag  'H. Magnusson, K. Frisk, Calphad, 47, 148-60(2014); Cu-P'
!
