$
$ Database for Cu-Se from Z. Du et al. 2008.
$
$ Z. Du, C. Guo, M. Tao, C. Li, Int. J. Mater. Res., 99, 294-300(2008).
$
$ Dataset created 2018.06.21 by Bengt Hallstedt.
$ 2020.12.26: Modified for use with GES6.
$
$ The modelling is not completely convincing.
$
$ CUSE_B18 becomes stable again above 4797 K.
$
$ ------------------------------------------------------------------------------
 TEMP-LIM 298.15 6000.00 !
$
$ELEMENT NAME  REF. STATE               ATOMIC MASS H298-H0    S298    !
$
 ELEMENT VA   VACUUM                      0.0          0.0      0.0    ! 
 ELEMENT CU   FCC_A1                     63.546     5004.      33.15   !
 ELEMENT SE   HEXAGONAL_A8               78.96      5514.512   41.9655 ! 
$ ------------------------------------------------------------------------------
$ Species
$
 SPECIE  CU2SE                              CU2SE1 !
$ ------------------------------------------------------------------------------
$ Phase definitions
$
 PHASE LIQUID:L % 1 1 !
 CONST LIQUID:L : CU CU2SE SE : !
$
$ Fcc (cF4, Fm-3m) and MeX (cF8, Fm-3m)
$
 PHASE FCC_A1 %A 2 1 1 !
 CONST FCC_A1 : CU : VA : !
$
$ Bcc (cI2, Im-3m)
$
 PHASE BCC_A2 %B 2 1 3 !
 CONST BCC_A2 : CU : VA : !
$
$ Hcp (hP2, P6_3/mmc) and Me2X (NiAs-type, hP4, P6_3/mmc, B8_1)
$
 PHASE HCP_A3 %A 2 1 0.5 !
 CONST HCP_A3 : CU : VA : !
$
$ gamma-Se (hP3, P3_121)
$
 PHASE HEXAGONAL_A8 % 1 1 !
 CONST HEXAGONAL_A8 : SE : !
$
$ Prototype Cu2Se-alpha (mC144, C2/c, 15)
$
 PHASE CU2SE_ALPHA % 2 2 1 !
 CONST CU2SE_ALPHA : CU% SE : SE : !
$
$ Prototype Cu2Se-beta (cF44, Fm-3m), berzelianite
$
 PHASE CU2SE_BETA % 2 2 1 !
 CONST CU2SE_BETA : CU% SE : SE : !
$
$ Prototype Cu3Se2 (tP10, P-42_1m, 113), umangite
$
 PHASE CU3SE2 % 2 3 2 !
 CONST CU3SE2 : CU : SE : !
$
$ Prototype CuSe-alpha (hP26, P6_3/mmc), klockmannite
$
 PHASE CUSE_ALPHA % 2 1 1 !
 CONST CUSE_ALPHA : CU : SE : !
$
$ Prototype CuS (oC24, Cmcm, 63)
$
 PHASE CUSE_BETA % 2 1 1 !
 CONST CUSE_BETA : CU : SE : !
$
$ Prototype CuS-beta (hP12, P6_3/mmc)
$
 PHASE CUSE_B18 % 2 1 1 !
 CONST CUSE_B18 : CU : SE : !
$
$ Prototype FeS2-alpha (oP6, Pnnm)
$
 PHASE CUSE2_C18 % 2 1 2 !
 CONST CUSE2_C18 : CU : SE : !
$ ------------------------------------------------------------------------------
$ Defaults
$
 DEFINE-SYSTEM-DEFAULT ELEMENT 2 !
 DEFAULT-COM DEFINE_SYSTEM_ELEMENT VA !
 TYPE-DEF % SEQ * !
 TYPE-DEF A GES AMEND_PHASE_DESCRIPTION @ MAGNETIC -3 0.28 !
 TYPE-DEF B GES AMEND_PHASE_DESCRIPTION @ MAGNETIC -1 0.4 !
 FUNCTION ZERO      298.15  0;                                         6000 N !
 FUNCTION UN_ASS    298.15  0;                                         6000 N !
 FUNCTION R         298.15  +8.31451;                                  6000 N !
$ ------------------------------------------------------------------------------
$ Element data
$ ------------------------------------------------------------------------------
$ Cu
$
$ BCT_A5 from 00Moo not included in unary
$ CBCC_A12 and CUB_A13 not included in unary
$
 PAR  G(FCC_A1,CU:VA),,                 +GHSERCU;                3200 N 91Din !
 PAR  G(BCC_A2,CU:VA),,                 +GHSERCU+4017-1.255*T;   3200 N 91Din !
 PAR  G(HCP_A3,CU:VA),,                 +GHSERCU+600+0.2*T;      3200 N 91Din !
$PAR  G(BCT_A5,CU),,                    +GHSERCU+4184;           3200 N 00Moo !
$PAR  G(CBCC_A12,CU:VA),,               +GHSERCU+3556;           2000 N 03Mie2 !
$PAR  G(CUB_A13,CU:VA),,                +GHSERCU+2092;           2000 N 03Mie2 !
 PAR  G(LIQUID,CU),,                    +GLIQCU;                 3200 N 91Din !
$
 FUNCTION GHSERCU   298.15  -7770.458+130.485235*T-24.112392*T*LN(T)
       -0.00265684*T**2+1.29223E-07*T**3+52478*T**(-1);
      1357.77  Y  -13542.026+183.803828*T-31.38*T*LN(T)+3.64167E+29*T**(-9);
      3200.00  N !
 FUNCTION GLIQCU    298.15  +12964.735-9.511904*T+GHSERCU-5.8489E-21*T**7;
      1357.77  Y  -46.545+173.881484*T-31.38*T*LN(T);
      3200.00  N !
 FUNCTION GBCCCU    298.15  +GHSERCU+4017-1.255*T;                     3200 N !
$ ------------------------------------------------------------------------------
$ Se
$
 PAR  G(HEXAGONAL_A8,SE),,              +GHSERSE;                1000 N 91Din !
 PAR  G(LIQUID,SE),,                    +GLIQSE;                 1000 N 91Din !
$
 PAR  G(CU2SE_ALPHA,SE:SE),,            +3*GHSERSE+100000;,,          N 08Du !
 PAR  G(CU2SE_BETA,SE:SE),,             +3*GHSERSE+973914.5;,,        N 08Du !
$
 FUNCTION GHSERSE   298.15  -9376.371+174.205877*T-33.6527*T*LN(T)
       +0.02424314*T**2-1.5318461E-05*T**3+102249*T**(-1);
       494.00  Y  -37546.134+507.111538*T-81.2006585*T*LN(T)
       +0.037144892*T**2-5.611026E-06*T**3+2614263*T**(-1);
       800.00  Y  -12193.47+197.770166*T-35.1456*T*LN(T);
      1000.00  N !
 FUNCTION GLIQSE    298.15  +50533.347-1178.28824*T+194.107439*T*LN(T)
       -0.390268991*T**2+1.19219297E-04*T**3-2224398*T**(-1); 
       494.00  Y  -5228.304+183.72559*T-35.1456*T*LN(T);
      1000.00  N !
$ ------------------------------------------------------------------------------
$ Binary system
$
$ Z. Du, C. Guo, M. Tao, C. Li, Int. J. Mater. Res., 99, 294-300(2008).
$
$ Checked against paper. Checked at 6000 K.
$
$ The modelling is not completely convincing.
$
$ CUSE_B18 becomes stable again above 4797 K.
$
 PAR  G(LIQUID,CU2SE),,                 +2*GLIQCU+GLIQSE
             -98495.1-12.665*T;,,                                     N 08Du !
 PAR  L(LIQUID,CU,CU2SE;0),,            +133533.6-70.9948*T;,,        N 08Du !
 PAR  L(LIQUID,CU,CU2SE;1),,            -37195.4+31.5289*T;,,         N 08Du !
 PAR  L(LIQUID,CU2SE,SE;0),,            +71087.8-77.4625*T;,,         N 08Du !
 PAR  L(LIQUID,CU2SE,SE;1),,            +26968.1-40.1254*T;,,         N 08Du !
 PAR  L(LIQUID,CU2SE,SE;2),,            +49511.1-24.5069*T;,,         N 08Du !
$
 PAR  G(CU2SE_ALPHA,CU:SE),,            -111570.4+500.4233*T
             -90.8294038*T*LN(T)-0.0053714631*T**2
             +381313.824*T**(-1);,,                                   N 08Du !
 PAR  L(CU2SE_ALPHA,CU,SE:SE;0),,       +420.9-19.1786*T;,,           N 08Du !
$
 PAR  G(CU2SE_BETA,CU:SE),,             -90904.5+405.4976*T
             -83.6332*T*LN(T);,,                                      N 08Du !
 PAR  L(CU2SE_BETA,CU,SE:SE;0),,        -994289.5-52.0155*T;,,        N 08Du !
$
 PAR  G(CU3SE2,CU:SE),,                 +3*GHSERCU+2*GHSERSE
             -124674.1-12.0863*T;,,                                   N 08Du !
 PAR  G(CUSE_ALPHA,CU:SE),,             +GHSERCU+GHSERSE
             -34857.9-297.8883*T+55.093761*T*LN(T)-0.175612543*T**2
             -154675.658*T**(-1)+9.70535229E-05*T**3;,,               N 08Du !
 PAR  G(CUSE_BETA,CU:SE),,              +GHSERCU+GHSERSE
             -34460-195.3464*T+32.9577358*T*LN(T)-0.0801435237*T**2
             -154568.79*T**(-1)+3.33222269E-05*T**3;,,                N 08Du !
 PAR  G(CUSE_B18,CU:SE),,               +GHSERCU+GHSERSE
             -28862.1-146.4206*T+19.1876851*T*LN(T)-0.0172770178*T**2
             -154525.162*T**(-1)+6.09323827E-07*T**3;,,               N 08Du !
 PAR  G(CUSE2_C18,CU:SE),,              +GHSERCU+2*GHSERSE
             -41383.3-16.009*T;,,                                     N 08Du !
$ ------------------------------------------------------------------------------
$
$
 LIST-OF-REFERENCE
 NUMBER  SOURCE
  Null   'Unknown source'
  Same   'Same or similar interaction as in the corresponding stable phase'
  COST   'COST 507 database'
  91Din  'A.T. Dinsdale, Calphad, 15, 317-425(1991).'
  00Moo  'K.-W. Moon, W.J. Boettinger, U.R. Kattner, F.S. Biancaniello,
          C.A. Handwerker, J. Electron. Mater., 29, 1122-36(2000); Cu'
  03Mie2 'J. Miettinen, Calphad, 27, 103-14(2003); Cu'
  08Du   'Z. Du, C. Guo, M. Tao, C. Li,
          Int. J. Mater. Res., 99, 294-300(2008); Cu-Se'
!
