$
$ Database for Dy-Mn from C.P. Wang et al. 2009
$
$ C.P. Wang, Z. Lin, X.J. Liu, J. Alloys Compd., 469, 123-28(2009).
$
$ Dataset created 2017.04.08 by Bengt Hallstedt.
$ 2020.12.26: Modified for use with GES6.
$
$ L(LIQUID,DY,MN;0) misprinted in paper.
$
$ There are small differences compared to table of invarioants in the paper.
$ Probably the table was calculated with a slightly different parameter set.
$
$ ------------------------------------------------------------------------------
 TEMP-LIM 298.15 6000.00 !
$
$ELEMENT NAME  REF. STATE               ATOMIC MASS H298-H0    S298    !
$
 ELEMENT VA   VACUUM                      0.0          0.0      0.0    ! 
 ELEMENT DY   HCP_A3                    162.50      8865.896   74.9559 ! 
 ELEMENT MN   CBCC_A12                   54.9380    4995.696   32.2206 ! 
$ ------------------------------------------------------------------------------
$ Phase definitions
$
 PHASE LIQUID:L % 1 1 !
 CONST LIQUID:L : DY MN : !
$
$ Fcc (cF4, Fm-3m) and MeX (cF8, Fm-3m)
$
 PHASE FCC_A1 %A 2 1 1 !
 CONST FCC_A1 : DY MN% : VA : !
$
$ Bcc (cI2, Im-3m)
$
 PHASE BCC_A2 %B 2 1 3 !
 CONST BCC_A2 : DY% MN% : VA : !
$
$ Hcp (hP2, P6_3/mmc) and Me2X (NiAs-type, hP4, P6_3/mmc, B8_1)
$
 PHASE HCP_A3 %A 2 1 0.5 !
 CONST HCP_A3 : DY% MN : VA : !
$
$ Prototype alpha-Mn (cI58, I-43m)
$
 PHASE CBCC_A12 %A 2 1 1 !
 CONST CBCC_A12 : DY MN : VA : !
$
$ Prototype beta-Mn (cP20, P4_132)
$
 PHASE CUB_A13 % 2 1 1 !
 CONST CUB_A13 : DY MN : VA : !
$
$ Prototype Cu2Mg (cF24, Fd-3m)
$
 PHASE DYMN2_C15 % 2 1 2 !
 CONST DYMN2_C15 : DY : MN : !
$
$ Prototype Mn23Th6 (cF116, Fm-3m)
$
 PHASE DY6MN23_D8A %A 2 6 23 !
 CONST DY6MN23_D8A : DY : MN : !
$
$ Prototype Mn12Th (tI26, I4/mmm)
$
 PHASE DYMN12_D2B %A 2 1 12 !
 CONST DYMN12_D2B : DY : MN : !
$ ------------------------------------------------------------------------------
$ Defaults
$
 DEFINE-SYSTEM-DEFAULT ELEMENT 2 !
 DEFAULT-COM DEFINE_SYSTEM_ELEMENT VA !
 TYPE-DEF % SEQ * !
 TYPE-DEF A GES AMEND_PHASE_DESCRIPTION @ MAGNETIC -3 0.28 !
 TYPE-DEF B GES AMEND_PHASE_DESCRIPTION @ MAGNETIC -1 0.4 !
 FUNCTION ZERO      298.15  0;                                         6000 N !
 FUNCTION UN_ASS    298.15  0;                                         6000 N !
 FUNCTION R         298.15  +8.31451;                                  6000 N !
$ ------------------------------------------------------------------------------
$ Element data
$ ------------------------------------------------------------------------------
$ Dy
$
$ HCP_A3, BCC_A2 and LIQUID revised in unary 3.0
$
$ FCC_A1 from 03Cac not included in unary (but it should be)
$ FCC_A1, CBCC_A12 and CUB_A13 from 09Wan4 not included in unary.
$
$ Note! Old lattice stabilities for Dy.
$
 PAR  G(HCP_A3,DY:VA)           100.00  +GHSERDY;                3000 N 95She1 !
 PAR  TC(HCP_A3,DY:VA)          100.00    179;                   3000 N 95She1 !
 PAR  BMAGN(HCP_A3,DY:VA)       100.00      3.0;                 3000 N 95She1 !
 PAR  G(BCC_A2,DY:VA)           100.00  +GBCCDY;                 3000 N 95She1 !
$PAR  G(FCC_A1,DY:VA)           298.15  +GHSERDY
$            +1300-0.6651608*T;                                  3000 N 03Cac !
 PAR  G(FCC_A1,DY:VA)           298.15  +GHSERDY+5000;           3000 N 09Wan4 !
 PAR  G(CBCC_A12,DY:VA)         298.15  +GHSERDY+10000;          3000 N 09Wan4 !
 PAR  G(CUB_A13,DY:VA)          298.15  +GHSERDY+10000;          3000 N 09Wan4 !
 PAR  G(LIQUID,DY)              100.00  +GLIQDY;                 3000 N 95She1 !
$
 FUNCTION GHSERDY   100.00  -7937.16586+102.307412*T-26.3917167*T*LN(T)
       -7.61683657E-04*T**2-5.86914125E-07*T**3+4010.90565*T**(-1);
      1000.00  Y  -13733.328+214.012934*T-43.8283359*T*LN(T)
       +0.0166909801*T**2-3.49702836E-06*T**3+0.0173619874*T**(-1);
      1654.15  Y  -404681.371+2032.1415*T-272.123952*T*LN(T)
       +0.0578301681*T**2-2.76169148E-06*T**3+1.09616238E+08*T**(-1);
      3000.00  N !
 FUNCTION GBCCDY    100.00  +1508.1802-0.566616181*T+GHSERDY;
      1000.00  Y  +327500.062-2868.04585*T+391.515418*T*LN(T)
       -0.224042148*T**2+2.04076075E-05*T**3-48652656.5*T**(-1);
      1654.15  Y  -33708.7949+291.409631*T-50.208*T*LN(T);
      1685.15  Y  -40775.4966+330.318068*T-55.2811171*T*LN(T)
       +0.0015254673*T**2-7.7437116E-08*T**3+1776589.32*T**(-1);
      3000.00  N !
 FUNCTION GLIQDY    100.00  +13196.6185-7.5443643*T+GHSERDY;
      1000.00  Y  +300126.971-2519.78614*T+341.302578*T*LN(T)
       -0.196153225*T**2+1.76197799E-05*T**3-43071677.5*T**(-1);
      1685.15  Y  -21864.7344+282.205014*T-49.9151*T*LN(T);
      3000.00  N !
$ ------------------------------------------------------------------------------
$ Mn
$
$ DHCP from 09Wan4 not included in unary (this is not a good value)
$ RHOMB_C19 from 09Wan1 not included in unary
$
 PAR  G(CBCC_A12,MN:VA),,               +GHSERMN;                2000 N 91Din !
 PAR  TC(CBCC_A12,MN:VA),,               -285.00;                2000 N 91Din !
 PAR  BM(CBCC_A12,MN:VA),,                 -0.66;                2000 N 91Din !
 PAR  G(CUB_A13,MN:VA),,                +GCUBMN;                 2000 N 91Din !
 PAR  G(FCC_A1,MN:VA),,                 +GFCCMN;                 2000 N 91Din !
 PAR  TC(FCC_A1,MN:VA),,                -1620.00;                2000 N 91Din !
 PAR  BM(FCC_A1,MN:VA),,                   -1.86;                2000 N 91Din !
 PAR  G(BCC_A2,MN:VA),,                 +GBCCMN;                 2000 N 91Din !
 PAR  TC(BCC_A2,MN:VA),,                 -580.00;                2000 N 91Din !
 PAR  BM(BCC_A2,MN:VA),,                   -0.27;                2000 N 91Din !
 PAR  G(HCP_A3,MN:VA),,                 +GHCPMN;                 2000 N 91Din !
 PAR  TC(HCP_A3,MN:VA),,                -1620.00;                2000 N 91Din !
 PAR  BM(HCP_A3,MN:VA),,                   -1.86;                2000 N 91Din !
$PAR  G(DHCP,MN),,                      +GHSERMN+10000;          2100 N 09Wan4 !
$PAR  G(RHOMB_C19,MN),,                 +GHSERMN+1000;           2100 N 09Wan1 !
 PAR  G(LIQUID,MN),,                    +GLIQMN;                 2000 N 91Din !
$
 FUNCTION GHSERMN   298.15  -8115.28+130.059*T-23.4582*T*LN(T)
       -0.00734768*T**2+69827*T**(-1);
      1519.00  Y  -28733.41+312.2648*T-48*T*LN(T)+1.656847E+30*T**(-9);
      2000.00  N !
 FUNCTION GCUBMN    298.15  -5800.4+135.995*T-24.8785*T*LN(T)
       -0.00583359*T**2+70269*T**(-1);
      1519.00  Y  +442.65-0.9715*T+GHSERMN+2.310723E+30*T**(-9);
      2000.00  N !
 FUNCTION GFCCMN    298.15  -3439.3+131.884*T-24.5177*T*LN(T)
       -0.006*T**2+69600*T**(-1);
      1519.00  Y  +2663.31-2.5984*T+GHSERMN+2.205113E+30*T**(-9);
      2000.00  N !
 FUNCTION GBCCMN    298.15  -3235.3+127.85*T-23.7*T*LN(T)
       -0.00744271*T**2+60000*T**(-1);
      1519.00  Y  +5544.58-4.5605*T+GHSERMN-3.91695E+29*T**(-9);
      2000.00  N !
 FUNCTION GHCPMN    298.15  -4439.3+133.007*T-24.5177*T*LN(T)
       -0.006*T**2+69600*T**(-1);
      1519.00  Y  +1663.31-1.4754*T+GHSERMN+2.205113E+30*T**(-9);
      2000.00  N !
 FUNCTION GLIQMN    298.15  +17859.91-12.6208*T+GHSERMN-4.41929E-21*T**7;
      1519.00  Y  -9993.9+299.036*T-48*T*LN(T);
      2000.00  N !
$ ------------------------------------------------------------------------------
$ Binary system
$
$ C.P. Wang, Z. Lin, X.J. Liu, J. Alloys Compd., 469, 123-28(2009).
$
$ Checked against paper. Checked at 6000 K.
$
$ L(LIQUID,DY,MN;0) misprinted in paper.
$
$ There are small differences compared to table of invarioants in the paper.
$ Probably the table was calculated with a slightly different parameter set.
$
$ Parameter from paper below
$PAR  L(LIQUID,DY,MN;0),,               -1860+5*T;,,                  N 09Wan4 !
$ Corrected parameter below
 PAR  L(LIQUID,DY,MN;0),,               +1860+5*T;,,                  N 09Wan4 !
 PAR  L(LIQUID,DY,MN;1),,               -22152+9*T;,,                 N 09Wan4 !
 PAR  L(LIQUID,DY,MN;2),,               -7640+5*T;,,                  N 09Wan4 !
$
 PAR  L(FCC_A1,DY,MN:VA;0),,            +42300;,,                     N 09Wan4 !
$
 PAR  L(BCC_A2,DY,MN:VA;0),,            +54150;,,                     N 09Wan4 !
 PAR  L(BCC_A2,DY,MN:VA;1),,            +10000;,,                     N 09Wan4 !
$
 PAR  L(HCP_A3,DY,MN:VA;0),,            +150000;,,                    N 09Wan4 !
 PAR  L(CBCC_A12,DY,MN:VA;0),,          +27000;,,                     N 09Wan4 !
 PAR  L(CUB_A13,DY,MN:VA;0),,           +40000;,,                     N 09Wan4 !
$
 PAR  G(DYMN2_C15,DY:MN),,              +GHSERDY+2*GHSERMN-5700;,,   N 09Wan4 !
$
 PAR  G(DY6MN23_D8A,DY:MN),,            +6*GHSERDY+23*GHSERMN
             -54556;,,                                                N 09Wan4 !
 PAR  TC(DY6MN23_D8A,DY:MN),,            +443.00;,,                   N 09Wan4 !
 PAR  BM(DY6MN23_D8A,DY:MN),,             +49.80;,,                   N 09Wan4 !
$
 PAR  G(DYMN12_D2B,DY:MN),,             +GHSERDY+12*GHSERMN
             -10492-5*T;,,                                            N 09Wan4 !
 PAR  TC(DYMN12_D2B,DY:MN),,             -110.00;,,                   N 09Wan4 !
 PAR  BM(DYMN12_D2B,DY:MN),,              +49.80;,,                   N 09Wan4 !
$ ------------------------------------------------------------------------------
$
$
 LIST-OF-REFERENCE
 NUMBER  SOURCE
  Null   'Unknown source'
  REFLAV 'Laves phase convention: G(LAVES,X:X)=+3*GHSERXX+15000'
  91Din  'A.T. Dinsdale, Calphad, 15, 317-425(1991).'
  95She1 'H. Shen, W. Zhang, G. Liu, R. Wang, Z. Du, Report F-95-01,
          University of Science and Technology, Beijing, May 1995,
          SGTE unary database V.3.0, 1996; Dy'
  03Cac  'G. Cacciamani, S. De Negri, A. Saccone, R. Ferro,
          Intermetallics, 11, 1135-51(2003); Dy'
  09Wan1 'C.P. Wang, H.L. Zhang, S.L. Wang, Z. Lin, X.J. Liu, A.T. Tang,
          F.S. Pan, J. Alloys Compd., 481, 291-95(2009); Ho, Mn, Sm'
  09Wan4 'C.P. Wang, Z. Lin, X.J. Liu,
          J. Alloys Compd., 469, 123-28(2009); Dy, Mn, Pr, Dy-Mn'
!
