$
$ Database for Co-Dy from X. Su et al. 1998.
$
$ X. Su, W. Zhang, Z. Du, Z. Metallkd., 89, 522-26(1998).
$
$ Dataset created 2020.02.01 by Bengt Hallstedt.
$
$ Modified from 96Su with a solution model for Co5Dy/Co17Dy2.
$
$ The bcc and hcp interactions are too large in the paper (+1000000) and
$ was reduced to +50000.
$
$ The Dy solubility in fcc-Co is slightly higher due to changed fcc-Dy.
$
$ Invariant equilibria match on the Co-rich side, but are up to 27 K different
$ on the Dy-rich side. It seems they used Dy from 91Din, although the current
$ Dy in SGTE unary comes from the same group.
$
$ There is a huge inverse miscibility gap with a minimum at
$ 2645 K and x(Dy)=0.77.
$
$ ------------------------------------------------------------------------------
 TEMP-LIM 298.15 6000.00 !
$
$ELEMENT NAME  REF. STATE               ATOMIC MASS H298-H0    S298    !
$
 ELEMENT VA   VACUUM                      0.0          0.0      0.0    ! 
 ELEMENT CO   HCP_A3                     58.9332    4765.567   30.0400 ! 
 ELEMENT DY   HCP_A3                    162.50      8865.896   74.9559 ! 
$ ------------------------------------------------------------------------------
$ Species
$
 SPECIE  CO2                                CO2 !
$ ------------------------------------------------------------------------------
$ Phase definitions
$
 PHASE LIQUID:L % 1 1 !
 CONST LIQUID:L : CO DY : !
$
$ Fcc (cF4, Fm-3m) and MeX (cF8, Fm-3m)
$
 PHASE FCC_A1 %A 2 1 1 !
 CONST FCC_A1 : CO% DY : VA : !
$
$ Bcc (cI2, Im-3m)
$
 PHASE BCC_A2 %B 2 1 3 !
 CONST BCC_A2 : CO DY : VA : !
$
$ Hcp (hP2, P6_3/mmc) and Me2X (NiAs-type, hP4, P6_3/mmc, B8_1)
$
 PHASE HCP_A3 %A 2 1 0.5 !
 CONST HCP_A3 : CO% DY% : VA : !
$
$ Prototype Th2Zn17 (hR19, R-3m) and CaCu5 (hP6, P6/mmm)
$ This is Co17Dy2 and Co5Dy
$
 PHASE CO17DY2 %A 3 15 1 2 !
 CONST CO17DY2 : CO : CO2 DY : CO2 DY : !
$
$ Prototype Co7Gd2 (hR18, R-3m)
$
 PHASE CO7DY2 %A 2 7 2 !
 CONST CO7DY2 : CO : DY : !
$
$ Prototype Ni3Pu (hR12, R-3m)
$
 PHASE CO3DY %A 2 3 1 !
 CONST CO3DY : CO : DY : !
$
$ Prototype Cu2Mg (cF24, Fd-3m)
$
 PHASE CO2DY_C15 %A 2 2 1 !
 CONST CO2DY_C15 : CO : DY : !
$
$ Prototype Co7Ho12 (mP38, P2_1/c)
$
 PHASE CO7DY12 %A 2 7 12 !
 CONST CO7DY12 : CO : DY : !
$
$ Prototype Fe3C (oP16, Pnma)
$
 PHASE CODY3_D011 %A 2 1 3 !
 CONST CODY3_D011 : CO : DY : !
$ ------------------------------------------------------------------------------
$ Defaults
$
 DEFINE-SYSTEM-DEFAULT ELEMENT 2 !
 DEFAULT-COM DEFINE_SYSTEM_ELEMENT VA !
 TYPE-DEF % SEQ * !
 TYPE-DEF A GES AMEND_PHASE_DESCRIPTION @ MAGNETIC -3 0.28 !
 TYPE-DEF B GES AMEND_PHASE_DESCRIPTION @ MAGNETIC -1 0.4 !
 FUNCTION ZERO      298.15  0;                                         6000 N !
 FUNCTION UN_ASS    298.15  0;                                         6000 N !
 FUNCTION R         298.15  +8.31451;                                  6000 N !
$ ------------------------------------------------------------------------------
$ Element data
$ ------------------------------------------------------------------------------
$ Co
$
 PAR  G(HCP_A3,CO:VA),,                 +GHSERCO;,,                   N 91Din !
 PAR  TC(HCP_A3,CO:VA),,                 1396.00;,,                   N 91Din !
 PAR  BM(HCP_A3,CO:VA),,                    1.35;,,                   N 91Din !
 PAR  G(FCC_A1,CO:VA),,                 +GHSERCO
             +427.591-0.615248*T;,,                                   N 91Din !
 PAR  TC(FCC_A1,CO:VA),,                 1396.00;,,                   N 91Din !
 PAR  BM(FCC_A1,CO:VA),,                    1.35;,,                   N 91Din !
 PAR  G(BCC_A2,CO:VA),,                 +GHSERCO+2938-0.7138*T;,,     N 91Din !
 PAR  TC(BCC_A2,CO:VA),,                 1450.00;,,                   N 91Din !
 PAR  BM(BCC_A2,CO:VA),,                    1.35;,,                   N 91Din !
$PAR  G(CBCC_A12,CO:VA),,               +GHSERCO+4155;,,              N 91Din !
$PAR  G(CUB_A13,CO:VA),,                +GHSERCO+3155;,,              N 91Din !
 PAR  G(LIQUID,CO),,                    +GLIQCO;,,                    N 91Din !
$
 PAR  G(CO17DY2,CO:CO2:CO2),,           +21*GHSERCO+327454;,,         N 98Su !
$
 FUNCTION GHSERCO   298.15  +310.241+133.36601*T-25.0861*T*LN(T)
       -0.002654739*T**2-1.7348E-07*T**3+72527*T**(-1);
      1768.00  Y  -17197.666+253.28374*T-40.5*T*LN(T)+9.3488E+30*T**(-9);
      6000.00  N !
 FUNCTION GLIQCO    298.15  +15085.037-8.931932*T+GHSERCO-2.19801E-21*T**7;
      1768.00  Y  -846.61+243.599944*T-40.5*T*LN(T);
      6000.00  N !
$ ------------------------------------------------------------------------------
$ Dy
$
$ HCP_A3, BCC_A2 and LIQUID revised in unary 3.0
$
$ FCC_A1 from 03Cac not included in unary (but it should be)
$
 PAR  G(HCP_A3,DY:VA)           100.00  +GHSERDY;                3000 N 95She1 !
 PAR  TC(HCP_A3,DY:VA)          100.00    179;                   3000 N 95She1 !
 PAR  BM(HCP_A3,DY:VA)          100.00      3.0;                 3000 N 95She1 !
 PAR  G(BCC_A2,DY:VA)           100.00  +GBCCDY;                 3000 N 95She1 !
 PAR  G(FCC_A1,DY:VA)           100.00  +GHSERDY
             +1300-0.6651608*T;                                  3000 N 03Cac !
 PAR  G(LIQUID,DY)              100.00  +GLIQDY;                 3000 N 95She1 !
$
 FUNCTION GHSERDY   100.00  -7937.16586+102.307412*T-26.3917167*T*LN(T)
       -7.61683657E-04*T**2-5.86914125E-07*T**3+4010.90565*T**(-1);
      1000.00  Y  -13733.328+214.012934*T-43.8283359*T*LN(T)
       +0.0166909801*T**2-3.49702836E-06*T**3+0.0173619874*T**(-1);
      1654.15  Y  -404681.371+2032.1415*T-272.123952*T*LN(T)
       +0.0578301681*T**2-2.76169148E-06*T**3+1.09616238E+08*T**(-1);
      3000.00  N !
 FUNCTION GBCCDY    100.00  +1508.1802-0.566616181*T+GHSERDY;
      1000.00  Y  +327500.062-2868.04585*T+391.515418*T*LN(T)
       -0.224042148*T**2+2.04076075E-05*T**3-48652656.5*T**(-1);
      1654.15  Y  -33708.7949+291.409631*T-50.208*T*LN(T);
      1685.15  Y  -40775.4966+330.318068*T-55.2811171*T*LN(T)
       +0.0015254673*T**2-7.7437116E-08*T**3+1776589.32*T**(-1);
      3000.00  N !
 FUNCTION GLIQDY    100.00  +13196.6185-7.5443643*T+GHSERDY;
      1000.00  Y  +300126.971-2519.78614*T+341.302578*T*LN(T)
       -0.196153225*T**2+1.76197799E-05*T**3-43071677.5*T**(-1);
      1685.15  Y  -21864.7344+282.205014*T-49.9151*T*LN(T);
      3000.00  N !
$ ------------------------------------------------------------------------------
$ Binary system
$
$ X. Su, W. Zhang, Z. Du, Z. Metallkd., 89, 522-26(1998).
$
$ Checked against paper. Checked at 6000 K.
$
$ Modified from 96Su with a solution model for Co5Dy/Co17Dy2.
$
$ The bcc and hcp interactions are too large in the paper (+1000000) and
$ was reduced to +50000.
$
$ The Dy solubility in fcc-Co is slightly higher due to changed fcc-Dy.
$
$ Invariant equilibria match on the Co-rich side, but are up to 27 K different
$ on the Dy-rich side. It seems they used Dy from 91Din, although the current
$ Dy in SGTE unary comes from the same group.
$
$ There is a huge inverse miscibility gap with a minimum at
$ 2645 K and x(Dy)=0.77.
$
 PAR  L(LIQUID,CO,DY;0),,               -98072+40.952*T;,,            N 98Su !
 PAR  L(LIQUID,CO,DY;1),,               -222.3-12.017*T;,,            N 98Su !
$
 PAR  L(FCC_A1,CO,DY:VA;0),,            +12893;,,                     N 98Su !
 PAR  L(BCC_A2,CO,DY:VA;0),,            +50000;,,                     N !
 PAR  L(HCP_A3,CO,DY:VA;0),,            +50000;,,                     N !
$
 PAR  G(CO17DY2,CO:CO2:DY),,            +17*GHSERCO+2*GHSERDY
             -220618+32.404*T;,,                                      N 98Su !
 PAR  TC(CO17DY2,CO:CO2:DY),,            1166.00;,,                   N 96Su !
 PAR  BM(CO17DY2,CO:CO2:DY),,               7.70;,,                   N 96Su !
 PAR  G(CO17DY2,CO:DY:CO2),,            +19*GHSERCO+GHSERDY;,,        N 98Su !
 PAR  G(CO17DY2,CO:DY:DY),,             +15*GHSERCO+3*GHSERDY
             -192744-235.937*T+30.56*T*LN(T);,,                       N 98Su !
 PAR  L(CO17DY2,CO:CO2,DY:*;0),,        +34451-4.983*T;,,             N 98Su !
 PAR  L(CO17DY2,CO:*:CO2,DY;0),,        +13297-48.207*T;,,            N 98Su !
$
 PAR  G(CO7DY2,CO:DY),,                 +7*GHSERCO+2*GHSERDY
            -154817+18.659*T;,,                                       N 98Su !
 PAR  TC(CO7DY2,CO:DY),,                  640.00;,,                   N 96Su !
 PAR  BM(CO7DY2,CO:DY),,                    0.00;,,                   N 96Su !
$
 PAR  G(CO3DY,CO:DY),,                  +3*GHSERCO+GHSERDY
             -73458+8.656*T;,,                                        N 98Su !
 PAR  TC(CO3DY,CO:DY),,                   452.50;,,                   N 96Su !
 PAR  BM(CO3DY,CO:DY),,                     4.40;,,                   N 96Su !
$
 PAR  G(CO2DY_C15,CO:DY),,              +2*GHSERCO+GHSERDY
             -56118-24.043*T+3.971*T*LN(T);,,                         N 98Su !
 PAR  TC(CO2DY_C15,CO:DY),,               146.00;,,                   N 96Su !
 PAR  BM(CO2DY_C15,CO:DY),,                 6.93;,,                   N 96Su !
$
 PAR  G(CO7DY12,CO:DY),,                +7*GHSERCO+12*GHSERDY
             -308895+74.994*T;,,                                      N 98Su !
 PAR  TC(CO7DY12,CO:DY),,                  55.00;,,                   N 96Su !
 PAR  BM(CO7DY12,CO:DY),,                   5.00;,,                   N 96Su !
$
 PAR  G(CODY3_D011,CO:DY),,             +GHSERCO+3*GHSERDY
             -50299+96.481*T-11.933*T*LN(T);,,                        N 98Su !
 PAR  TC(CODY3_D011,CO:DY),,             -135.00;,,                   N 96Su !
 PAR  BM(CODY3_D011,CO:DY),,              -19.20;,,                   N 96Su !
$ ------------------------------------------------------------------------------
$
$
 LIST-OF-REFERENCE
 NUMBER  SOURCE
  Null   'Unknown source'
  Same   'Same or similar interaction as in the corresponding stable phase'
  REFLAV 'Laves phase convention: G(LAVES,X:X)=+3*GHSERXX+15000'
  91Din  'A.T. Dinsdale, Calphad, 15, 317-425(1991).'
  95She1 'H. Shen, W. Zhang, G. Liu, R. Wang, Z. Du, Report F-95-01,
          University of Science and Technology, Beijing, May 1995,
          SGTE unary database V.3.0, 1996; Dy'
  96Su   'X. Su, W. Zhang, Z. Du, Rare Met., 15, 222-29(1996); Co-Dy'
  98Su   'X. Su, W. Zhang, Z. Du, Z. Metallkd., 89, 522-26(1998); Co-Dy'
  03Cac  'G. Cacciamani, S. De Negri, A. Saccone, R. Ferro,
          Intermetallics, 11, 1135-51(2003); Dy, Ho'
!
