$
$ Database for Tb-W from N. Krishnamurthy et al. 2000.
$
$ N. Krishnamurthy, T. Kundu, A. Awasthi, S.P. Garg,
$ Z. Metallkd., 91, 234-40(2000).
$
$ Dataset created 2025.02.11 by Bengt Hallstedt.
$
$ The liquid interaction was refitted to approximately match measured
$ liquid solubilities. The discrepancy probably originates from differences
$ in elemental W.
$
$ The solid interactions were set to 1.5 times the liquid interaction. This
$ should be revised when there are data.
$
$ ------------------------------------------------------------------------------
 TEMP-LIM 298.15 6000.00 !
$
$ELEMENT NAME  REF. STATE               ATOMIC MASS H298-H0    S298    !
$
 ELEMENT VA   VACUUM                      0.0          0.0      0.0    ! 
 ELEMENT TB   HCP_A3                    158.9254    9426.552   73.3037 ! 
 ELEMENT W    BCC_A2                    183.85      4970.0     32.6176 ! 
$ ------------------------------------------------------------------------------
$ Phase definitions
$
 PHASE LIQUID:L % 1 1 !
 CONST LIQUID:L : TB W : !
$
$ Fcc (cF4, Fm-3m) and MeX (cF8, Fm-3m)
$
 PHASE FCC_A1 %A 2 1 1 !
 CONST FCC_A1 : W : VA : !
$
$ Bcc (cI2, Im-3m)
$
 PHASE BCC_A2 %B 2 1 3 !
 CONST BCC_A2 : TB W : VA : !
$
$ Hcp (hP2, P6_3/mmc) and Me2X (NiAs-type, hP4, P6_3/mmc, B8_1)
$
 PHASE HCP_A3 % 2 1 0.5 !
 CONST HCP_A3 : TB% W : VA : !
$ ------------------------------------------------------------------------------
$ Defaults
$
 DEFINE-SYSTEM-DEFAULT ELEMENT 2 !
 DEFAULT-COM DEFINE_SYSTEM_ELEMENT VA !
 TYPE-DEF % SEQ * !
 TYPE-DEF A GES AMEND_PHASE_DESCRIPTION @ MAGNETIC -3 0.28 !
 TYPE-DEF B GES AMEND_PHASE_DESCRIPTION @ MAGNETIC -1 0.4 !
 FUNCTION ZERO      298.15  0;                                         6000 N !
 FUNCTION UN_ASS    298.15  0;                                         6000 N !
 FUNCTION R         298.15  +8.31451;                                  6000 N !
$ ------------------------------------------------------------------------------
$ Element data
$ ------------------------------------------------------------------------------
$ Tb
$
 PAR  G(HCP_A3,TB:VA),,                 +GHSERTB;                3000 N 91Din !
 PAR  G(BCC_A2,TB:VA),,                 +GBCCTB;                 3000 N 91Din !
 PAR  G(LIQUID,TB),,                    +GLIQTB;                 3000 N 91Din !
$
 FUNCTION GHSERTB   298.15  -20842.158+409.309555*T-77.5006*T*LN(T)
       +0.0832265*T**2-2.5672833E-05*T**3+562430*T**(-1);
       600.00  Y  -8772.606+102.61162*T-25.8659*T*LN(T)
       -0.002757005*T**2-8.05838E-07*T**3+172355*T**(-1);
      1200.00  Y  -7944.942+101.7776*T-25.9584*T*LN(T)
       -0.001676335*T**2-1.067632E-06*T**3;
      1562.00  Y  -265240.309+1456.04268*T-200.215695*T*LN(T)
       +0.041615159*T**2-2.044697E-06*T**3+65043790*T**(-1);
      3000.00  N !
 FUNCTION GBCCTB    298.15  +4167.835-2.652707*T+GHSERTB;
      1200.00  Y  +633060.245-5157.77779*T+706.580596*T*LN(T)
       -0.373763517*T**2+3.4100235E-05*T**3-1.03233571E+08*T**(-1);
      1562.00  Y  -23398.029+257.388486*T-46.4842*T*LN(T);
      3000.00  N !
 FUNCTION GLIQTB    298.15  +3945.831+29.867521*T-14.252646*T*LN(T)
       -0.020466105*T**2+2.17475E-06*T**3-160724*T**(-1);
      1562.00  Y  -13247.649+251.16889*T-46.4842*T*LN(T);
      3000.00  N !
$ ------------------------------------------------------------------------------
$ W
$
 PAR  G(BCC_A2,W:VA),,                  +GHSERWW;,,                   N 91Din !
 PAR  G(FCC_A1,W:VA),,                  +GHSERWW+19300+0.63*T;,,      N 91Din !
 PAR  G(HCP_A3,W:VA),,                  +GHSERWW+14750;,,             N 91Din !
 PAR  G(LIQUID,W),,                     +GLIQWW;,,                    N 91Din !
$
 FUNCTION GHSERWW   298.15  -7646.311+130.4*T-24.1*T*LN(T)
       -0.001936*T**2+2.07E-07*T**3+44500*T**(-1)-5.33E-11*T**4;
      3695.00  Y  -82868.801+389.362335*T-54*T*LN(T)+1.528621E+33*T**(-9);
      6000.00  N !
 FUNCTION GLIQWW    298.15  +52160.584-14.10999*T+GHSERWW-2.713468E-24*T**7;
      3695.00  Y  -30436.051+375.175*T-54*T*LN(T);
      6000.00  N !
 FUNCTION GFCCWW    298.15  +GHSERWW+19300+0.63*T;                     6000 N !
$ ------------------------------------------------------------------------------
$ Binary system
$
$ N. Krishnamurthy, T. Kundu, A. Awasthi, S.P. Garg,
$ Z. Metallkd., 91, 234-40(2000).
$
$ Checked against paper. Checked at 6000 K.
$
$ The liquid interaction was refitted to approximately match measured
$ liquid solubilities. The discrepancy probably originates from differences
$ in elemental W.
$
$ The solid interactions were set to 1.5 times the liquid interaction. This
$ should be revised when there are data.
$
$PAR  L(LIQUID,TB,W;0),,                +91700;,,                     N 00Kri !
 PAR  L(LIQUID,TB,W;0),,                +84000;,,                     N 00Kri !
$
 PAR  L(BCC_A2,TB,W:VA;0),,             +126000;,,                    N 25Hal !
 PAR  L(HCP_A3,TB,W:VA;0),,             +126000;,,                    N 25Hal !
$ ------------------------------------------------------------------------------
$
$
 LIST-OF-REFERENCE
 NUMBER  SOURCE
  Null   'Unknown source'
  Same   'Same or similar interaction as in the corresponding stable phase'
  REFLAV 'Laves phase convention: G(LAVES,X:X)=+3*GHSERXX+15000'
  91Din  'A.T. Dinsdale, Calphad, 15, 317-425(1991).'
  00Kri  'N. Krishnamurthy, T. Kundu, A. Awasthi, S.P. Garg,
          Z. Metallkd., 91, 234-40(2000); Tb-W'
  25Hal  'B. Hallstedt, dummy solid interaction, 2025; Tb-W'
!
