$
$ Database for Mg-Sr from Y. Zhong et al. 2006.
$
$ Y. Zhong, J.O. Sofo, A.A. Luo, Z.-K. Liu, J. Alloys Compd., 421, 172-78(2006).
$
$ Dataset created 2018.01.16 by Bengt Hallstedt.
$ 2021.01.24: Modified for use with GES6.
$
$ ------------------------------------------------------------------------------
 TEMP-LIM 298.15 6000.00 !
$
$ELEMENT NAME  REF. STATE               ATOMIC MASS H298-H0    S298    !
$
 ELEMENT VA   VACUUM                      0.0          0.0      0.0    ! 
 ELEMENT MG   HCP_A3                     24.305     4998.      32.671  !
 ELEMENT SR   FCC_A1                     87.62      6568.      55.694  ! 
$ ------------------------------------------------------------------------------
$ Phase definitions
$
 PHASE LIQUID:L % 1 1 !
 CONST LIQUID:L : MG SR : !
$
$ Fcc (cF4, Fm-3m) and MeX (cF8, Fm-3m)
$
 PHASE FCC_A1 %A 2 1 1 !
 CONST FCC_A1 : MG SR% : VA% : !
$
$ Bcc (cI2, Im-3m)
$
 PHASE BCC_A2 %B 2 1 3 !
 CONST BCC_A2 : MG SR% : VA% : !
$
$ Hcp (hP2, P6_3/mmc) and Me2X (NiAs-type, hP4, P6_3/mmc, B8_1)
$
 PHASE HCP_A3 %A 2 1 0.5 !
 CONST HCP_A3 : MG% SR : VA% : !
$
$ Prototype Ni17Th2 (hP38, P6_3/mmc)
$
 PHASE MG17SR2 % 2 17 2 !
 CONST MG17SR2 : MG : SR : !
$
$ Prototype Mg38Sr9 (hP94, P6_3/mmc)
$
 PHASE MG38SR9 % 2 38 9 !
 CONST MG38SR9 : MG : SR : !
$
$ Prototype Mn23Th6 (cF116, Fm-3m)
$
 PHASE MG23SR6_D8A % 2 23 6 !
 CONST MG23SR6_D8A : MG : SR : !
$
$ Prototype MgZn2 (hP12, P6_3/mmc)
$
 PHASE MG2SR_C14 % 2 2 1 !
 CONST MG2SR_C14 : MG% SR : MG SR% : !
$ ------------------------------------------------------------------------------
$ Defaults
$
 DEFINE-SYSTEM-DEFAULT ELEMENT 2 !
 DEFAULT-COM DEFINE_SYSTEM_ELEMENT VA !
 TYPE-DEF % SEQ * !
 TYPE-DEF A GES AMEND_PHASE_DESCRIPTION @ MAGNETIC -3 0.28 !
 TYPE-DEF B GES AMEND_PHASE_DESCRIPTION @ MAGNETIC -1 0.4 !
 FUNCTION ZERO      298.15  0;                                         6000 N !
 FUNCTION UN_ASS    298.15  0;                                         6000 N !
 FUNCTION R         298.15  +8.31451;                                  6000 N !
$ ------------------------------------------------------------------------------
$ Element data
$ ------------------------------------------------------------------------------
$ Mg
$
$ DHCP from 04Guo (included in SGSOL 5.0; this value is not particularly good)
$ not included in unary
$ DHCP from 05Guo and 08Guo not included in unary
$
 PAR  G(HCP_A3,MG:VA),,                 +GHSERMG;                3000 N 91Din !
 PAR  G(FCC_A1,MG:VA),,                 +GHSERMG+2600-0.9*T;     3000 N 91Din !
 PAR  G(BCC_A2,MG:VA),,                 +GHSERMG+3100-2.1*T;     3000 N 91Din !
 PAR  G(DHCP,MG),,                      +GHSERMG+5000;           3000 N 04Guo !
$PAR  G(DHCP,MG),,                      +GHSERMG+3000;           3000 N 05Guo !
$PAR  G(DHCP,MG),,                      +GHSERMG+303.4;          3000 N 08Guo !
$PAR  G(CBCC_A12,MG:VA),,               +GHSERMG
$            +4602.4-3.011*T;                                    3000 N 91Din !
$PAR  G(CUB_A13,MG:VA),,                +GHSERMG+5000-3*T;       3000 N 91Din !
 PAR  G(LIQUID,MG),,                    +GLIQMG;                 3000 N 91Din !
$
 PAR  G(MG2SR_C14,MG:MG),,              +3*GHSERMG+23372;,,           N 06Zho !
$
 FUNCTION GHSERMG   298.15  -8367.34+143.675547*T-26.1849782*T*LN(T)
       +4.858E-04*T**2-1.393669E-06*T**3+78950*T**(-1);
       923.00  Y  -14130.185+204.716215*T-34.3088*T*LN(T)+1.038192E+28*T**(-9);
      3000.00  N !
 FUNCTION GLIQMG    298.15  +8202.243-8.83693*T+GHSERMG-8.0176E-20*T**7;
       923.00  Y  -5439.869+195.324057*T-34.3088*T*LN(T);
      3000.00  N !
 FUNCTION GBCCMG    298.15  +GHSERMG+3100-2.1*T;                       3000 N !
$ ------------------------------------------------------------------------------
$ Sr
$
 PAR  G(FCC_A1,SR:VA),,                 +GHSERSR;                3000 N 91Din !
 PAR  G(BCC_A2,SR:VA),,                 +GBCCSR;                 3000 N 91Din !
 PAR  G(HCP_A3,SR:VA),,                 +GHSERSR+250+0.7*T;      3000 N 91Din !
 PAR  G(LIQUID,SR),,                    +GLIQSR;                 3000 N 91Din !
$
 PAR  G(MG2SR_C14,SR:SR),,              +3*GHSERSR+21753;,,           N 06Zho !
$
 FUNCTION GHSERSR   298.15  -7532.367+107.183879*T-23.905*T*LN(T)
       -0.00461225*T**2-1.67477E-07*T**3-2055*T**(-1);
       820.00  Y  -13380.102+153.196104*T-30.0905432*T*LN(T)
       -0.003251266*T**2+1.84189E-07*T**3+850134*T**(-1);
      3000.00  N !
 FUNCTION GBCCSR    298.15  -6779.234+116.583654*T-25.6708365*T*LN(T)
       -0.003126762*T**2+2.2965E-07*T**3+27649*T**(-1);
       820.00  Y  -6970.594+122.067301*T-26.57*T*LN(T)
       -0.0019493*T**2-1.7895E-08*T**3+16495*T**(-1);
      1050.00  Y  +8168.357+0.423037*T-9.7788593*T*LN(T)
       -0.009539908*T**2+5.20221E-07*T**3-2414794*T**(-1);
      3000.00  N !
 FUNCTION GLIQSR    298.15  +2194.997-10.118994*T-5.0668978*T*LN(T)
       -0.031840595*T**2+4.981237E-06*T**3-265559*T**(-1);
      1050.00  Y  -10855.29+213.406219*T-39.463*T*LN(T);
      3000.00  N !
$ ------------------------------------------------------------------------------
$ Binary system
$
$ Y. Zhong, J.O. Sofo, A.A. Luo, Z.-K. Liu, J. Alloys Compd., 421, 172-78(2006).
$
$ Checked against paper. Checked at 6000 K.
$
 PAR  L(LIQUID,MG,SR;0),,               -20858+6.358*T;,,             N 06Zho !
 PAR  L(LIQUID,MG,SR;1),,               -13008+4.715*T;,,             N 06Zho !
$
 PAR  L(FCC_A1,MG,SR:VA;0),,            +20000;,,                     N 06Zho !
 PAR  L(BCC_A2,MG,SR:VA;0),,            +20000;,,                     N 06Zho !
 PAR  L(HCP_A3,MG,SR:VA;0),,            +10000;,,                     N 06Zho !
$
 PAR  G(MG17SR2,MG:SR),,                +17*GHSERMG+2*GHSERSR
             -90039+14.054*T;,,                                       N 06Zho !
 PAR  G(MG38SR9,MG:SR),,                +38*GHSERMG+9*GHSERSR
             -338998+54.726*T;,,                                      N 06Zho !
 PAR  G(MG23SR6_D8A,MG:SR),,            +23*GHSERMG+6*GHSERSR
             -222032+37.283*T;,,                                      N 06Zho !
$
 PAR  G(MG2SR_C14,MG:SR),,              +2*GHSERMG+GHSERSR
             -29661+3.031*T;,,                                        N 06Zho !
 PAR  G(MG2SR_C14,SR:MG),,              +2*GHSERSR+GHSERMG+108788;,,  N 06Zho !
 PAR  L(MG2SR_C14,MG,SR:SR),,           +35000;,,                     N 06Zho !
$ ------------------------------------------------------------------------------
$
$
 LIST-OF-REFERENCE
 NUMBER  SOURCE
  Null   'Unknown source'
  Same   'Same or similar interaction as in the corresponding stable phase'
  COST   'COST 507 database'
  91Din  'A.T. Dinsdale, Calphad, 15, 317-425(1991).'
  04Guo  'C. Guo, Z. Du, J. Alloys Compd., 385, 109-13(2004); La, Mg'
  05Guo  'C. Guo, Z. Du, J. Alloys Compd., 399, 183-88(2005); Mg, Pr'
  06Zho  'Y. Zhong, J.O. Sofo, A.A. Luo, Z.-K. Liu,
          J. Alloys Compd., 421, 172-78(2006); Mg-Sr'
  08Guo  'C. Guo, Z. Du, C.Li, Calphad, 32, 177-87(2008); Mg, Pr'
!
