$
$ Database for Si-B from H.M. Chen et al. 2009.
$
$ H.M. Chen, H.Y. Qi, F. Zheng, L.B. Liu, Z.P. Jin,
$ J. Alloys Compd., 481, 182-89(2009).
$
$ Dataset created 2023.11.19 by Bengt Hallstedt.
$
$ Invariant equilibria differ by up to 12 K.
$
$ ------------------------------------------------------------------------------
 TEMP-LIM 298.15 6000.00 !
$
$ELEMENT NAME  REF. STATE               ATOMIC MASS H298-H0    S298    !
$
 ELEMENT VA   VACUUM                      0.0          0.0      0.0    ! 
 ELEMENT B    BETA_RHOMBO_B              10.81      1222.0      5.9    ! 
 ELEMENT SI   DIAMOND_A4                 28.0855    3217.      18.81   ! 
$ ------------------------------------------------------------------------------
$ Phase definitions
$
 PHASE LIQUID:L % 1 1 !
 CONST LIQUID:L : B SI : !
$
$ Prototype C (cF8, Fd-3m)
$
 PHASE DIAMOND_A4 % 1 1 !
 CONST DIAMOND_A4 : B SI : !
$
$ Prototype beta-B (hR105, R-3m)
$
 PHASE BETA_RHOMBO_B % 2 93 12 !
 CONST BETA_RHOMBO_B : B : B SI : !
$
$ Prototype alpha-B (hR12, R-3m)
$
 PHASE ALPHA_RHOMBO_B % 1 1 !
 CONST ALPHA_RHOMBO_B : B : !
$
$ Prototype B13C2 (hR15, R-3m)
$
 PHASE SIB3_D1G % 2 1 3 !
 CONST SIB3_D1G : SI : B : !
$
$ Prototype SiB6 (oP280, Pnnm)
$
 PHASE SIB6 % 2 1 6 !
 CONST SIB6 : SI : B : !
$
$ Pearson hR*, R-3m
$
 PHASE SIB24 % 3 61 1 8 !
 CONST SIB24 : B : SI : B SI : !
$ ------------------------------------------------------------------------------
$ Defaults
$
 DEFINE-SYSTEM-DEFAULT ELEMENT 2 !
 DEFAULT-COM DEFINE_SYSTEM_ELEMENT VA !
 TYPE-DEF % SEQ * !
 TYPE-DEF A GES AMEND_PHASE_DESCRIPTION @ MAGNETIC -3 0.28 !
 TYPE-DEF B GES AMEND_PHASE_DESCRIPTION @ MAGNETIC -1 0.4 !
 FUNCTION ZERO      298.15  0;                                         6000 N !
 FUNCTION UN_ASS    298.15  0;                                         6000 N !
 FUNCTION R         298.15  +8.31451;                                  6000 N !
$ ------------------------------------------------------------------------------
$ Element data
$ ------------------------------------------------------------------------------
$ B
$
$ FCC_A1, HCP_A3, DIAMOND_A4 and GRAPHITE added in unary 3.0
$ BCC_A2 added in unary 4.1
$ GRAPHITE revised in unary 4.4 (using the value from COST 507)
$ FCC_A1, BCC_A2 and HCP_A3 removed in unary 5.0
$ ALPHA_RHOMBO_B added in unary 5.0
$
$ FCC_A1, BCC_A2 and HCP_A3 still in SGSOL 5.0
$ The value for FCC_A1 in COST (and SGTE) is possibly incorrect.
$
$PAR  G(BETA_RHOMBO_B,B),,              +GHSERBB;,,                   N 91Din !
 PAR  G(BETA_RHOMBO_B,B:B),,            +105*GHSERBB;,,               N 91Din !
 PAR  G(ALPHA_RHOMBO_B,B),,             +GALPBB;,,                    N 09SGUN !
$PAR  G(FCC_A1,B:VA),,                  +GHSERBB+43514-12.217*T;,,    N SGCOST !
$PAR  G(FCC_A1,B:VA),,                  +GHSERBB+50208-13.472*T;,,    N 94Hal !
$PAR  G(BCC_A2,B:VA),,                  +GHSERBB+43514-12.217*T;,,    N 94Hal !
$PAR  G(HCP_A3,B:VA),,                  +GHSERBB+50208-9.706*T;,,     N SGCOST !
$PAR  G(GRAPHITE,B),,                   +GHSERBB+10000-2*T;,,         N SGCOST !
$PAR  G(GRAPHITE,B),,                   +GHSERBB+5000;,,              N 96SGUN !
$PAR  G(DIAMOND_A4,B),,                 +GHSERBB+10;,,                N 99SGUN !
 PAR  G(DIAMOND_A4,B),,                 +GHSERBB+20;,,                N COST !
$PAR  G(DIAMOND_A4,B),,                 +GHSERBB;,,                   N 96SGUN !
 PAR  G(LIQUID,B),,                     +GLIQBB;,,                    N 91Din !
$
 FUNCTION GHSERBB   298.15  -7735.284+107.111864*T-15.6641*T*LN(T)
       -0.006864515*T**2+6.18878E-07*T**3+370843*T**(-1);
      1100.00  Y  -16649.474+184.801744*T-26.6047*T*LN(T)
       -7.9809E-04*T**2-2.556E-08*T**3+1748270*T**(-1);
      2348.00  Y  -36667.582+231.336244*T-31.5957527*T*LN(T)
       -0.00159488*T**2+1.34719E-07*T**3+11205883*T**(-1);
      3000.00  Y  -21530.653+222.396264*T-31.4*T*LN(T);
      6000.00  N !
 FUNCTION GALPBB    298.15  -6076.24+86.648762*T-12.942464*T*LN(T)
       -7.089468E-3*T**2+0.659896E-6*T**3-45*T**(-1);
      1400.00  Y  +28477.506-106.789208*T+12.1072478*T*LN(T)
       -13.316875E-3*T**2+0.706895E-6*T**3-8002403*T**(-1);
      3000.00  Y  -25699.64+225.127135*T-31.4*T*LN(T);
      6000.00  N !
 FUNCTION GLIQBB    298.15  +48458.559-20.268025*T+GHSERBB;
       500.00  Y  +41119.703+82.101722*T-14.9827763*T*LN(T)
       -0.007095669*T**2+5.07347E-07*T**3+335484*T**(-1);
      2348.00  Y  +28842.012+200.94731*T-31.4*T*LN(T);
      3000.00  Y  +50372.665-21.448954*T+GHSERBB;
      6000.00  N !
 FUNCTION GFCCBB    298.15  +GHSERBB+43514-12.217*T;                   6000 N !
$ ------------------------------------------------------------------------------
$ Si
$
 PAR  G(DIAMOND_A4,SI),,                +GHSERSI;                3600 N 91Din !
$PAR  G(FCC_A1,SI:VA),,                 +GHSERSI+51000-21.8*T;   3600 N 91Din !
$PAR  G(BCC_A2,SI:VA),,                 +GHSERSI+47000-22.5*T;   3600 N 91Din !
$PAR  G(HCP_A3,SI:VA),,                 +GHSERSI+49200-20.8*T;   3600 N 91Din !
$PAR  G(CBCC_A12,SI:VA),,               +GHSERSI+50208-20.377*T; 3600 N 91Din !
$PAR  G(CUB_A13,SI:VA),,                +GHSERSI+47279-20.377*T; 3600 N 91Din !
 PAR  G(LIQUID,SI),,                    +GLIQSI;                 3600 N 91Din !
$
 FUNCTION GHSERSI   298.15  -8162.609+137.236859*T-22.8317533*T*LN(T)
       -0.001912904*T**2-3.552E-09*T**3+176667*T**(-1);
      1687.00  Y  -9457.642+167.281367*T-27.196*T*LN(T)-4.20369E+30*T**(-9);
      3600.00  N !
 FUNCTION GLIQSI    298.15  +50696.36-30.099439*T+GHSERSI+2.09307E-21*T**7;
      1687.00  Y  +40370.523+137.722298*T-27.196*T*LN(T);
      3600.00  N !
 FUNCTION GBCCSI    298.15  +GHSERSI+47000-22.5*T;               3600 N 91Din !
$ ------------------------------------------------------------------------------
$ Binary system
$
$ H.M. Chen, H.Y. Qi, F. Zheng, L.B. Liu, Z.P. Jin,
$ J. Alloys Compd., 481, 182-89(2009).
$
$ Checked against paper. Checked at 6000 K.
$
$ Invariant equilibria differ by up to 12 K.
$
 PAR  L(LIQUID,B,SI;0),,                +11008.088-6.45944029*T;,,    N 09Che !
$
 PAR  L(DIAMOND_A4,B,SI;0),,            +65655.0752-15.6289638*T;,,   N 09Che !
$
 PAR  G(BETA_RHOMBO_B,B:SI),,           +93*GHSERBB+12*GHSERSI
             -461741.918;,,                                           N 09Che !
 PAR  L(BETA_RHOMBO_B,B:B,SI;0),,       -44.5*T;,,                    N 09Che !
 PAR  L(BETA_RHOMBO_B,B:B,SI;1),,       -233627;,,                    N 09Che !
$
 PAR  G(SIB3_D1G,SI:B),,                +GHSERSI+3*GHSERBB
             -79944.412+25.5644608*T;,,                               N 09Che !
 PAR  G(SIB6,SI:B),,                    +GHSERSI+6*GHSERBB
             -159663.1722+51.11202229*T;,,                            N 09Che !
$
 PAR  G(SIB24,B:SI:B),,                 +GHSERSI+69*GHSERBB
             -254754.232+86.5471*T;,,                                 N 09Che !
 PAR  G(SIB24,B:SI:SI),,                +9*GHSERSI+61*GHSERBB
             -652194.127+275.666*T;,,                                 N 09Che !
 PAR  L(SIB24,B:SI:B,SI;0),,            -1589069.02+400.9447*T;,,     N 09Che !
$ ------------------------------------------------------------------------------
$
 ASSESSED_SYSTEM
  B-SI(TDB -* +LIQ +SIB3_D1G +SIB6 +BETA_RHO +ALPHA_RHO +DIAM
  ;P3 TMM:300/2500 STP:.9/1000) !
$
$
 LIST-OF-REFERENCE
 NUMBER  SOURCE
  Null   'Unknown source'
  REFLAV 'Laves phase convention: G(LAVES,X:X)=+3*GHSERXX+15000'
  COST   'COST 507 database'
  SGCOST 'COST 507 database, SGTE unary database V.3.0, 1996; Al, B, Nd, Ti, Zn'
  91Din  'A.T. Dinsdale, Calphad, 15, 317-425(1991).'
  94Hal  'B. Hallemans, P. Wollants, J.R. Roos,
          Z. Metallkd., 85, 676-82(1994), SGTE unary database V.4.1, 1999; B'
  96SGUN 'SGTE unary database V.3.0, 1996.'
  99SGUN 'SGTE unary database V.4.1, 1999.'
  09Che  'H.M. Chen, H.Y. Qi, F. Zheng, L.B. Liu, Z.P. Jin,
          J. Alloys Compd., 481, 182-89(2009); Si-B'
  09SGUN 'SGTE unary database V.5.0, 2009.'
!
