$
$ Database for In-Pd from C. Jiang and Z.-K. Liu 2002 (Included in LB Vol. 5)
$
$ C. Jiang, Z.-K. Liu, Metall. Mater. Trans. A, 33A, 3597-3603(2002).
$
$ Dataset created 2016.02.21 by Bengt Hallstedt.
$ 2021.01.17: Modified for use with GES6.
$
$ There is some shift in invariant equilibria involving INPD2_C37 (alpha)
$ because of a shift in stoichiometry from In0.333Pd0.667 to InPd2.
$
$ There is an inverse miscibility gap with a minimum at 3139 K and x(Pd)=0.84.
$ INPD_B2 becomes stable again above 4504 K and for pure Pd above 5174 K.
$
$ ------------------------------------------------------------------------------
 TEMP-LIM 298.15 6000.00 !
$
$ELEMENT NAME  REF. STATE               ATOMIC MASS H298-H0    S298    !
$
 ELEMENT VA   VACUUM                      0.0          0.0      0.0    ! 
 ELEMENT IN   TETRAGONAL_A6             114.82      6610.0     57.65   ! 
 ELEMENT PD   FCC_A1                    106.42      5468.488   37.8234 ! 
$ ------------------------------------------------------------------------------
$ Phase definitions
$
 PHASE LIQUID:L % 1 1 !
 CONST LIQUID:L : IN PD : !
$
$ Fcc (cF4) and MeX (cF8)
$
 PHASE FCC_A1 %A 2 1 1 !
 CONST FCC_A1 : IN PD% : VA : !
$
$ Bcc (cI2, Im-3m)
$
 PHASE BCC_A2 %B 2 1 3 !
 CONST BCC_A2 : IN PD : VA : !
$
$ Hcp (hP2, P6_3/mmc) and Me2X (NiAs-type, hP4, P6_3/mmc, B8_1)
$
 PHASE HCP_A3 %A 2 1 0.5 !
 CONST HCP_A3 : IN PD : VA : !
$
$ Prototype In (tI2, I4/mmm)
$
 PHASE TETRAGONAL_A6 % 1 1 !
 CONST TETRAGONAL_A6 : IN : !
$
$ Prototype Ru3Sn7 (cI40, Im-3m)
$
 PHASE IN7PD3_D8F % 2 0.71 0.29 !
 CONST IN7PD3_D8F : IN : PD : !
$
$ Prototype Al3Ni2 (hP5, P-3m1)
$
 PHASE IN3PD2_D513 % 2 3 2 !
 CONST IN3PD2_D513 : IN : PD : !
$
$ Prototype CsCl (cI40, Im-3m)
$
 PHASE INPD_B2 % 2 1 1 !
 CONST INPD_B2 : IN% PD : PD% VA : !
$
$ Prototype Ge3Rh5 (oP16, Pbam)
$
 PHASE IN3PD5 % 2 3 5 !
 CONST IN3PD5 : IN : PD : !
$
$ Prototype Co2Si (oP12, Pnma), alpha
$
 PHASE INPD2_C37 % 2 1 2 !
 CONST INPD2_C37 : IN : PD : !
$
$ Unknown structure
$
 PHASE INPD2_BETA % 2 0.34 0.66 !
 CONST INPD2_BETA : IN : PD : !
$
$ Prototype Al3Ti (tI8, I4/mmm), alpha
$
 PHASE INPD3_D022 % 2 1 3 !
 CONST INPD3_D022 : IN : PD : !
$
$ Prototype AuCu (tP2, P4/mmm), beta
$
 PHASE INPD3_L10 % 2 0.26 0.74 !
 CONST INPD3_L10 : IN : PD : !
$ ------------------------------------------------------------------------------
$ Defaults
$
 DEFINE-SYSTEM-DEFAULT ELEMENT 2 !
 DEFAULT-COM DEFINE_SYSTEM_ELEMENT VA !
 TYPE-DEF % SEQ * !
 TYPE-DEF A GES AMEND_PHASE_DESCRIPTION @ MAGNETIC -3 0.28 !
 TYPE-DEF B GES AMEND_PHASE_DESCRIPTION @ MAGNETIC -1 0.4 !
 FUNCTION ZERO      298.15  0;                                         6000 N !
 FUNCTION UN_ASS    298.15  0;                                         6000 N !
 FUNCTION R         298.15  +8.31451;                                  6000 N !
$ ------------------------------------------------------------------------------
$ Element data
$ ------------------------------------------------------------------------------
$ In
$
$ FCC_A1 and TET_ALPHA1 revised in unary 4.1
$ BCT_A5 and RHOMBOHEDRAL_A7 added in unary 4.1
$ TET_ALPHA1 revised in unary 5.0 (using the value from 99Ans)
$ DHCP added in unary 5.0
$
$ There is quite a bit of confusion about TET_ALPHA1_A6. The structure is
$ the same as In (TETRAGONAL_A6), but with a different (presumably) c/a ratio.
$ TET_ALPHA1_A6 is present in Bi-In, In-Pb and In-Sn (possibly more). Between
$ the TETRAGONAL_A6 (In-ss) and TET_ALPHA1_A6 there is a narrow two-phase
$ region. In each system a different G(TET_ALPHA1_A6,IN) lattice stability
$ was used.
$ In 91Din a value from an unpublished revision of the Bi-In system by
$ P.-Y. Chevalier 1990 is included. In SGTE Unary V 4.4 a value from 98Boa
$ for the In-Pb system is included. 98Boa treated the TET_ALPHA1_A6
$ phase in Bi-In and In-Pb as two different phases and used the lattice
$ stability from 88Che0 for the Bi-In branch of this phase. Finally, SGTE
$ unary V 5.0 uses a value from an unpublished evaluation by 99Ans of the
$ In-Sn system. Due to the close proximity of the TETRAGONAL_A6 and
$ TET_ALPHA1_A6 phases in these systems, any change of lattice stability
$ will cause a distortion of the phase diagram and require reoptimisation.
$
$ The DHCP phase is labelled D0_24 in 03Liu and alpha-prime in 92Ans. The
$ phase is present between the fcc and hcp phases in the Au-Sn and Au-In
$ systems.
$
 PAR  G(TETRAGONAL_A6,IN),,             +GHSERIN;                3800 N 91Din !
 PAR  G(FCC_A1,IN:VA),,                 +GHSERIN+162.061;        3800 N 98Boa !
$PAR  G(FCC_A1,IN:VA),,                 +GHSERIN+123-0.1988*T;   3800 N 91Din !
 PAR  G(BCC_A2,IN:VA),,                 +GHSERIN+800-0.8*T;      3800 N 91Din !
 PAR  G(HCP_A3,IN:VA),,                 +GHSERIN+533-0.6868*T;   3800 N 91Din !
$PAR  G(DHCP,IN),,                      +GHSERIN+520-0.384*T;    3800 N 92Ans !
$PAR  G(TET_ALPHA1_A6,IN),,             +GHSERIN+123-0.1988*T;   3800 N 99Ans1 !
$PAR  G(TET_ALPHA1_A6,IN),,             +GHSERIN+0.31*T;         3800 N 98Boa !
$PAR  G(TET_ALPHA1_A6,IN),,             +GHSERIN+193-0.16479*T;  3800 N 91Din !
$PAR  G(TET_ALPHA1_A6,IN),,             +GHSERIN-33+0.16*T;      3800 N 88Che0 !
$PAR  G(BCT_A5,IN),,                    +GHSERIN
$            +5040.87-3.33969*T;                                 3800 N 99Ans1 !
$PAR  G(RHOMBOHEDRAL_A7,IN),,           +GHSERIN+4184;           3800 N 88Che0 !
 PAR  G(LIQUID,IN),,                    +GLIQIN;                 3800 N 91Din !
$
 PAR  G(INPD_B2,IN:VA),,                +GBCCIN+10000-T;         3800 N 02Jia !
$
 FUNCTION GHSERIN   298.15  -6978.89+92.338115*T-21.8386*T*LN(T)
       -0.00572566*T**2-2.120321E-06*T**3-22906*T**(-1);
       429.75  Y  -7033.516+124.476588*T-27.4562*T*LN(T)
       +5.4607E-04*T**2-8.367E-08*T**3-211708*T**(-1)+3.53116E+22*T**(-9);
      3800.00  N !
 FUNCTION GLIQIN    298.15  +3282.092-7.63686*T+GHSERIN-5.59058E-20*T**7;
       429.75  Y  +3283.706-7.640804*T+GHSERIN-3.53116E+22*T**(-9);
      3800.00  N !
 FUNCTION GBCCIN    298.15  +GHSERIN+800-0.8*T;                        6000 N !
$ ------------------------------------------------------------------------------
$ Pd
$
$ RHOMBOHEDRAL_A7 added in unary 5.0
$
 PAR  G(FCC_A1,PD:VA),,                 +GHSERPD;                4000 N 91Din !
 PAR  G(BCC_A2,PD:VA),,                 +GHSERPD+10500-1.8*T;    4000 N 91Din !
 PAR  G(HCP_A3,PD:VA),,                 +GHSERPD+2000+0.1*T;     4000 N 91Din !
$PAR  G(RHOMBOHEDRAL_A7,PD),,           +GHSERPD+4000;           4000 N 06Vre !
 PAR  G(LIQUID,PD),,                    +GLIQPD;                 4000 N 91Din !
$
 PAR  G(INPD_B2,PD:PD),,                +2*GBCCPD;               4000 N 02Jia !
 PAR  G(INPD_B2,PD:VA),,                +2*GBCCPD+GBCCIN
             -2*GB2INPD+10000-T;                                 4000 N 02Jia !
$
 FUNCTION GHSERPD   298.15  -10204.027+176.076315*T-32.211*T*LN(T)
       +0.007120975*T**2-1.919875E-06*T**3+168687*T**(-1);
       900.00  Y  +917.062+49.659892*T-13.5708*T*LN(T)
       -0.00717522*T**2+1.91115E-07*T**3-1112465*T**(-1);
      1828.00  Y  -67161.018+370.102147*T-54.2067086*T*LN(T)
       +0.002091396*T**2-6.2811E-08*T**3+18683526*T**(-1);
      4000.00  N !
 FUNCTION GLIQPD    298.15  +11506.758-5.112162*T+GHSERPD;
       600.00  Y  +23405.778-116.918419*T+10.8922031*T*LN(T)
       -0.027266568*T**2+2.430675E-06*T**3-1853674*T**(-1);
      1828.00  Y  -12373.637+251.416903*T-41.17*T*LN(T);
      4000.00  N !
 FUNCTION GBCCPD    298.15  +GHSERPD+10500-1.8*T;                      6000 N !
$ ------------------------------------------------------------------------------
$ Binary system
$
$ From C. Jiang and Z.-K. Liu 2002 (Included in LB Vol. 5)
$
$ C. Jiang, Z.-K. Liu, Metall. Mater. Trans. A, 33A, 3597-3603(2002).
$
$ Checked against LB and paper. Checked at 6000 K.
$
$ There is some shift in invariant equilibria involving INPD2_C37 (alpha)
$ because of a shift in stoichiometry from In0.333Pd0.667 to InPd2.
$
$ There is an inverse miscibility gap with a minimum at 3139 K and x(Pd)=0.84.
$ INPD_B2 becomes stable again above 4504 K and for pure Pd above 5174 K.
$
 PAR  L(LIQUID,IN,PD;0),,               -221079+72.484*T;,,           N 02Jia !
 PAR  L(LIQUID,IN,PD;1),,               +105789-42.023*T;,,           N 02Jia !
 PAR  L(LIQUID,IN,PD;2),,               -10272+9.982*T;,,             N 02Jia !
$
 PAR  L(FCC_A1,IN,PD:VA;0),,            -209569+64.241*T;,,           N 02Jia !
 PAR  L(FCC_A1,IN,PD:VA;1),,            +108049-44.206*T;,,           N 02Jia !
$
 PAR  G(IN7PD3_D8F,IN:PD),,             +GIN7PD3;,,                   N 02Jia !
 PAR  G(IN3PD2_D513,IN:PD),,            +5*GIN3PD2;,,                 N 02Jia !
$
 PAR  G(INPD_B2,IN:PD),,                +2*GB2INPD;,,                 N 02Jia !
 PAR  G(INPD_B2,IN,PD:PD;0),,           -159946+45.924*T;,,           N 02Jia !
 PAR  G(INPD_B2,IN,PD:PD;1),,           +24156;,,                     N 02Jia !
 PAR  G(INPD_B2,IN,PD:VA;0),,           -159946+45.924*T;,,           N 02Jia !
 PAR  G(INPD_B2,IN,PD:VA;1),,           +24156;,,                     N 02Jia !
 PAR  G(INPD_B2,IN:PD,VA;0),,           -3836;,,                      N 02Jia !
 PAR  G(INPD_B2,PD:PD,VA;0),,           -3836;,,                      N 02Jia !
$
 PAR  G(IN3PD5,IN:PD),,                 +8*GIN3PD5;,,                 N 02Jia !
 PAR  G(INPD2_C37,IN:PD),,              +3*GINPD2A;,,                 N 02Jia !
 PAR  G(INPD2_BETA,IN:PD),,             +0.34*GHSERIN+0.66*GHSERPD
             -58730+13.885*T;,,                                       N 02Jia !
 PAR  G(INPD3_D022,IN:PD),,             +GHSERIN+3*GHSERPD
             -216848+57.28*T;,,                                       N 02Jia !
 PAR  G(INPD3_L10,IN:PD),,              +0.26*GHSERIN+0.74*GHSERPD
             -52801+12.796*T;,,                                       N 02Jia !
$
$ Metastable
$
 PAR  L(BCC_A2,IN,PD:VA;0),,            -209569+64.241*T;,,           N Same !
 PAR  L(BCC_A2,IN,PD:VA;1),,            +108049-44.206*T;,,           N Same !
$
 PAR  L(HCP_A3,IN,PD:VA;0),,            -209569+64.241*T;,,           N Same !
 PAR  L(HCP_A3,IN,PD:VA;1),,            +108049-44.206*T;,,           N Same !
$
 FUNCTION GIN7PD3   298.15  -48676+126.534*T-25.3376*T*LN(T);          6000 N !
 FUNCTION GIN3PD2   298.15  -63165+109.678*T-21.1993*T*LN(T)
       -0.00436412*T**2;
      6000.00  N !
 FUNCTION GB2INPD   298.15  -70918+116.068*T-21.968*T*LN(T)
       -0.00304425*T**2;
      6000.00  N !
 FUNCTION GIN3PD5   298.15  -67420+118.289*T-22.1055*T*LN(T)
       -0.00328628*T**2;
      6000.00  N !
 FUNCTION GINPD2A   298.15  -65890+121.07*T-22.5322*T*LN(T)
       -0.00260306*T**2;
      6000.00  N !
$ ------------------------------------------------------------------------------
$
 ASSESSED_SYSTEM
  IN-PD(TDB -* +LIQUID +FCC_A1 +TETRA_A6 +INPD_B2 +IN7PD3 +IN3PD2 +IN3PD5
  +INPD2_BETA +INPD2_C37 +INPD3_L10 +INPD3_D022 ;P3 *) !
$
$
 LIST-OF-REFERENCE
 NUMBER  SOURCE
  Null   'Unknown source'
  Same   'Same or similar interaction as in the corresponding stable phase'
  COST   'COST 507 database'
  88Che0 'P.-Y Chevalier, Calphad, 12, 383-92(1988)
          SGTE unary database V.4.1, 1999; In'
  91Din  'A.T. Dinsdale, Calphad, 15, 317-425(1991).'
  92Ans  'I. Ansara, J.-Ph. Nabot, Calphad, 16, 13-18(1992),
          SGTE unary database V.5.0, 2009; In'
  98Boa  'D. Boa, I. Ansara, Thermochim. Acta, 314, 79-86(1998),
          SGTE unary database V.4.1, 1999; In, Pb'
  99Ans1 'I. Ansara, S.G. Fries, H.L. Lukas, unpublished, 1999,
          SGTE unary database V.5.0, 2009; In, Sn'
  02Jia  'C. Jiang, Z.-K. Liu,
          Metall. Mater. Trans. A, 33A, 3597-3603(2002); In-Pd'
  06Vre  'J. Vrestal, J. Pinkas, A. Watson, A. Scott, J. Houserova, A. Kroupa,
          Calphad, 30, 14-17(2006), SGTE unary database V.5.0, 2009; Pd'
!
