$
$ Database for Pt-Ru from P.J. Spencer 1998 (included in LB Vol. 1)
$
$ P.J. Spencer, unpublished work, 1998.
$
$ Dataset created 2016.03.20 by Bengt Hallstedt.
$ 2021.02.05: Modified for use with GES6.
$
$ ------------------------------------------------------------------------------
 TEMP-LIM 298.15 6000.00 !
$
$ELEMENT NAME  REF. STATE               ATOMIC MASS H298-H0    S298    !
$
 ELEMENT VA   VACUUM                      0.0          0.0      0.0    ! 
 ELEMENT PT   FCC_A1                    195.08      5723.712   41.6308 !
 ELEMENT RU   HCP_A3                    101.07      4602.4     28.6144 ! 
$ ------------------------------------------------------------------------------
$ Phase definitions
$
 PHASE LIQUID:L % 1 1 !
 CONST LIQUID:L : PT RU : !
$
$ Fcc (cF4, Fm-3m) and MeX (cF8, Fm-3m)
$
 PHASE FCC_A1 %A 2 1 1 !
 CONST FCC_A1 : PT% RU : VA : !
$
$ Bcc (cI2, Im-3m)
$
 PHASE BCC_A2 %B 2 1 3 !
 CONST BCC_A2 : PT RU : VA : !
$
$ Hcp (hP2, P6_3/mmc) and Me2X (NiAs-type, hP4, P6_3/mmc, B8_1)
$
 PHASE HCP_A3 %A 2 1 0.5 !
 CONST HCP_A3 : PT RU% : VA : !
$ ------------------------------------------------------------------------------
$ Defaults
$
 DEFINE-SYSTEM-DEFAULT ELEMENT 2 !
 DEFAULT-COM DEFINE_SYSTEM_ELEMENT VA !
 TYPE-DEF % SEQ * !
 TYPE-DEF A GES AMEND_PHASE_DESCRIPTION @ MAGNETIC -3 0.28 !
 TYPE-DEF B GES AMEND_PHASE_DESCRIPTION @ MAGNETIC -1 0.4 !
 FUNCTION ZERO      298.15  0;                                         6000 N !
 FUNCTION UN_ASS    298.15  0;                                         6000 N !
 FUNCTION R         298.15  +8.31451;                                  6000 N !
$ ------------------------------------------------------------------------------
$ Element data
$ ------------------------------------------------------------------------------
$ Pt
$
 PAR  G(FCC_A1,PT:VA),,                 +GHSERPT;                4000 N 91Din !
 PAR  G(BCC_A2,PT:VA),,                 +GHSERPT+15000-2.4*T;    4000 N 91Din !
 PAR  G(HCP_A3,PT:VA),,                 +GHSERPT+2500+0.1*T;     4000 N 91Din !
 PAR  G(LIQUID,PT),,                    +GLIQPT;                 4000 N 91Din !
$
 FUNCTION GHSERPT   298.15  -7595.631+124.388275*T-24.5526*T*LN(T)
       -0.00248297*T**2-2.0138E-08*T**3+7974*T**(-1);
      1300.00  Y  -9253.174+161.529615*T-30.2527*T*LN(T)
       +0.002321665*T**2-6.56946E-07*T**3-272106*T**(-1);
      2041.50  Y  -222048.216+1019.35892*T-136.192996*T*LN(T)
       +0.020454938*T**2-7.59259E-07*T**3+71539020*T**(-1);
      4000.00  N !
 FUNCTION GLIQPT    298.15  +20114.016-9.275183*T+GHSERPT;
       600.00  Y  +19023.491+32.94182*T-12.3403769*T*LN(T)
       -0.011551507*T**2+9.31516E-07*T**3-601426*T**(-1);
      2041.50  Y  +1404.468+205.858962*T-36.5*T*LN(T);
      4000.00  N !
 FUNCTION GBCCPT    298.15  +GHSERPT+15000-2.4*T;                      6000 N !
$ ------------------------------------------------------------------------------
$ Ru
$
$ BCC_A2 revised in unary 4.4
$
 PAR  G(HCP_A3,RU:VA),,                 +GHSERRU;                4500 N 91Din !
 PAR  G(FCC_A1,RU:VA),,                 +GHSERRU+12500-2.4*T;    4500 N 91Din !
 PAR  G(BCC_A2,RU:VA),,                 +GHSERRU+21500-5.05*T;   4500 N 01SGUN !
$PAR  G(BCC_A2,RU:VA),,                 +GHSERRU+26500-6.2*T;    4500 N 91Din !
 PAR  G(LIQUID,RU),,                    +GLIQRU;                 4500 N 91Din !
$
 FUNCTION GHSERRU   298.15  -7561.873+127.866233*T-22.9143287*T*LN(T)
       -0.004062566*T**2+1.7641E-07*T**3+56377*T**(-1);
      1500.00  Y  -59448.103+489.516214*T-72.3241219*T*LN(T)
       +0.018726245*T**2-1.952433E-06*T**3+11063885*T**(-1);
      2607.00  Y  -38588773+168610.517*T-21329.705*T*LN(T)
       +5.221639*T**2-2.40245985E-04*T**3+1.30829926E+10*T**(-1);
      2740.00  Y  -55768.304+364.482314*T-51.8816*T*LN(T);
      4500.00  N !
 FUNCTION GLIQRU    298.15  +27480.616-8.398748*T+GHSERRU;
       800.00  Y  +50827.232-179.818561*T+19.539341*T*LN(T)
       -0.026524167*T**2+1.667839E-06*T**3-3861125*T**(-1);
      2607.00  Y  -17161.807+349.673561*T-51.8816*T*LN(T);
      4500.00  N !
$ ------------------------------------------------------------------------------
$ Binary system
$
$ From from P.J. Spencer 1998 (included in LB Vol. 1)
$
$ P.J. Spencer, unpublished work, 1998.
$
$ Checked against LB. Checked at 6000 K.
$
 PAR  L(LIQUID,PT,RU;0),,               -8000;,,                      N 98Spe !
$
 PAR  L(FCC_A1,PT,RU:VA;0),,            -17249.639-2.745999*T;,,      N 98Spe !
 PAR  L(FCC_A1,PT,RU:VA;1),,            +13184.597;,,                 N 98Spe !
$
 PAR  L(HCP_A3,PT,RU:VA;0),,            +8629.8149-7.889606*T;,,      N 98Spe !
 PAR  L(HCP_A3,PT,RU:VA;1),,            -5283.9355;,,                 N 98Spe !
$
$ Metastable
$
 PAR  L(BCC_A2,PT,RU:VA;0),,            -17249.639-2.745999*T;,,      N Same !
 PAR  L(BCC_A2,PT,RU:VA;1),,            +13184.597;,,                 N Same !
$ ------------------------------------------------------------------------------
$
 ASSESSED_SYSTEM
  PT-RU(TDB -* +LIQUID +FCC_A1 +HCP_A3 ;P3 TMM:300/3000 STP:.1/2500) !
$
$
 LIST-OF-REFERENCE
 NUMBER  SOURCE
  Null   'Unknown source'
  Same   'Same or similar interaction as in the corresponding stable phase'
  COST   'COST 507 database'
  91Din  'A.T. Dinsdale, Calphad, 15, 317-425(1991).'
  98Spe  'P.J. Spencer, unpublished work, 1998; Pt-Ru'
  01SGUN 'SGTE unary database V.4.4, 2001.'
!
