$
$ Database for Yb-O from M. Zinkevich 2007.
$
$ M. Zinkevich, Prog. Mater. Sci., 52, 597-647(2007).
$
$ Dataset created 2024.10.15 by Bengt Hallstedt.
$
$ This dataset contains the Yb2O3 data from 07Zin. The O solubility in solid
$ Yb can be expected to be low. The liquid interaction was set similar to
$ Pr-O from 23Nak.
$
$ Gas phase (except O2) is not included.
$
$ ------------------------------------------------------------------------------
 TEMP-LIM 298.15 6000.00 !
$
$ELEMENT NAME  REF. STATE               ATOMIC MASS H298-H0    S298    !
$
 ELEMENT /-   ELECTRON_GAS                0.0          0.0      0.0    ! 
 ELEMENT VA   VACUUM                      0.0          0.0      0.0    ! 
 ELEMENT O    1/2_MOLE_O2(G)             15.999     4341.0    102.52   ! 
 ELEMENT YB   FCC_A1                    173.04      6711.136   59.8312 ! 
$ ------------------------------------------------------------------------------
$ Species
$
 SPECIE  O-2                                O/-2 !
 SPECIE  O2                                 O2 !
 SPECIE  YB+3                               YB/+3 !
$ ------------------------------------------------------------------------------
$ Phase definitions
$
 PHASE ION:Y % 2 1 1 !
 CONST ION:Y : YB+3 : O-2 VA : !
$
$ Fcc (cF4, Fm-3m) and MeX (cF8, Fm-3m)
$
 PHASE FCC_A1 %A 2 1 1 !
 CONST FCC_A1 : YB : VA : !
$
$ Bcc (cI2, Im-3m)
$
 PHASE BCC_A2 %B 2 1 3 !
 CONST BCC_A2 : YB : VA : !
$
$ Hcp (hP2, P6_3/mmc) and Me2X (NiAs-type, hP4, P6_3/mmc, B8_1)
$
 PHASE HCP_A3 %A 2 1 0.5 !
 CONST HCP_A3 : YB : VA : !
$
$ Prototype Mn2O3 (cI80, Ia-3)
$
 PHASE C_R2O3_D53:I % 2 2 3 !
 CONST C_R2O3_D53:I : YB+3 : O-2 : !
$
$ Prototype H-La2O3 (hP10, P6_3/mmc)
$
 PHASE H_R2O3:I % 2 2 3 !
 CONST H_R2O3:I : YB+3 : O-2 : !
$
 PHASE O2GAS % 1 1 !
 CONST O2GAS : O2 : !
$ ------------------------------------------------------------------------------
$ Defaults
$
 DEFINE-SYSTEM-DEFAULT ELEMENT 2 !
 DEFAULT-COM DEFINE_SYSTEM_ELEMENT VA /- !
 TYPE-DEF % SEQ * !
 TYPE-DEF A GES AMEND_PHASE_DESCRIPTION @ MAGNETIC -3 0.28 !
 TYPE-DEF B GES AMEND_PHASE_DESCRIPTION @ MAGNETIC -1 0.4 !
 FUNCTION ZERO      298.15  0;                                         6000 N !
 FUNCTION UN_ASS    298.15  0;                                         6000 N !
 FUNCTION R         298.15  +8.31451;                                  6000 N !
 FUNCTION RTLNP     298.15  +8.31451*T*LN(1E-05*P);                    6000 N !
$ ------------------------------------------------------------------------------
$ Element data
$ ------------------------------------------------------------------------------
$ O
$
$ GHSEROO modified in unary 3.0
$
 PAR  G(O2GAS,O2),,                     +2*GHSEROO+RTLNP;,,           N 91Din !
$
$ 1/2 O2(g)
 FUNCTION GHSEROO   298.15  -3480.87-25.503038*T-11.1355*T*LN(T)
       -0.005098875*T**2+6.61845833E-07*T**3-38365*T**(-1);
      1000.00  Y  -6568.763+12.659879*T-16.8138*T*LN(T)
       -5.957975E-04*T**2+6.781E-09*T**3+262905*T**(-1);
      3300.00  Y  -13986.728+31.259624*T-18.9536*T*LN(T)
       -4.25243E-04*T**2+1.0721E-08*T**3+4383200*T**(-1);
      6000.00  N !
$ ------------------------------------------------------------------------------
$ Yb
$
$ HCP_A3 added in unary 5.0
$
 PAR  G(FCC_A1,YB:VA),,                 +GHSERYB;                2000 N 91Din !
 PAR  G(BCC_A2,YB:VA),,                 +GBCCYB;                 2000 N 91Din !
 PAR  G(HCP_A3,YB:VA),,                 +GHSERYB+5000;           2000 N 06Guo !
$PAR  G(LIQUID,YB),,                    +GLIQYB;                 2000 N 91Din !
$
 PAR  G(ION,YB+3:VA),,                  +GLIQYB;                 2000 N 91Din !
$
 FUNCTION GHSERYB   298.15  -9370.941+189.327664*T-40.0791*T*LN(T)
       +0.04227115*T**2-2.2242E-05*T**3;
       553.00  Y  -8192.154+121.065655*T-26.7591*T*LN(T)-0.00256065*T**2;
      1033.00  Y  +16034.89-89.478241*T+2.7623966*T*LN(T)
       -0.017961331*T**2+1.421719E-06*T**3-3631462*T**(-1);
      2000.00  N !
 FUNCTION GBCCYB    298.15  -965.99-21.293677*T-3.8534432*T*LN(T)
       -0.030009694*T**2+4.743871E-06*T**3-334650*T**(-1);
      1033.00  Y  -13368.113+188.313864*T-36.1079*T*LN(T);
      1097.00  Y  -3911.847+113.174165*T-25.7402233*T*LN(T)
       -0.004743348*T**2+3.63044E-07*T**3-1553668*T**(-1);
      2000.00  N !
 FUNCTION GLIQYB    298.15  +7030.788-40.615571*T-1.8061816*T*LN(T)
       -0.03250938*T**2+5.136665E-06*T**3-370554*T**(-1);
      1033.00  Y  -6445.835+186.690398*T-36.7774*T*LN(T);
      2000.00  N !
 FUNCTION GHCPYB    298.15  +GHSERYB+5000;                             2000 N !
$ ------------------------------------------------------------------------------
$ Binary system
$
$ M. Zinkevich, Prog. Mater. Sci., 52, 597-647(2007).
$
$ Checked against paper. Checked at 6000 K.
$
$ This dataset contains the Yb2O3 data from 07Zin. The O solubility in solid
$ Yb can be expected to be low. The liquid interaction was set similar to
$ Pr-O from 23Nak.
$
$ Gas phase (except O2) is not included.
$
 PAR  G(ION,YB+3:O-2),,                 +GYB2O3L;,,                   N 07Zin !
 PAR  L(ION,YB+3:O-2,VA;0),,            +50000;,,                     N Same !
 PAR  L(ION,YB+3:O-2,VA;1),,            -25000;,,                     N Same !
$
 PAR  G(C_R2O3_D53,YB+3:O-2),,          +GYB2O3C;,,                   N 07Zin !
 PAR  G(H_R2O3,YB+3:O-2),,              +GYB2O3H;,,                   N 07Zin !
$
 FUNCTION GYB2O3C   298.15  -1853511+702.7502*T-123.821*T*LN(T)
       -0.004567*T**2+5.0E+07*T**(-2);
      6000.00  N !
 FUNCTION GYB2O3A   298.15  +GYB2O3C+25165-5.293*T;                    6000 N !
 FUNCTION GYB2O3B   298.15  +GYB2O3C+15345-3.725*T;                    6000 N !
 FUNCTION GYB2O3H   298.15  +GYB2O3C+25612-9.654*T;                    6000 N !
 FUNCTION GYB2O3X   298.15  +GYB2O3C+38415-14.223*T;                   6000 N !
 FUNCTION GYB2O3L   298.15  +GYB2O3C+107451-39.875*T;                  6000 N !
$ ------------------------------------------------------------------------------
$
$
 LIST-OF-REFERENCE
 NUMBER  SOURCE
  Null   'Unknown source'
  Same   'Similar interaction as with other R elements'
  COST   'COST 507 database'
  91Din  'A.T. Dinsdale, Calphad, 15, 317-425(1991).'
  06Guo  'C. Guo, Z. Du, J. Alloys Compd., 422, 102-8(2006),
          SGTE unary database V.5.0, 2009; Yb'
  07Zin  'M. Zinkevich, Prog. Mater. Sci., 52, 597-647(2007); Yb-O'
!
