$
$ Database for Ga-Te from Y. Liu et al. 2020.
$
$ Y. Liu, Z. Dou, M. Enoki, Y. Oyama, H. Ohtani, Calphad, 71, 102206(2020).
$
$ Dataset created 2022.06.11 by Bengt Hallstedt.
$
$ ------------------------------------------------------------------------------
 TEMP-LIM 298.15 6000.00 !
$
$ELEMENT NAME  REF. STATE               ATOMIC MASS H298-H0    S298    !
$
 ELEMENT /-   ELECTRON_GAS                0.0          0.0      0.0    ! 
 ELEMENT VA   VACUUM                      0.0          0.0      0.0    ! 
 ELEMENT GA   ORTHORHOMBIC_GA            69.72      5572.0     40.7271 ! 
 ELEMENT TE   HEXAGONAL_A8              127.60      6080.      49.221  ! 
$ ------------------------------------------------------------------------------
$ Species
$
 SPECIE  GA+3                               GA1/+3 !
 SPECIE  TE-2                               TE1/-2 !
$ ------------------------------------------------------------------------------
$ Phase definitions
$
 PHASE ION:Y % 2 1 1 !
 CONST ION:Y : GA+3 : TE-2 VA TE : !
$
 PHASE LIQUID:L % 1 1 !
 CONST LIQUID:L : GA TE : !
$
$ Prototype gamma-Se (hP3, P3_121)
$ The phase is named HEXAGONAL_A8 in the SGTE unary database and
$ TRIGONAL_A8 in LB.
$
 PHASE HEXAGONAL_A8 % 1 1 !
 CONST HEXAGONAL_A8 : TE : !
$
$ alpha-Ga (oC8, Cmca)
$
 PHASE ORTHORHOMBIC_A11 % 1 1 !
 CONST ORTHORHOMBIC_A11 : GA : !
$
$ Prototype SiAs (mC24, C2/m)
$
 PHASE GATE % 2 1 1 !
 CONST GATE : GA : TE : !
$
$ Unknown structure
$
 PHASE GA3TE4 % 2 3 4 !
 CONST GA3TE4 : GA : TE : !
$
$ Prototype ZnS (cF8, F-43m)
$
 PHASE GA2TE3_B3 % 2 2 3 !
 CONST GA2TE3_B3 : GA% VA : TE% VA : !
$
$ Prototype Ga2Te5 (tI14, I4/m)
$
 PHASE GA2TE5 % 2 2 5 !
 CONST GA2TE5 : GA : TE : !
$ ------------------------------------------------------------------------------
$ Defaults
$
 DEFINE-SYSTEM-DEFAULT ELEMENT 2 !
 DEFAULT-COM DEFINE_SYSTEM_ELEMENT VA /- !
 DEFAULT-COM REJECT_PHASE LIQUID !
 TYPE-DEF % SEQ * !
 TYPE-DEF A GES AMEND_PHASE_DESCRIPTION @ MAGNETIC -3 0.28 !
 TYPE-DEF B GES AMEND_PHASE_DESCRIPTION @ MAGNETIC -1 0.4 !
 FUNCTION ZERO      298.15  0;                                         6000 N !
 FUNCTION UN_ASS    298.15  0;                                         6000 N !
 FUNCTION R         298.15  +8.31451;                                  6000 N !
$ ------------------------------------------------------------------------------
$ Element data
$ ------------------------------------------------------------------------------
$ Ga
$
$ DIAMOND_A4 added in unary 5.0
$
$ Changed name from ORTHORHOMBIC_GA to ORTHORHOMBIC_A11
$
 PAR  G(ORTHORHOMBIC_A11,GA)    200.00  +GHSERGA;                4000 N 91Din !
$PAR  G(FCC_A1,GA:VA)           200.00  +GHSERGA+3800-10.2*T;    4000 N 91Din !
$PAR  G(BCC_A2,GA:VA)           200.00  +GHSERGA+4500-11.7*T;    4000 N 91Din !
$PAR  G(HCP_A3,GA:VA)           200.00  +GHSERGA+4500-9.5*T;     4000 N 91Din !
$PAR  G(DIAMOND_A4,GA)          200.00  +GHSERGA+20900-2*T;      4000 N 09SGUN !
$PAR  G(BCT_A5,GA)              200.00  +GHSERGA+3846-9.8*T;     4000 N 91Din !
$PAR  G(TETRAGONAL_A6,GA)       200.00  +GHSERGA+3500-10*T;      4000 N 91Din !
 PAR  G(LIQUID,GA)              200.00  +GLIQGA;                 4000 N 91Din !
$
 PAR  G(ION,GA+3:VA)            200.00  +GLIQGA;                 4000 N 91Din !
 PAR  G(GA2TE3_B3,GA:VA),,              +2*GHSERGA+332398+230*T;,,    N 20Liu !
 PAR  L(GA2TE3_B3,GA,VA:VA;0),,         -88127;,,                     N 20Liu !
 PAR  L(GA2TE3_B3,GA,VA:VA;1),,         -23907;,,                     N 20Liu !
$
 FUNCTION GHSERGA   200.00  -21312.331+585.263691*T-108.228783*T*LN(T)
       +0.227155636*T**2-1.18575257E-04*T**3+439954*T**(-1);
       302.91  Y  -7055.643+132.73019*T-26.0692906*T*LN(T)
       +1.506E-04*T**2-4.0173E-08*T**3-118332*T**(-1)+1.64547E+23*T**(-9);
      4000.00  N !
 FUNCTION GLIQGA    200.00  +5491.298-18.073995*T+GHSERGA-7.0171E-17*T**7;
       302.91  Y  +5666.455-18.681147*T+GHSERGA-1.64547E+23*T**(-9);
      4000.00  N !
$ ------------------------------------------------------------------------------
$ Te
$
$ HEXAGONAL_A8 and LIQUID revised in unary 3.0
$
$ RHOMBOHEDRAL_A7 from 89Gho not included in unary
$
 PAR  G(HEXAGONAL_A8,TE),,              +GHSERTE;                1600 N 95Dav !
$PAR  G(RHOMBOHEDRAL_A7,TE),,           +GHSERTE+15*T;           1600 N 89Gho !
 PAR  G(LIQUID,TE),,                    +GLIQTE;                 1600 N 95Dav !
$
 PAR  G(ION,TE),,                       +GLIQTE;                 1600 N 95Dav !
 PAR  G(GA2TE3_B3,VA:TE),,              +3*GHSERTE+200000;,,          N 20Liu !
 PAR  L(GA2TE3_B3,VA:TE,VA;0),,         -440000;,,                    N 20Liu !
$
 FUNCTION GHSERTE   298.15  -10544.679+183.372894*T-35.6687*T*LN(T)
       +0.01583435*T**2-5.240417E-06*T**3+155015*T**(-1);
       722.66  Y  +9160.595-129.265373*T+13.004*T*LN(T)
       -0.0362361*T**2+5.006367E-06*T**3-1286810*T**(-1);
      1150.00  Y  -12781.349+174.901226*T-32.5596*T*LN(T);
      1600.00  N !
 FUNCTION GLIQTE    298.15  -17554.731+685.877639*T-126.318*T*LN(T)
       +0.2219435*T**2-9.42075E-05*T**3+827930*T**(-1);
       626.49  Y  -3165763.48+46756.357*T-7196.41*T*LN(T)
       +7.09775*T**2-0.00130692833*T**3+2.58051E+08*T**(-1);
       722.66  Y  +180326.959-1500.57909*T+202.743*T*LN(T)
       -0.142016*T**2+1.6129733E-05*T**3-24238450*T**(-1);
      1150.00  Y  +19110.036-26.1929273*T+GHSERTE;
      1600.00  N !
$ ------------------------------------------------------------------------------
$ Va
$
 PAR  G(GA2TE3_B3,VA:VA),,              +500000;,,                    N 20Liu !
$ ------------------------------------------------------------------------------
$ Binary system
$
$ Y. Liu, Z. Dou, M. Enoki, Y. Oyama, H. Ohtani, Calphad, 71, 102206(2020).
$
$ Checked against paper and author's tdb. Checked at 6000 K.
$
 PAR  G(ION,GA+3:TE-2),,                +2*GLIQGA+3*GLIQTE
             -218176.616+96.087*T;,,                                  N 20Liu !
 PAR  L(ION,GA+3:TE-2,VA;0),,           +100007.121-94.785*T;,,       N 20Liu !
 PAR  L(ION,GA+3:TE-2,VA;1),,           -48002.626;,,                 N 20Liu !
 PAR  L(ION,GA+3:TE-2,TE;0),,           +21206.9545;,,                N 20Liu !
 PAR  L(ION,GA+3:TE-2,TE;1),,           -11382.6556;,,                N 20Liu !
$
 PAR  G(GATE,GA:TE),,                   +GHSERGA+GHSERTE
             -78535.9257+6.409*T;,,                                   N 20Liu !
 PAR  G(GA3TE4,GA:TE),,                 +3*GHSERGA+4*GHSERTE
             -283984.139+33.576685*T;,,                               N 20Liu !
$
 PAR  G(GA2TE3_B3,GA:TE),,              +2*GHSERGA+3*GHSERTE
             -188038.313+11.224*T;,,                                  N 20Liu !
 PAR  L(GA2TE3_B3,GA,VA:TE;0),,         -130000+20*T;,,               N 20Liu !
 PAR  L(GA2TE3_B3,GA:TE,VA;0),,         -440000;,,                    N 20Liu !
$
 PAR  G(GA2TE5,GA:TE),,                 +2*GHSERGA+5*GHSERTE
             -158571.655-32.302*T;,,                                  N 20Liu !
$ ------------------------------------------------------------------------------
$
 ASSESSED_SYSTEM
  GA-TE(TDB -* +ION +ORTHO_A11 +GATE +GA2TE3_B3 +GA2TE5 +GA3TE4 +HEXAGON_A8
  ;G5 C_S:ION/GA+3:VA MAJ:ION/GA+3:TE-2
  ;P3 TMM:200/1500 STP:.2/1050/1 STP:.1/1000/1) !
$
$
 LIST-OF-REFERENCE
 NUMBER  SOURCE
  Null   'Unknown source'
  Same   'Same or similar interaction as in the corresponding stable phase'
  REFLAV 'Laves phase convention: G(LAVES,X:X)=+3*GHSERXX+15000'
  COST   'COST 507 database, 1998'
  89Gho  'G. Ghosh, H.L. Lukas, L. Delaey,
          Z. Metallkd., 80, 731-36 (1989); Sb-Te'
  91Din  'A.T. Dinsdale, Calphad, 15, 317-425(1991).'
  95Dav  'A.V. Davydov, M.H. Rand, B.B. Argent, Calphad, 19, 375-87(1995),
          SGTE unary database V.3.0, 1996; Te'
  09SGUN 'SGTE unary database V.5.0, 2009.'
  20Liu  'Y. Liu, Z. Dou, M. Enoki, Y. Oyama, H. Ohtani,
          Calphad, 71, 102206(2020); Ga-Te'
!
