$
$ Database for Si-Ta from C. Vahlas et al. 1989
$
$ C. Vahlas, P.Y. Chevalier, E. Blanquet, Calphad, 13, 273-92(1989).
$
$ Dataset created 2012.06.17 by Bengt Hallstedt.
$ 2021.02.05: Modified for use with GES6.
$
$ Si not included in BCC_A2 in 89Vah.
$
$ Invariant equilibria are up to 34 K different, possibly because of
$ different unary data for Ta. The melting temperature of Ta is 3258 K instead
$ of the current 3290 K.
$
$ There is an inverse miscibility gap with a minimum at 2997 K and x(Ta)=0.24.
$ This is below the melting temperature of Ta.
$
$ ------------------------------------------------------------------------------
 TEMP-LIM 298.15 6000.00 !
$
$ELEMENT NAME  REF. STATE               ATOMIC MASS H298-H0    S298    !
$
 ELEMENT VA   VACUUM                      0.0          0.0      0.0    ! 
 ELEMENT SI   DIAMOND_A4                 28.0855    3217.      18.81   ! 
 ELEMENT TA   BCC_A2                    180.9479    5681.872   41.4718 ! 
$ ------------------------------------------------------------------------------
$ Phase definitions
$
 PHASE LIQUID:L % 1 1 !
 CONST LIQUID:L : SI TA : !
$
$ Fcc (cF4, Fm-3m) and MeX (cF8, Fm-3m)
$
 PHASE FCC_A1 %A 2 1 1 !
 CONST FCC_A1 : SI TA : VA : !
$
$ Bcc (cI2, Im-3m)
$
 PHASE BCC_A2 %B 2 1 3 !
 CONST BCC_A2 : SI TA% : VA : !
$
$ Hcp (hP2, P6_3/mmc) and Me2X (NiAs-type, hP4, P6_3/mmc, B8_1)
$
 PHASE HCP_A3 %A 2 1 0.5 !
 CONST HCP_A3 : SI TA : VA : !
$
$ Prototype C (cF8, Fd-3m)
$
 PHASE DIAMOND_A4 % 1 1 !
 CONST DIAMOND_A4 : SI : !
$
$ Prototype CrSi2 (hP9, P6_222)
$
 PHASE SI2TA_C40 % 2 2 1 !
 CONST SI2TA_C40 : SI : TA : !
$
$ Prototype Cr5B3 (tI32, I4/mcm, SB D8_l) alpha-Si3Ta5
$ and prototype Si3W5 (tI32, I4/mcm, SB D8_m) beta-Si3Ta5
$
 PHASE SI3TA5 % 2 3 5 !
 CONST SI3TA5 : SI : TA : !
$
$ Prototype Al2Cu (tI12, I4/mcm)
$
 PHASE SITA2_C16 % 2 1 2 !
 CONST SITA2_C16 : SI : TA : !
$
$ Prototype Ti3P (tP32, P4_2/n)
$
 PHASE SITA3 % 2 1 3 !
 CONST SITA3 : SI : TA : !
$ ------------------------------------------------------------------------------
$ Defaults
$
 DEFINE-SYSTEM-DEFAULT ELEMENT 2 !
 DEFAULT-COM DEFINE_SYSTEM_ELEMENT VA !
 TYPE-DEF % SEQ * !
 TYPE-DEF A GES AMEND_PHASE_DESCRIPTION @ MAGNETIC -3 0.28 !
 TYPE-DEF B GES AMEND_PHASE_DESCRIPTION @ MAGNETIC -1 0.4 !
 FUNCTION ZERO      298.15  0;                                         6000 N !
 FUNCTION UN_ASS    298.15  0;                                         6000 N !
 FUNCTION R         298.15  +8.31451;                                  6000 N !
$ ------------------------------------------------------------------------------
$ Element data
$ ------------------------------------------------------------------------------
$ Si
$
 PAR  G(DIAMOND_A4,SI),,                +GHSERSI;                3600 N 91Din !
 PAR  G(FCC_A1,SI:VA),,                 +GHSERSI+51000-21.8*T;   3600 N 91Din !
 PAR  G(BCC_A2,SI:VA),,                 +GHSERSI+47000-22.5*T;   3600 N 91Din !
 PAR  G(HCP_A3,SI:VA),,                 +GHSERSI+49200-20.8*T;   3600 N 91Din !
$PAR  G(CBCC_A12,SI:VA),,               +GHSERSI+50208-20.377*T; 3600 N 91Din !
$PAR  G(CUB_A13,SI:VA),,                +GHSERSI+47279-20.377*T; 3600 N 91Din !
 PAR  G(LIQUID,SI),,                    +GLIQSI;                 3600 N 91Din !
$
 FUNCTION GHSERSI   298.15  -8162.609+137.236859*T-22.8317533*T*LN(T)
       -0.001912904*T**2-3.552E-09*T**3+176667*T**(-1);
      1687.00  Y  -9457.642+167.281367*T-27.196*T*LN(T)-4.20369E+30*T**(-9);
      3600.00  N !
 FUNCTION GLIQSI    298.15  +50696.36-30.099439*T+GHSERSI+2.09307E-21*T**7;
      1687.00  Y  +40370.523+137.722298*T-27.196*T*LN(T);
      3600.00  N !
 FUNCTION GBCCSI    298.15  +GHSERSI+47000-22.5*T;               3600 N 91Din !
$ ------------------------------------------------------------------------------
$ Ta
$
 PAR  G(BCC_A2,TA:VA),,                 +GHSERTA;,,                   N 91Din !
 PAR  G(FCC_A1,TA:VA),,                 +GHSERTA+16000+1.7*T;,,       N 91Din !
 PAR  G(HCP_A3,TA:VA),,                 +GHSERTA+12000+2.4*T;,,       N 91Din !
 PAR  G(LIQUID,TA),,                    +GLIQTA;,,                    N 91Din !
$
 FUNCTION GHSERTA   298.15  -7285.889+119.139857*T-23.7592624*T*LN(T)
       -0.002623033*T**2+1.70109E-07*T**3-3293*T**(-1);
      1300.00  Y  -22389.955+243.88676*T-41.137088*T*LN(T)
       +0.006167572*T**2-6.55136E-07*T**3+2429586*T**(-1);
      2500.00  Y  +229382.886-722.59722*T+78.5244752*T*LN(T)
       -0.017983376*T**2+1.95033E-07*T**3-93813648*T**(-1);
      3290.00  Y  -1042384.01+2985.49125*T-362.159132*T*LN(T)
       +0.043117795*T**2-1.055148E-06*T**3+5.54714342E+08*T**(-1);
      6000.00  N !
 FUNCTION GLIQTA    298.15  +29160.975-7.578729*T+GHSERTA;
      1000.00  Y  +43884.339-61.981795*T+0.0279523*T*LN(T)
       -0.012330066*T**2+6.14599E-07*T**3-3523338*T**(-1);
      3290.00  Y  -6314.543+258.110873*T-41.84*T*LN(T);
      6000.00  N !
 FUNCTION GFCCTA    298.15  +GHSERTA+16000+1.7*T;                      6000 N !
$ ------------------------------------------------------------------------------
$ Binary system
$
$ C. Vahlas, P.Y. Chevalier, E. Blanquet, Calphad, 13, 273-92(1989).
$
$ Checked against paper. Checked at 6000 K.
$
$ Si not included in BCC_A2 in 89Vah.
$
$ Invariant equilibria are up to 34 K different, possibly because of
$ different unary data for Ta. The melting temperature of Ta is 3258 K instead
$ of the current 3290 K.
$
$ There is an inverse miscibility gap with a minimum at 2997 K and x(Ta)=0.24.
$ This is below the melting temperature of Ta.
$
 PAR  L(LIQUID,SI,TA;0),,               -256627.7+92.23583*T;,,       N 89Vah !
 PAR  L(LIQUID,SI,TA;1),,               +31092.5;,,                   N 89Vah !
$
 PAR  L(BCC_A2,SI,TA:VA;0),,            +80*T;,,                      N Null !
$
 PAR  G(SI2TA_C40,SI:TA),,              +2*GHSERSI+GHSERTA
             -119100+15.2532*T;,,                                     N 89Vah !
 PAR  G(SI3TA5,SI:TA),,                 +3*GHSERSI+5*GHSERTA
             -334400+44.78936*T;,,                                    N 89Vah !
 PAR  G(SITA2_C16,SI:TA),,              +GHSERSI+2*GHSERTA
             -125400+19.1733*T;,,                                     N 89Vah !
 PAR  G(SITA3,SI:TA),,                  +GHSERSI+3*GHSERTA
             -154800+29.32548*T;,,                                    N 89Vah !
$
$ Metastable
$
 PAR  L(FCC_A1,SI,TA:VA;0),,            +80*T;,,                      N Same !
 PAR  L(HCP_A3,SI,TA:VA;0),,            +80*T;,,                      N Same !
$ ------------------------------------------------------------------------------
$
 ASSESSED_SYSTEM
  SI-TA(TDB -* +LIQUID +BCC_A2 +SI2TA_C40 +SI3TA5 +SITA2_C16 +SITA3 +DIAMOND
  ;P3 TMM:500/3500 STP:.5/3000/-2) !
$
$
 LIST-OF-REFERENCE
 NUMBER  SOURCE
  Null   'Unknown source'
  Same   'Same or similar interaction as in the corresponding stable phase'
  89Vah  'C. Vahlas, P.Y. Chevalier, E. Blanquet,
          Calphad, 13, 273-92(1989); Si-Ta'
  91Din  'A.T. Dinsdale, Calphad, 15, 317-425(1991).'
!
