$
$ Database for Gd-Ge from H.L. Chen et al. 2008
$
$ H.-L. Chen, Y. Du, C.-Y. He, J. Alloys Compd., 462, 181-86(2008).
$
$ Dataset created 2009.09.26 by Bengt Hallstedt.
$ 2021.01.03: Modified for use with GES6.
$
$ The bcc and hcp (and fcc) phases should probably have negative interactions,
$ but there are no data.
$
$ ------------------------------------------------------------------------------
 TEMP-LIM 298.15 6000.00 !
$
$ELEMENT NAME  REF. STATE               ATOMIC MASS H298-H0    S298    !
$
 ELEMENT VA   VACUUM                      0.0          0.0      0.0    ! 
 ELEMENT GD   HCP_A3                    157.25      9087.648   68.0894 ! 
 ELEMENT GE   DIAMOND_A4                 72.59      4636.0     31.09   ! 
$ ------------------------------------------------------------------------------
$ Phase definitions
$
 PHASE LIQUID:L % 1 1 !
 CONST LIQUID:L : GD GE : !
$
$ Fcc (cF4, Fm-3m) and MeX (cF8, Fm-3m)
$
 PHASE FCC_A1 %A 2 1 1 !
 CONST FCC_A1 : GD GE : VA : !
$
$ Bcc (cI2, Im-3m)
$
 PHASE BCC_A2 %B 2 1 3 !
 CONST BCC_A2 : GD% GE : VA : !
$
$ Hcp (hP2, P6_3/mmc) and Me2X (NiAs-type, hP4, P6_3/mmc, B8_1)
$
 PHASE HCP_A3 %A 2 1 0.5 !
 CONST HCP_A3 : GD% GE : VA: !
$
$ Prototype C (cF8, Fd-3m)
$
 PHASE DIAMOND_A4 % 1 1 !
 CONST DIAMOND_A4 : GE : !
$
$ Prototype Mn5Si3 (hP16, P6_3/mcm)
$
 PHASE GD5GE3_D88 % 2 5 3 !
 CONST GD5GE3_D88 : GD : GE : !
$
$ Prototype Ge4Sm5 (oP36, Pnma)
$
 PHASE GD5GE4 % 2 5 4 !
 CONST GD5GE4 : GD : GE : !
$
$ Prototype CrB (oC8, Cmcm)
$
 PHASE GDGE_B33 % 2 1 1 !
 CONST GDGE_B33 : GD : GE : !
$
$ Prototype AlB2 (hP3, P6/mmm)
$
 PHASE GD2GE3_C32 % 2 0.41 0.59 !
 CONST GD2GE3_C32 : GD : GE : !
$
$ Unknown structure
$
 PHASE GD2GE3_BETA % 2 0.41 0.59 !
 CONST GD2GE3_BETA : GD : GE : !
$
$ Unknown structure
$
 PHASE GD2GE3_GAMMA % 2 2 3 !
 CONST GD2GE3_GAMMA : GD : GE : !
$
$ Prototype Si2Th (tI12, I4_1/amd)
$
 PHASE GD3GE5_CC % 2 3 5 !
 CONST GD3GE5_CC : GD : GE : !
$
$ Prototype Ge5Y3 (oF64, Fdd2)
$
 PHASE GD3GE5_BETA % 2 3 5 !
 CONST GD3GE5_BETA : GD : GE : !
$
$ Pearson oC*, C222_1
$
 PHASE GD2GE5 % 2 1 2.57 !
 CONST GD2GE5 : GD : GE : !
$ ------------------------------------------------------------------------------
$ Defaults
$
 DEFINE-SYSTEM-DEFAULT ELEMENT 2 !
 DEFAULT-COM DEFINE_SYSTEM_ELEMENT VA !
 TYPE-DEF % SEQ * !
 TYPE_DEF A GES AMEND_PHASE_DESCRIPTION @ MAGNETIC -3 0.28 !
 TYPE_DEF B GES AMEND_PHASE_DESCRIPTION @ MAGNETIC -1 0.4 !
 FUNCTION ZERO      298.15  0;                                         6000 N !
 FUNCTION UN_ASS    298.15  0;                                         6000 N !
 FUNCTION R         298.15  +8.31451;                                  6000 N !
$ ------------------------------------------------------------------------------
$ Element data
$ ------------------------------------------------------------------------------
$ Gd
$
$ HCP_A3, BCC_A2 and LIQUID revised in unary 3.0
$ Small correction made to top two temperature ranges of bcc_A2 to ensure 
$ continuity in Gibbs energy, AD, Dec 2002
$ FCC_A1 added in unary 4.4
$
 PAR  G(HCP_A3,GD:VA)           200.00  +GHSERGD;                3600 N 95She2 !
 PAR  TC(HCP_A3,GD:VA)          200.00    293.4;                 3600 N 95She2 !
 PAR  BMAGN(HCP_A3,GD:VA)       200.00      3.0;                 3600 N 95She2 !
$PAR  TC(HCP_A3,GD:VA)          200.00    291.8;                 3600 N 91Din !
$PAR  BMAGN(HCP_A3,GD:VA)       200.00      3.0;                 3600 N 91Din !
 PAR  G(FCC_A1,GD:VA)           200.00  +GHSERGD+500;            3600 N 00Zin !
 PAR  G(BCC_A2,GD:VA)           200.00  +GBCCGD;                 3600 N 95She2 !
 PAR  G(LIQUID,GD)              200.00  +GLIQGD;                 3600 N 95She2 !
$
 FUNCTION GHSERGD   200.00  -6834.5855+97.13101*T-24.7214131*T*LN(T)
       -0.00285240521*T**2-3.14674076E-07*T**3-8665.73348*T**(-1);
      1000.00  Y  -6483.25362+95.6919924*T-24.6598297*T*LN(T)
       -0.00185225011*T**2-6.61211607E-07*T**3;
      1508.15  Y  -123124.992+699.125537*T-101.800197*T*LN(T)
       +0.0150644246*T**2-6.39165948E-07*T**3+29356890.3*T**(-1);
      3600.00  N !
 FUNCTION GBCCGD    200.00  +3233.80866-2.11184585*T+GHSERGD;
      1000.00  Y  +152792.743-1349.58873*T+180.097094*T*LN(T)
       -0.119550229*T**2+1.17915728E-05*T**3-22038836*T**(-1);
      1508.15  Y  -15783.7618+202.222183*T-38.960425*T*LN(T);
      1586.15  Y  -19850.5562+224.818035*T-41.904333*T*LN(T)
       +8.58222759E-04*T**2-3.77570269E-08*T**3+995428.573*T**(-1);
      3600.00  N !
 FUNCTION GLIQGD    200.00  +13060.0262-8.32179974*T+GHSERGD;
      1000.00  Y  +146262.037-1208.70685*T+159.352082*T*LN(T)
       -0.108247135*T**2+1.06945505E-05*T**3-19678357*T**(-1);
      1508.15  Y  -5397.314+192.336215*T-38.5075*T*LN(T);
      3600.00  N !
$ ------------------------------------------------------------------------------
$ Ge
$
$ BCT_A5 and RHOMBOHEDRAL_A7 added in unary 4.1
$
 PAR  G(DIAMOND_A4,GE),,                +GHSERGE;                3200 N 91Din !
 PAR  G(FCC_A1,GE:VA),,                 +GHSERGE+36000-22.3*T;   3200 N 91Din !
 PAR  G(BCC_A2,GE:VA),,                 +GHSERGE+34100-23.5*T;   3200 N 91Din !
 PAR  G(HCP_A3,GE:VA),,                 +GHSERGE+35000-21.5*T;   3200 N 91Din !
$PAR  G(BCT_A5,GE),,                    +GHSERGE+28800-16.5*T;   3600 N 99SGUN !
$PAR  G(RHOMBOHEDRAL_A7,GE),,           +GHSERGE+29800-16.5*T;   3600 N 99SGUN !
 PAR  G(LIQUID,GE),,                    +GLIQGE;                 3200 N 91Din !
$
 FUNCTION GHSERGE   298.15  -9486.153+165.635573*T-29.5337682*T*LN(T)
       +0.005568297*T**2-1.513694E-06*T**3+163298*T**(-1);
       900.00  Y  -5689.239+102.86087*T-19.8536239*T*LN(T)-0.003672527*T**2;
      1211.40  Y  -9548.204+156.708024*T-27.6144*T*LN(T)-8.59809E+28*T**(-9);
      3200.00  N !
 FUNCTION GLIQGE    298.15  +37141.489-30.687043*T+GHSERGE+8.56632E-21*T**7;
      1211.40  Y  +27243.473+126.324186*T-27.6144*T*LN(T);
      3200.00  N !
$ ------------------------------------------------------------------------------
$ Binary system
$
$ H.-L. Chen, Y. Du, C.-Y. He, J. Alloys Compd., 462, 181-86(2008).
$
$ Checked against paper. Checked at 6000 K.
$
$ The bcc and hcp (and fcc) phases should probably have negative interactions,
$ but there are no data.
$
 PAR  L(LIQUID,GD,GE;0),,               -239589+8.37614*T;,,          N 08Che !
 PAR  L(LIQUID,GD,GE;1),,               -8598;,,                      N 08Che !
 PAR  L(LIQUID,GD,GE;2),,               +60318;,,                     N 08Che !
$
 PAR  L(BCC_A2,GD,GE:VA;0),,            +UN_ASS;,,                    N !
 PAR  L(HCP_A3,GD,GE:VA;0),,            +UN_ASS;,,                    N !
$
 PAR  G(GD5GE3_D88,GD:GE),,             +5*GHSERGD+3*GHSERGE
             -648832+22.5932*T;,,                                     N 08Che !
 PAR  G(GD5GE4,GD:GE),,                 +5*GHSERGD+4*GHSERGE
             -733608+14.36148*T;,,                                    N 08Che !
 PAR  G(GDGE_B33,GD:GE),,               +GHSERGD+GHSERGE
             -164358+4.63378*T;,,                                     N 08Che !
 PAR  G(GD2GE3_C32,GD:GE),,             +0.41*GHSERGD+0.59*GHSERGE
             -71076-0.3*T;,,                                          N 08Che !
 PAR  G(GD2GE3_BETA,GD:GE),,            +0.41*GHSERGD+0.59*GHSERGE
             -71001-0.36781*T;,,                                      N 08Che !
 PAR  G(GD2GE3_GAMMA,GD:GE),,           +2*GHSERGD+3*GHSERGE
             -315990-25.4476*T;,,                                     N 08Che !
 PAR  G(GD3GE5_CC,GD:GE),,              +3*GHSERGD+5*GHSERGE
             -525928+4*T;,,                                           N 08Che !
 PAR  G(GD3GE5_BETA,GD:GE),,            +3*GHSERGD+5*GHSERGE
             -522440;,,                                               N 08Che !
 PAR  G(GD2GE5,GD:GE),,                 +GHSERGD+2.57*GHSERGE
             -123518.43-45.11777*T;,,                                 N 08Che !
$
$ Metastable
$
 PAR  L(FCC_A1,GD,GE:VA;0),,            +UN_ASS;,,                    N !
$ ------------------------------------------------------------------------------
$
$
 LIST-OF-REFERENCE
 NUMBER  SOURCE
  Null   'Unknown source'
  Same   'Same or similar interaction as in the corresponding stable phase'
  REFLAV 'Laves phase convention: G(LAVES,X:X)=+3*GHSERXX+15000'
  COST   'COST 507 database'
  91Din  'A.T. Dinsdale, Calphad, 15, 317-425(1991).'
  95She2 'H. Shen, W. Zhang, G. Liu, R. Wang, Z. Du, Report F-95-02,
          University of Science and Technology, Beijing, May 1995,
          SGTE unary database V.3.0, 1996; Gd'
  99SGUN 'SGTE unary database V.4.1, 1999.'
  00Zin  'M. Zinkevich, N. Mattern, H. J Seifert,
          J. Phase Equilib., 21, 385-94(2000),
          SGTE unary database V.4.4, 2001; Gd'
  08Che  'H.-L. Chen, Y. Du, C.-Y. He,
          J. Alloys Compd., 462, 181-86(2008); Gd-Ge'
!
