$
$ Database for Cd-Pb from W. Zakulski and Z. Moser 1995 (included in LB vol. 2)
$
$ W. Zakulski, Z. Moser, J. Phase Equilib., 16, 239-42(1995).
$
$ Dataset created 2015.03.28 by Bengt Hallstedt.
$ 2019.12.07: Modified for use with GES6.
$
$ The hcp interaction is improbable.
$
$ ------------------------------------------------------------------------------
 TEMP-LIM 298.15 6000.00 !
$
$ELEMENT NAME  REF. STATE               ATOMIC MASS H298-H0    S298    !
$
 ELEMENT VA   VACUUM                      0.0          0.0      0.0    ! 
 ELEMENT CD   HCP_A3                    112.41      6247.      51.80   ! 
 ELEMENT PB   FCC_A1                    207.2       6870.      64.80   ! 
$ ------------------------------------------------------------------------------
$ Phase definitions
$
 PHASE LIQUID:L % 1 1 !
 CONST LIQUID:L : CD PB : !
$
$ Fcc (cF4, Fm-3m) and MeX (cF8, Fm-3m)
$
 PHASE FCC_A1 %A 2 1 1 !
 CONST FCC_A1 : CD PB% : VA : !
$
$ Bcc (cI2, Im-3m)
$
 PHASE BCC_A2 %B 2 1 3 !
 CONST BCC_A2 : CD PB : VA : !
$
$ Hcp (hP2, P6_3/mmc) and Me2X (NiAs-type, hP4, P6_3/mmc, B8_1)
$
 PHASE HCP_A3 %A 2 1 0.5 !
 CONST HCP_A3 : CD% PB : VA : !
$ ------------------------------------------------------------------------------
$ Defaults
$
 DEFINE-SYSTEM-DEFAULT ELEMENT 2 !
 DEFAULT-COM DEFINE_SYSTEM_ELEMENT VA !
 TYPE-DEF % SEQ * !
 TYPE-DEF A GES AMEND_PHASE_DESCRIPTION @ MAGNETIC -3 0.28 !
 TYPE-DEF B GES AMEND_PHASE_DESCRIPTION @ MAGNETIC -1 0.4 !
 FUNCTION ZERO      298.15  0;                                         6000 N !
 FUNCTION UN_ASS    298.15  0;                                         6000 N !
 FUNCTION R         298.15  +8.31451;                                  6000 N !
$ ------------------------------------------------------------------------------
$ Element data
$ ------------------------------------------------------------------------------
$ Cd
$
$ FCC_A1 and TETRAGONAL_A6 added in unary 3.0
$ BCT_A5 and RHOMBO_A10 added in unary 4.1
$ BCC_A2 added in unary 5.0
$
 PAR  G(HCP_A3,CD:VA),,                 +GHSERCD;                1600 N 91Din !
 PAR  G(FCC_A1,CD:VA),,                 +GHSERCD+892.3-0.92*T;   1600 N 93Zak !
 PAR  G(BCC_A2,CD:VA),,                 +GHSERCD+1000;           1600 N 04Che1 !
$PAR  G(TETRAGONAL_A6,CD),,             +GHSERCD+892.3-0.92*T;   1600 N 93Zak !
$PAR  G(BCT_A5,CD),,                    +GHSERCD+5000;           1600 N 95Yan !
$PAR  G(RHOMBO_A10,CD),,                +GHSERCD+800-0.62*T;     1600 N 95Yan !
 PAR  G(LIQUID,CD),,                    +GLIQCD;                 1600 N 91Din !
$
 FUNCTION GHSERCD   298.15  -7083.469+99.506198*T-22.0442408*T*LN(T)
       -0.006273908*T**2-6966*T**(-1);
       594.22  Y  -20064.971+256.812233*T-45.1611543*T*LN(T)
       +0.008832011*T**2-8.99604E-07*T**3+1241290*T**(-1);
      1500.00  Y  -9027.489+148.20548*T-29.7064*T*LN(T);
      1600.00  N !
 FUNCTION GLIQCD    298.15  +6128.444-10.296916*T+GHSERCD;
       400.00  Y  +21716.884-371.046869*T+53.1313898*T*LN(T)
       -0.115159917*T**2+2.8899781E-05*T**3-1271815*T**(-1);
       594.22  Y  -3252.303+138.251107*T-29.7064*T*LN(T);
      1500.00  Y  +5775.186-9.954373*T+GHSERCD;
      1600.00  N !
 FUNCTION GBCCCD    298.15  +GHSERCD+1000;                             6000 N !
$ ------------------------------------------------------------------------------
$ Pb
$
$ RHOMBOHEDRAL_A7 and TETRAGONAL_A6 added in unary 3.0
$ RHOMBOHEDRAL_A7, TETRAGONAL_A6 and TET_ALPHA1_A6 revised in unary 4.1
$ RHOMBO_A10 added in unary 5.0
$
 PAR  G(FCC_A1,PB:VA),,                 +GHSERPB;                2100 N 91Din !
 PAR  G(BCC_A2,PB:VA),,                 +GHSERPB+2400-1.1*T;     2100 N 91Din !
 PAR  G(HCP_A3,PB:VA),,                 +GHSERPB+300+T;          2100 N 91Din !
$PAR  G(BCT_A5,PB),,                    +GHSERPB+489+3.52*T;     2100 N 91Din !
$PAR  G(TETRAGONAL_A6,PB),,             +GHSERPB+4493.235;       2100 N 98Boa !
$PAR  G(TETRAGONAL_A6,PB),,             +GHSERPB+473.23+3.5531*T
$            -0.0396834*T*LN(T)+2.1489E-05*T**2;                 2100 N 96SGUN !
$PAR  G(TET_ALPHA1_A6,PB),,             +GHSERPB
$            +1903.3-2.0602*T;                                   2100 N 98Boa !
$PAR  G(TET_ALPHA1_A6,PB),,             +GHSERPB+183.2+0.45314*T
$            -0.0396834*T*LN(T)+2.149E-06*T**2;                  2100 N 91Din !
$PAR  G(RHOMBOHEDRAL_A7,PB),,           +GHSERPB+300+T;          2100 N 99SGUN !
$PAR  G(RHOMBOHEDRAL_A7,PB),,           +GHSERPB+4900+3.52*T;    2100 N 96SGUN !
$PAR  G(RHOMBO_A10,PB),,                +GHSERPB+10;             2100 N 09SGUN !
 PAR  G(LIQUID,PB),,                    +GLIQPB;                 2100 N 91Din !
$
 FUNCTION GHSERPB   298.15  -7650.085+101.700244*T-24.5242231*T*LN(T)
       -0.00365895*T**2-2.4395E-07*T**3;
       600.61  Y  -10531.095+154.243182*T-32.4913959*T*LN(T)
       +0.00154613*T**2+8.05448E+25*T**(-9);
      1200.00  Y  +4157.616+53.139072*T-18.9640637*T*LN(T)
       -0.002882943*T**2+9.8144E-08*T**3-2696755*T**(-1)+8.05448E+25*T**(-9);
      2100.00  N !
 FUNCTION GLIQPB    298.15  +4672.124-7.750683*T+GHSERPB-6.019E-19*T**7;
       600.61  Y  +4853.137-8.067136*T+GHSERPB-8.05448E+25*T**(-9);
      2100.00  N !
$ ------------------------------------------------------------------------------
$ Binary system
$
$ From W. Zakulski and Z. Moser 1995 (included in LB vol. 2)
$
$ W. Zakulski, Z. Moser, J. Phase Equilib., 16, 239-42(1995).
$
$ Checked against LB and paper. Checked at 6000 K.
$
$ The hcp interaction is improbable.
$
 PAR  L(LIQUID,CD,PB;0),,               +10806.38-3.18031*T;,,        N 95Zak !
 PAR  L(LIQUID,CD,PB;1),,               +1698.83-0.80598*T;,,         N 95Zak !
 PAR  L(LIQUID,CD,PB;2),,               +1148.38-0.4889*T;,,          N 95Zak !
 PAR  L(LIQUID,CD,PB;3),,               +2233.55-2.92065*T;,,         N 95Zak !
 PAR  L(LIQUID,CD,PB;4),,               +509.74-0.61439*T;,,          N 95Zak !
$
 PAR  L(FCC_A1,CD,PB:VA;0),,            +14232.25-1.41303*T;,,        N 95Zak !
 PAR  L(HCP_A3,CD,PB:VA;0),,            +80*T;,,                      N !
$
$ Metastable
$
 PAR  L(BCC_A2,CD,PB:VA;0),,            +14232.25-1.41303*T;,,        N Same !
$ ------------------------------------------------------------------------------
$
 ASSESSED_SYSTEM
  CD-PB(TDB -* +LIQ +FCC_A1 +HCP_A3 ;P3 TMM:200/1000 STP:0.4/700) !
$
$
 LIST-OF-REFERENCE
 NUMBER  SOURCE
  Null   'Unknown source'
  Same   'Same or similar interaction as in the corresponding stable phase'
  COST   'COST 507 database'
  91Din  'A.T. Dinsdale, Calphad, 15, 317-425(1991).'
  93Zak  'W. Zakulski, Z. Moser, K. Rzyman, H.L. Lukas, S.G. Fries,
          M. Sukiennik, R. Kaczmarczyk, R. Castanet,
          J. Phase Equilib., 14, 184-96(1993),
          SGTE unary database V.3.0, 1996; Cd'
  95Yan  'J. Yang, N.J. Silk, A. Watson, A.W. Bryant, T.G. Chart, B.B. Argent,
          Calphad, 19, 415-30(1995),
          SGTE unary database V.4.1, 1999; Cd, Hg'
  95Zak  'W. Zakulski, Z. Moser, J. Phase Equilib., 16, 239-42(1995); Cd-Pb'
  96SGUN 'SGTE unary database V.3.0, 1996.'
  98Boa  'D. Boa, I. Ansara, Thermochim. Acta, 314, 79-86(1998),
          SGTE unary database V.4.1, 1999; In, Pb, Bi-Pb'
  99SGUN 'SGTE unary database V.4.1, 1999.'
  04Che1 'P.-Y. Chevalier, unpublished, Thermodata, 2004,
          SGTE unary database V.5.0, 2009; Cd'
  09SGUN 'SGTE unary database V.5.0, 2009.'
!
