$
$ Database for Ni-Zr from A. Jana et al. 2020.
$
$ A. Jana, S. Sridar, S.G. Fries, T. Hammerschmidt, K.C. Hari Kumar,
$ Intermetallics, 116, 106640(2020).
$
$ Dataset created 2024.03.17 by Bengt Hallstedt.
$
$ In the paper low temperature intervals for some of the intermetallic phases
$ are included. These are not included here.
$
$ ------------------------------------------------------------------------------
 TEMP-LIM 298.15 6000.00 !
$
$ELEMENT NAME  REF. STATE               ATOMIC MASS H298-H0    S298    !
$
 ELEMENT VA   VACUUM                      0.0          0.0      0.0    ! 
 ELEMENT NI   FCC_A1                     58.69      4787.0     29.7955 ! 
 ELEMENT ZR   HCP_A3                     91.22      5566.27    39.1809 ! 
$ ------------------------------------------------------------------------------
$ Phase definitions
$
 PHASE LIQUID:L % 1 1 !
 CONST LIQUID:L : NI ZR : !
$
$ Fcc (cF4, Fm-3m) and MeX (cF8, Fm-3m)
$
 PHASE FCC_A1 %A 2 1 1 !
 CONST FCC_A1 : NI% ZR : VA : !
$
$ Bcc (cI2, Im-3m)
$
 PHASE BCC_A2 %B 2 1 3 !
 CONST BCC_A2 : NI ZR% : VA : !
$
$ Hcp (hP2, P6_3/mmc) and Me2X (NiAs-type, hP4, P6_3/mmc, B8_1)
$
 PHASE HCP_A3 %A 2 1 0.5 !
 CONST HCP_A3 : NI ZR% : VA : !
$
$ Prototype AuBe5 (cF24, F-43m)
$
 PHASE NI5ZR_C15B % 2 5 1 !
 CONST NI5ZR_C15B : NI : NI ZR% : ! 
$
$ Prototype Ni7Zr2 (mC36, C2/m)
$
 PHASE NI7ZR2 % 2 7 2 !
 CONST NI7ZR2 : NI : ZR : !
$
$ Prototype CdMg3 (hP8, P6_3/mmc)
$
 PHASE NI3ZR_D019 % 2 3 1 !
 CONST NI3ZR_D019 : NI : ZR : !
$
$ Prototype Hf8Ni21 (aP29, P-1)
$
 PHASE NI21ZR8 % 2 21 8 !
 CONST NI21ZR8 : NI : ZR : !
$
$ Prototype Ni10Zr7 (oC68, Cmca)
$
 PHASE NI10ZR7 % 2 10 7 !
 CONST NI10ZR7 : NI : ZR : !
$
$ Prototype Pt11Zr9 (tI40, I4/m)
$
 PHASE NI11ZR9 % 2 11 9 !
 CONST NI11ZR9 : NI : ZR : !
$
$ Prototype CrB (oC8, Cmcm)
$
 PHASE NIZR_B33 % 2 1 1 !
 CONST NIZR_B33 : NI : ZR : !
$
$ Prototype Al2Cu (tI12, I4/mcm)
$
 PHASE NIZR2_C16 % 2 1 2 !
 CONST NIZR2_C16 : NI : ZR : !
$ ------------------------------------------------------------------------------
$ Defaults
$
 DEFINE-SYSTEM-DEFAULT ELEMENT 2 !
 DEFAULT-COM DEFINE_SYSTEM_ELEMENT VA !
 TYPE-DEF % SEQ * !
 TYPE-DEF A GES AMEND_PHASE_DESCRIPTION @ MAGNETIC -3 0.28 !
 TYPE-DEF B GES AMEND_PHASE_DESCRIPTION @ MAGNETIC -1 0.4 !
 FUNCTION ZERO      298.15  0;                                         6000 N !
 FUNCTION UN_ASS    298.15  0;                                         6000 N !
 FUNCTION R         298.15  +8.31451;                                  6000 N !
 FUNCTION LNT       298.15  +1*LN(T);                                  6000 N !
 FUNCTION SQRTT     298.15  +1*EXP(0.5*LNT);                           6000 N !
$ ------------------------------------------------------------------------------
$ Element data
$ ------------------------------------------------------------------------------
$ Ni
$
$ FCC_A1 and LIQUID modified in unary 5.0 (slight change in upper T interval)
$ BCT_A5 added in unary 5.0
$
 PAR  G(FCC_A1,NI:VA),,                 +GHSERNI;                3000 N 91Din !
 PAR  TC(FCC_A1,NI:VA),,                  633.00;                3000 N 91Din !
 PAR  BM(FCC_A1,NI:VA),,                    0.52;                3000 N 91Din !
 PAR  G(BCC_A2,NI:VA),,                 +GHSERNI
             +8715.084-3.556*T;                                  3000 N 91Din !
 PAR  TC(BCC_A2,NI:VA),,                  575.00;                3000 N 91Din !
 PAR  BM(BCC_A2,NI:VA),,                    0.85;                3000 N 91Din !
 PAR  G(HCP_A3,NI:VA),,                 +GHSERNI+1046+1.255*T;   3000 N 91Din !
 PAR  TC(HCP_A3,NI:VA),,                  633.00;                3000 N 91Din !
 PAR  BM(HCP_A3,NI:VA),,                    0.52;                3000 N 91Din !
$PAR  G(BCT_A5,NI),,                    +GHSERNI+10023-4.556*T;  3000 N 99Gho !
$PAR  G(CBCC_A12,NI:VA),,               +GHSERNI+3556;           3000 N 91Din !
$PAR  G(CUB_A13,NI:VA),,                +GHSERNI+2092;           3000 N 91Din !
 PAR  G(LIQUID,NI),,                    +GLIQNI;                 3000 N 91Din !
$
 PAR  G(NI5ZR_C15B,NI:NI),,             +6*GHSERNI+19800;,,           N 20Jan !
$
 FUNCTION GHSERNI   298.15  -5179.159+117.854*T-22.096*T*LN(T)-0.0048407*T**2;
      1728.00  Y  -27840.62+279.134977*T-43.1*T*LN(T)+1.12754E+31*T**(-9);
      3000.00  N !
 FUNCTION GLIQNI    298.15  +16414.686-9.397*T+GHSERNI-3.82318E-21*T**7;
      1728.00  Y  -9549.817+268.597977*T-43.1*T*LN(T);
      3000.00  N !
 FUNCTION GBCCNI    298.15  +GHSERNI+8715.084-3.556*T;                 3000 N !
$ ------------------------------------------------------------------------------
$ Zr
$
$ CUB_A13, CBCC_A12, ORTHORHOMBIC_A20 and TETRAGONAL_U added in unary 4.1
$
 PAR  G(HCP_A3,ZR:VA)           130.00  +GHSERZR;,,                   N 91Din !
 PAR  G(BCC_A2,ZR:VA)           130.00  +GBCCZR;,,                    N 91Din !
$PAR  G(OMEGA,ZR)               130.00  +GOMEZR;,,                    N 91Din !
 PAR  G(FCC_A1,ZR:VA)           130.00  +GHSERZR+7600-0.9*T;,,        N 91Din !
$PAR  G(CBCC_A12,ZR:VA)         130.00  +GHSERZR+4602.2;,,            N 99SGUN !
$PAR  G(CUB_A13,ZR:VA)          130.00  +GHSERZR+7531.2;,,            N 99SGUN !
$PAR  G(ORTHORHOMBIC_A20,ZR)    130.00  +GBCCZR+5000;,,               N 99SGUN !
$PAR  G(TETRAGONAL_U,ZR)        130.00  +GBCCZR+5000;,,               N 99SGUN !
 PAR  G(LIQUID,ZR)              130.00  +GLIQZR;,,                    N 91Din !
$
 FUNCTION GHSERZR   130.00  -7827.595+125.64905*T-24.1618*T*LN(T)
       -0.00437791*T**2+34971*T**(-1);
      2128.00  Y  -26085.921+262.724183*T-42.144*T*LN(T)-1.342896E+31*T**(-9);
      6000.00  N !
 FUNCTION GBCCZR    130.00  -525.539+124.9457*T-25.607406*T*LN(T)
       -3.40084E-04*T**2-9.729E-09*T**3+25233*T**(-1)-7.6143E-11*T**4;
      2128.00  Y  -4620.034+1.55998*T+GHSERZR+1.4103476E+32*T**(-9);
      6000.00  N !
 FUNCTION GOMEZR    130.00  -8878.082+144.432234*T-26.8556*T*LN(T)
       -0.002799446*T**2+38376*T**(-1);
      2128.00  Y  -3414.603+2.566675*T+GHSERZR+8.517346E+31*T**(-9);
      6000.00  N !
 FUNCTION GLIQZR    130.00  +18147.69-9.080812*T+GHSERZR+1.6275E-22*T**7;
      2128.00  Y  -8281.26+253.812609*T-42.144*T*LN(T);
      6000.00  N !
$ ------------------------------------------------------------------------------
$ Binary system
$
$ A. Jana, S. Sridar, S.G. Fries, T. Hammerschmidt, K.C. Hari Kumar,
$ Intermetallics, 116, 106640(2020).
$
$ Checked against paper. Checked at 6000K.
$
$ In the paper low temperature intervals for some of the intermetallic phases
$ are included. These are not included here.
$
 PAR  L(LIQUID,NI,ZR;0),,               -244123+89.155*T
             +0.1227*T*LN(T)-0.0195*T**2;,,                           N 20Jan !
 PAR  L(LIQUID,NI,ZR;1),,               -69566+22.882*T;,,            N 20Jan !
 PAR  L(LIQUID,NI,ZR;2),,               +6374;,,                      N 20Jan !
$
 PAR  L(FCC_A1,NI,ZR:VA;0),,            -124435;,,                    N 20Jan !
 PAR  L(BCC_A2,NI,ZR:VA;0),,            -73417;,,                     N 20Jan !
 PAR  L(HCP_A3,NI,ZR:VA;0),,            -63204;,,                     N 20Jan !
$
 PAR  G(NI5ZR_C15B,NI:ZR),,             +5*GHSERNI+GHSERZR
             -201244+22.441*T;,,                                      N 20Jan !
 PAR  L(NI5ZR_C15B,NI:NI,ZR;0),,        +2209;,,                      N 20Jan !
$
 PAR  G(NI7ZR2,NI:ZR),,                 +GNI7ZR2;,,                   N 20Jan !
 PAR  G(NI3ZR_D019,NI:ZR),,             +GNI3ZR1;,,                   N 20Jan !
 PAR  G(NI21ZR8,NI:ZR),,                +21*GHSERNI+8*GHSERZR
             -1259241+101.015*T;,,                                    N 20Jan !
 PAR  G(NI10ZR7,NI:ZR),,                +10*GHSERNI+7*GHSERZR
             -814261+57.39*T;,,                                       N 20Jan !
 PAR  G(NI11ZR9,NI:ZR),,                +11*GHSERNI+9*GHSERZR
             -955112+57.635*T;,,                                      N 20Jan !
 PAR  G(NIZR_B33,NI:ZR),,               +GNI1ZR1;,,                   N 20Jan !
 PAR  G(NIZR2_C16,NI:ZR),,              +GNI1ZR2;,,                   N 20Jan !
$
 FUNCTION GNI7ZR2   298.15  -409980.23+1168.974*T-221.9479506*T*LN(T)
       -0.00947343474*T**2-2.457675522E-6*T**3+682259.3505*T**(-1)
       +1033.34481*SQRTT;
      3000.00  N !
 FUNCTION GNI3ZR1   298.15  -184671.227+565.364844*T-101.313156*T*LN(T)
       -0.00839059678*T**2+137968.371*T**(-1)-484.433616*SQRTT;
      3000.00  N !
 FUNCTION GNI1ZR1   298.15  -106617.189+230.744693*T-44.6926179*T*LN(T)
       -0.00535295015*T**2+54650.5413*T**(-1);
      3000.00  N !
 FUNCTION GNI1ZR2   298.15  -113464.207+482.999539*T-84.9703117*T*LN(T)
       -0.00615101738*T**2+40104.9922*T**(-1)-953.629104*SQRTT;
      3000.00  N !
$ ------------------------------------------------------------------------------
$
 ASSESSED_SYSTEM
  NI-ZR(TDB -* +LIQUID +FCC_A1 +BCC_A2 +HCP_A3 +NI10ZR7 +NI11ZR9 +NI21ZR8
  +NI3ZR_D019 +NI5ZR_C15B +NI7ZR2 +NIZR_B33 +NIZR2_C16 ;P3 TMM:300/2300 *) !
$
$
 LIST-OF-REFERENCE
 NUMBER  SOURCE
  Null   'Unknown source'
  COST   'COST 507 database'
  91Din  'A.T. Dinsdale, Calphad, 15, 317-425(1991).'
  99Gho  'G. Ghosh, Metall. Mater. Trans. A, 30A, 1481-94(1999),
          SGTE unary database V.5.0, 2009; Ni'
  99SGUN 'SGTE unary database V.4.1, 1999.'
  20Jan  'A. Jana, S. Sridar, S.G. Fries, T. Hammerschmidt, K.C. Hari Kumar,
          Intermetallics, 116, 106640(2020); Ni-Zr'
!
