$
$ Database for Be-Fe from H. Ohtani et al. 2004.
$
$ H. Ohtani, Y. Takeshita, M.Hasebe, Mater. Trans. (JIM), 45, 1499-1506(2004).
$
$ Dataset created 2018.04.02 by Bengt Hallstedt.
$ 2020.12.22: Modified for use with GES6.
$
$ There seem to be some differences compared to the phase diagram in the paper
$ but there is no table of invariant equilibria to compare with.
$
$ ------------------------------------------------------------------------------
 TEMP-LIM 298.15 6000.00 !
$
$ELEMENT NAME  REF. STATE               ATOMIC MASS H298-H0    S298    !
$
 ELEMENT VA   VACUUM                      0.0          0.0      0.0    ! 
 ELEMENT BE   HCP_A3                      9.01218   1950.0      9.50   ! 
 ELEMENT FE   BCC_A2                     55.847     4489.0     27.2797 ! 
$ ------------------------------------------------------------------------------
$ Phase definitions
$
 PHASE LIQUID:L % 1 1 !
 CONST LIQUID:L : BE FE : !
$
$ Fcc (cF4, Fm-3m) and MeX (cF8, Fm-3m)
$
 PHASE FCC_A1 %A 2 1 1 !
 CONST FCC_A1 : BE FE% : VA : !
$
$ Bcc (cI2, Im-3m)
$
$PHASE BCC_A2 %B 2 1 3 !
$CONST BCC_A2 : BE% FE% : VA : !
$
$ Prototype CsCl (cP2, Pm-3m)
$ also bcc (cI2, Im-3m)
$
 PHASE BCC_B2 %B 3 0.5 0.5 3 !
 CONST BCC_B2 : BE% FE : BE FE% : VA : !
$
$ Hcp (hP2, P6_3/mmc) and Me2X (NiAs-type, hP4, P6_3/mmc, B8_1)
$
 PHASE HCP_A3 %A 2 1 0.5 !
 CONST HCP_A3 : BE% FE : VA : !
$
$ Prototype Be17Rh2 (hP19, P-6m2), epsilon
$
 PHASE BE9FE % 2 9 1 !
 CONST BE9FE : BE : FE : !
$
$ Prototype AuBe5 (cF24, F-43m), delta
$
 PHASE BE5FE_C15B % 2 3 1 !
 CONST BE5FE_C15B : BE% FE : BE FE% : !
$
$ Prototype MgZn2 (hP12, P6_3/mmc), zeta
$
 PHASE BE2FE_C14 % 2 2 1 !
 CONST BE2FE_C14 : BE% FE : BE FE% : !
$ ------------------------------------------------------------------------------
$ Defaults
$
 DEFINE-SYSTEM-DEFAULT ELEMENT 2 !
 DEFAULT-COM DEFINE_SYSTEM_ELEMENT VA !
 TYPE-DEF % SEQ * !
 TYPE-DEF A GES AMEND_PHASE_DESCRIPTION @ MAGNETIC -3 0.28 !
 TYPE-DEF B GES AMEND_PHASE_DESCRIPTION @ MAGNETIC -1 0.4 !
 FUNCTION ZERO      298.15  0;                                         6000 N !
 FUNCTION UN_ASS    298.15  0;                                         6000 N !
 FUNCTION R         298.15  +8.31451;                                  6000 N !
$ ------------------------------------------------------------------------------
$ Element data
$ ------------------------------------------------------------------------------
$ Be
$
 PAR  G(HCP_A3,BE:VA),,                 +GHSERBE;                3000 N 91Din !
 PAR  G(BCC_A2,BE:VA),,                 +GBCCBE;                 3000 N 91Din !
 PAR  G(FCC_A1,BE:VA),,                 +GHSERBE+6349-1.085*T;   3000 N 91Din !
 PAR  G(LIQUID,BE),,                    +GLIQBE;                 3000 N 91Din !
$
 PAR  G(BCC_B2,BE:BE:VA),,              +GBCCBE;                 3000 N 91Din !
 PAR  G(BE5FE_C15B,BE:BE),,             +4*GHSERBE+28132-13.68*T;,,   N 04Oht !
 PAR  G(BE2FE_C14,BE:BE),,              +3*GHSERBE+17100-3.342*T;,,   N 04Oht !
$
 FUNCTION GHSERBE   298.15  -8553.651+137.560219*T-21.204*T*LN(T)
       -0.00284715*T**2-1.60413E-07*T**3+293690*T**(-1);
      1527.00  Y  -121305.858+772.405844*T-103.9843*T*LN(T)
       +0.021078651*T**2-1.119065E-06*T**3+27251743*T**(-1);
      3000.00  N !
 FUNCTION GBCCBE    298.15  -1076.057+109.411712*T-17.1727841*T*LN(T)
       -0.008672487*T**2+9.61427E-07*T**3+242309*T**(-1);
      1527.00  Y  -6970.378+196.411689*T-30*T*LN(T);
      1560.00  Y  -2609.973+178.131722*T-27.7823769*T*LN(T)
       -1.03629E-04*T**2-5.9331E-08*T**3-1250847*T**(-1);
      3000.00  N !
 FUNCTION GLIQBE    298.15  +7511.838+120.362788*T-20.0497038*T*LN(T)
       -0.004821347*T**2+4.15958E-07*T**3+281044*T**(-1);
      1560.00  Y  +5364.713+156.961141*T-25.486*T*LN(T)
       -0.0010572*T**2-1.117E-09*T**3+15920*T**(-1);
      3000.00  N !
$ ------------------------------------------------------------------------------
$ Fe
$
$ ORTHORHOMBIC_A20 and TETRAGONAL_U added im unary 4.1
$
 PAR  G(BCC_A2,FE:VA),,                 +GHSERFE;,,                   N 91Din !
 PAR  TC(BCC_A2,FE:VA),,                 1043.00;,,                   N 91Din !
 PAR  BM(BCC_A2,FE:VA),,                    2.22;,,                   N 91Din !
 PAR  G(FCC_A1,FE:VA),,                 +GFCCFE;,,                    N 91Din !
 PAR  TC(FCC_A1,FE:VA),,                 -201.00;,,                   N 91Din !
 PAR  BM(FCC_A1,FE:VA),,                   -2.10;,,                   N 91Din !
 PAR  G(HCP_A3,FE:VA),,                 +GHCPFE;,,                    N 91Din !
$PAR  G(CBCC_A12,FE:VA),,               +GHSERFE+4745;,,              N 91Din !
$PAR  G(CUB_A13,FE:VA),,                +GHSERFE+3745;,,              N 91Din !
$PAR  G(ORTHORHOMBIC_A20,FE),,          +GHSERFE+5000;,,              N 99SGUN !
$PAR  G(TETRAGONAL_U,FE),,              +GHSERFE+5000;,,              N 99SGUN !
 PAR  G(LIQUID,FE),,                    +GLIQFE;,,                    N 91Din !
$
 PAR  G(BCC_B2,FE:FE:VA),,              +GHSERFE;,,                   N 91Din !
 PAR  TC(BCC_B2,FE:FE:VA),,              1043.00;,,                   N 91Din !
 PAR  BM(BCC_B2,FE:FE:VA),,                 2.22;,,                   N 91Din !
 PAR  G(BE5FE_C15B,FE:FE),,             +4*GHSERBE+902527.724;,,      N 04Oht !
 PAR  G(BE2FE_C14,FE:FE),,              +3*GHSERFE
             +300000+102.654*T;,,                                     N 04Oht !
$
 FUNCTION GHSERFE   298.15  +1225.7+124.134*T-23.5143*T*LN(T)
       -0.00439752*T**2-5.8927E-08*T**3+77359*T**(-1);
      1811.00  Y  -25383.581+299.31255*T-46*T*LN(T)+2.29603E+31*T**(-9);
      6000.00  N !
 FUNCTION GFCCFE    298.15  -1462.4+8.282*T-1.15*T*LN(T)
       +6.4E-04*T**2+GHSERFE;
      1811.00  Y  -1713.815+0.940009*T+GHSERFE+4.9251E+30*T**(-9);
      6000.00  N !
 FUNCTION GHCPFE    298.15  -3705.78+12.591*T-1.15*T*LN(T)
       +6.4E-04*T**2+GHSERFE;
      1811.00  Y  -3957.195+5.249009*T+GHSERFE+4.9251E+30*T**(-9);
      6000.00  N !
 FUNCTION GLIQFE    298.15  +12040.17-6.55843*T+GHSERFE-3.67516E-21*T**7;
      1811.00  Y  -10838.83+291.302*T-46*T*LN(T);
      6000.00  N !
$ ------------------------------------------------------------------------------
$ Binary system
$
$ H. Ohtani, Y. Takeshita, M.Hasebe, Mater. Trans. (JIM), 45, 1499-1506(2004).
$
$ Checked against paper. Checked at 6000 K.
$
$ There seem to be some differences compared to the phase diagram in the paper
$ but there is no table of invariant equilibria to compare with.
$
 PAR  L(LIQUID,BE,FE;0),,               -73300-1.8*T;,,               N 04Oht !
 PAR  L(LIQUID,BE,FE;1),,               -8500+5.57*T;,,               N 04Oht !
$
 PAR  L(FCC_A1,BE,FE:VA;0),,            -71900+8.1*T;,,               N 04Oht !
$
 PAR  G(BCC_B2,BE:FE:VA),,              +0.5*GBCCBE+0.5*GHSERFE
             -37100+9*T;,,                                            N 04Oht !
 PAR  G(BCC_B2,FE:BE:VA),,              +0.5*GBCCBE+0.5*GHSERFE
             -37100+9*T;,,                                            N 04Oht !
 PAR  L(BCC_B2,BE,FE:BE:VA;0),,         -4*T;,,                       N 04Oht !
 PAR  L(BCC_B2,BE:BE,FE:VA;0),,         -4*T;,,                       N 04Oht !
 PAR  L(BCC_B2,BE,FE:FE:VA;0),,         -380-4*T;,,                   N 04Oht !
 PAR  L(BCC_B2,FE:BE,FE:VA;0),,         -380-4*T;,,                   N 04Oht !
$
 PAR  L(HCP_A3,BE,FE:VA;0),,            +ZERO;,,                      N 04Oht !
 PAR  L(HCP_A3,BE,FE:VA;1),,            -28450+27.9*T;,,              N 04Oht !
 PAR  L(HCP_A3,BE,FE:VA;2),,            -340;,,                       N 04Oht !
$
 PAR  G(BE9FE,BE:FE),,                  +9*GHSERBE+GHSERFE
             -123500+3.8*T;,,                                         N 04Oht !
$
 PAR  G(BE5FE_C15B,BE:FE),,             +3*GBCCBE+GHSERFE
             -132200+22.6*T;,,                                        N 04Oht !
 PAR  G(BE5FE_C15B,FE:BE),,             +3*GHSERFE+4*GHSERBE-3*GBCCBE
             +1062800-36.28*T;,,                                      N 04Oht !
 PAR  L(BE5FE_C15B,BE:BE,FE;0),,        -24360;,,                     N 04Oht !
 PAR  L(BE5FE_C15B,BE:BE,FE;1),,        -1760;,,                      N 04Oht !
$
 PAR  G(BE2FE_C14,BE:FE),,              +2*GHSERBE+GHSERFE
             -114000+21.54*T;,,                                       N 04Oht !
 PAR  G(BE2FE_C14,FE:BE),,              +2*GHSERFE+GHSERBE
             +431100+77.7*T;,,                                        N 04Oht !
 PAR  L(BE2FE_C14,BE,FE:BE;0),,         -640350+205.2*T;,,            N 04Oht !
 PAR  L(BE2FE_C14,BE,FE:BE;1),,         -355200;,,                    N 04Oht !
 PAR  L(BE2FE_C14,BE,FE:FE;0),,         -648750+201.9*T;,,            N 04Oht !
 PAR  L(BE2FE_C14,BE,FE:FE;1),,         -336000;,,                    N 04Oht !
 PAR  L(BE2FE_C14,BE:BE,FE;0),,         +4530-31.2*T;,,               N 04Oht !
 PAR  L(BE2FE_C14,BE:BE,FE;1),,         +15090;,,                     N 04Oht !
 PAR  L(BE2FE_C14,FE:BE,FE;0),,         +4530-31.2*T;,,               N 04Oht !
 PAR  L(BE2FE_C14,FE:BE,FE;1),,         +15090;,,                     N 04Oht !
$ ------------------------------------------------------------------------------
$
$
 LIST-OF-REFERENCE
 NUMBER  SOURCE
  Null   'Unknown source'
  Same   'Same or similar interaction as in the corresponding stable phase'
  REFLAV 'Laves phase convention: G(LAVES,X:X)=+3*GHSERXX+15000'
  91Din  'A.T. Dinsdale, Calphad, 15, 317-425(1991).'
  99SGUN 'SGTE unary database V.4.1, 1999.'
  04Oht  'H. Ohtani, Y. Takeshita, M.Hasebe,
          Mater. Trans. (JIM), 45, 1499-1506(2004); Be-Fe'
!
