$
$ Database for Re-W from Z.-K. Liu and Y.A. Chang 2000 (included in LB Vol. 5)
$
$ Z.-K. Liu, Y.A. Chang, J. Alloys Compd., 299, 153-62(2000).
$
$ Dataset created 2016.03.20 by Bengt Hallstedt.
$ 2021.02.05: Modified for use with GES6.
$
$ ------------------------------------------------------------------------------
 TEMP-LIM 298.15 6000.00 !
$
$ELEMENT NAME  REF. STATE               ATOMIC MASS H298-H0    S298    !
$
 ELEMENT VA   VACUUM                      0.0          0.0      0.0    ! 
 ELEMENT RE   HCP_A3                    186.207     5333.      36.4820 ! 
 ELEMENT W    BCC_A2                    183.85      4970.0     32.6176 ! 
$ ------------------------------------------------------------------------------
$ Phase definitions
$
 PHASE LIQUID:L % 1 1 !
 CONST LIQUID:L : RE W : !
$
$ Fcc (cF4, Fm-3m) and MeX (cF8, Fm-3m)
$
 PHASE FCC_A1 %A 2 1 1 !
 CONST FCC_A1 : RE W : VA : !
$
$ Bcc (cI2, Im-3m)
$
 PHASE BCC_A2 %B 2 1 3 !
 CONST BCC_A2 : RE W% : VA : !
$
$ Hcp (hP2, P6_3/mmc) and Me2X (NiAs-type, hP4, P6_3/mmc, B8_1)
$
 PHASE HCP_A3 %A 2 1 0.5 !
 CONST HCP_A3 : RE% W : VA : !
$
$ Prototype alpha-Mn (cI58, I-43m)
$
 PHASE CHI_A12 % 3 24 10 24 !
 CONST CHI_A12 : RE : RE W : RE W : !
$
$ Prototype CrFe (tP30, P4_2/mnm)
$
 PHASE SIGMA_D8B % 3 10 4 16 !
 CONST SIGMA_D8B : RE : W : RE W : !
$
$ Prototype CrFe (tP30, P4_2/mnm)
$
 PHASE SIGMA_OLD % 3 8 4 18 !
 CONST SIGMA_OLD : RE : W : RE W : !
$ ------------------------------------------------------------------------------
$ Defaults
$
 DEFINE-SYSTEM-DEFAULT ELEMENT 2 !
 DEFAULT-COM DEFINE_SYSTEM_ELEMENT VA !
 DEFAULT-COM REJECT_PHASE SIGMA_OLD !
 TYPE-DEF % SEQ * !
 TYPE-DEF A GES AMEND_PHASE_DESCRIPTION @ MAGNETIC -3 0.28 !
 TYPE-DEF B GES AMEND_PHASE_DESCRIPTION @ MAGNETIC -1 0.4 !
 FUNCTION ZERO      298.15  0;                                         6000 N !
 FUNCTION UN_ASS    298.15  0;                                         6000 N !
 FUNCTION R         298.15  +8.31451;                                  6000 N !
$ ------------------------------------------------------------------------------
$ Element data
$ ------------------------------------------------------------------------------
$ Re
$
$ Warning! Old data for hcp, bcc and Liquid used.
$
$ HCP_A3 and LIQUID revised in unary 3.0
$ BCC_A2 revised in unary 4.4
$
 PAR  G(HCP_A3,RE:VA),,                 +GHSERRE;,,                   N 91Din !
 PAR  G(FCC_A1,RE:VA),,                 +GHSERRE+11000-1.5*T;,,       N 91Din !
$PAR  G(BCC_A2,RE:VA),,                 +GHSERRE+17000-3.7*T;,,       N 01SGUN !
 PAR  G(BCC_A2,RE:VA),,                 +GHSERRE+29200-6*T;,,         N 91Din !
 PAR  G(LIQUID,RE),,                    +GLIQRE;,,                    N 91Din !
$
 PAR  G(CHI_A12,RE:RE:RE),,             +48*GFCCRE+10*GBCCRE
             +100000;,,                                               N 00Liu !
$
 FUNCTION GHSERRE   298.15  -7305.045+123.758773*T-23.6892641*T*LN(T)
       -0.002723387*T**2;
      3459.00  Y  +38514.17-65.920606*T+.0645635*T*LN(T)
       -0.008050184*T**2+2.19551E-07*T**3-15938253*T**(-1);
      6000.00  N !
 FUNCTION GLIQRE    298.15  +45296.708-11.184298*T+GHSERRE;  
      1000.00  Y  +66060.979-113.540121*T+7.4580354*T*LN(T)
       -0.016183804*T**2+7.69496E-07*T**3-4421721*T**(-1);
      3459.00  Y  -5301.43+328.158541*T-50*T*LN(T);
      6000.00  N !
 FUNCTION GFCCRE    298.15  +GHSERRE+11000-1.5*T;                      6000 N !
 FUNCTION GBCCRE    298.15  +GHSERRE+29200-6*T;                        6000 N !
$ ------------------------------------------------------------------------------
$ W
$
 PAR  G(BCC_A2,W:VA),,                  +GHSERWW;,,                   N 91Din !
 PAR  G(FCC_A1,W:VA),,                  +GHSERWW+19300+0.63*T;,,      N 91Din !
 PAR  G(HCP_A3,W:VA),,                  +GHSERWW+14750;,,             N 91Din !
 PAR  G(LIQUID,W),,                     +GLIQWW;,,                    N 91Din !
$
 FUNCTION GHSERWW   298.15  -7646.311+130.4*T-24.1*T*LN(T)
       -0.001936*T**2+2.07E-07*T**3+44500*T**(-1)-5.33E-11*T**4;
      3695.00  Y  -82868.801+389.362335*T-54*T*LN(T)+1.528621E+33*T**(-9);
      6000.00  N !
 FUNCTION GLIQWW    298.15  +52160.584-14.10999*T+GHSERWW-2.713468E-24*T**7;
      3695.00  Y  -30436.051+375.175*T-54*T*LN(T);
      6000.00  N !
 FUNCTION GFCCWW    298.15  +GHSERWW+19300+0.63*T;                     6000 N !
$ ------------------------------------------------------------------------------
$ Binary system
$
$ From Z.-K. Liu and Y.A. Chang 2000 (included in LB Vol. 5)
$
$ Z.-K. Liu, Y.A. Chang, J. Alloys Compd., 299, 153-62(2000).
$
$ Checked against LB and paper. Checked at 6000 K.
$
$ Old data for Re used in LB (and in 00Liu and here).
$
 PAR  L(LIQUID,RE,W;0),,                -24140;,,                     N 00Liu !
 PAR  L(LIQUID,RE,W;1),,                -5723;,,                      N 00Liu !
$
 PAR  L(BCC_A2,RE,W:VA;0),,             -48975+8.982*T;,,             N 00Liu !
 PAR  L(BCC_A2,RE,W:VA;1),,             +11855;,,                     N 00Liu !
$
 PAR  L(HCP_A3,RE,W:VA;0),,             -7986;,,                      N 00Liu !
$
 PAR  G(CHI_A12,RE:RE:W),,              +24*GFCCRE+10*GBCCRE
             +24*GFCCWW+100000-692194-187.085*T+832016-61.502*T;,,    N 00Liu !
 PAR  G(CHI_A12,RE:W:RE),,              +48*GFCCRE+10*GHSERWW
             -832016+61.502*T;,,                                      N 00Liu !
 PAR  G(CHI_A12,RE:W:W),,               +24*GFCCRE+10*GHSERWW
             +24*GFCCWW-692194-187.085*T;,,                           N 00Liu !
$
 PAR  G(SIGMA_D8B,RE:W:RE),,            +10*GFCCRE+4*GHSERWW
             +16*GBCCRE-699148+113.901*T;,,                           N 00Liu !
 PAR  G(SIGMA_D8B,RE:W:W),,             +10*GFCCRE+20*GHSERWW
             -192934-109.596*T;,,                                     N 00Liu !
 PAR  L(SIGMA_D8B,RE:W:RE,W;0),,        +205304;,,                    N 00Liu !
$
 PAR  G(SIGMA_OLD,RE:W:RE),,            +8*GFCCRE+4*GHSERWW
             +18*GBCCRE-722095+119.741*T;,,                           N 00Liu !
 PAR  G(SIGMA_OLD,RE:W:W),,             +8*GFCCRE+22*GHSERWW
             -173062-93.0315*T;,,                                     N 00Liu !
 PAR  L(SIGMA_OLD,RE:W:RE,W;0),,        +159161;,,                    N 00Liu !
$
$ metastable
$
 PAR  L(FCC_A1,RE,W:VA;0),,             -7986;,,                      N Same !
$ ------------------------------------------------------------------------------
$
 ASSESSED_SYSTEM
  RE-W(TDB -* +LIQUID +BCC_A2 +HCP_A3 +CHI_A12 +SIGMA_D8B
  ;P3 TMM:1000/4000 *) !
$
$
 LIST-OF-REFERENCE
 NUMBER  SOURCE
  Null   'Unknown source'
  Same   'Same or similar interaction as in the corresponding stable phase'
  REFLAV 'Laves phase convention: G(LAVES,X:X)=+3*GHSERXX+15000'
  91Din  'A.T. Dinsdale, Calphad, 15, 317-425(1991).'
  96Arb  'J.W. Arblaster, Calphad, 20, 343-52(1996),
          SGTE unary database V.3.0, 1996; Re'
  00Liu  'Z.-K. Liu, Y.A. Chang, J. Alloys Compd., 299, 153-62(2000); Re-W'
  01SGUN 'SGTE unary database V.4.4, 2001.'
!
