$
$ Database for Ru-Ti from J. Liu et al. 2021.
$
$ J. Liu, C. Zhou, H. Wang, Calphad, 72, 102239(2021).
$
$ Dataset created 2021.05.02 by Bengt Hallstedt.
$
$ Modified from 09Gao.
$
$ Va are included in the bcc/B2 model in the paper, but they are not needed
$ here.
$
$ There are far too many (and too large) parameters for the B2 phase.
$
$ ------------------------------------------------------------------------------
 TEMP-LIM 298.15 6000.00 !
$
$ELEMENT NAME  REF. STATE               ATOMIC MASS H298-H0    S298    !
$
 ELEMENT VA   VACUUM                      0.0          0.0      0.0    ! 
 ELEMENT RU   HCP_A3                    101.07      4602.4     28.6144 ! 
 ELEMENT TI   HCP_A3                     47.88      4824.      30.72   ! 
$ ------------------------------------------------------------------------------
$ Phase definitions
$
 PHASE LIQUID:L % 1 1 !
 CONST LIQUID:L : RU TI : !
$
$ Fcc (cF4, Fm-3m) and MeX (cF8, Fm-3m)
$
 PHASE FCC_A1 %A 2 1 1 !
 CONST FCC_A1 : RU TI : VA : !
$
$ Bcc (cI2, Im-3m)
$
 PHASE BCC_A2 %B 2 1 3 !
 CONST BCC_A2 : RU TI% : VA : !
$
$ Disordered part of B2_BCC, identical to BCC_A2
$
 PHASE A2_BCC %B 2 1 3 !
 CONST A2_BCC : RU TI% : VA : !
$
$ Prototype CsCl (cP2, Pm-3m)
$
 PHASE B2_BCC %BO 3 0.5 0.5 3 !
 CONST B2_BCC : RU% TI : RU TI% : VA : !
$
$ Hcp (hP2, P6_3/mmc) and Me2X (NiAs-type, hP4, P6_3/mmc, B8_1)
$
 PHASE HCP_A3 %A 2 1 0.5 !
 CONST HCP_A3 : RU% TI% : VA : !
$ ------------------------------------------------------------------------------
$ Defaults
$
 DEFINE-SYSTEM-DEFAULT ELEMENT 2 !
 DEFAULT-COM DEFINE_SYSTEM_ELEMENT VA !
 DEFAULT-COM REJECT_PHASE BCC_A2 !
 TYPE-DEF % SEQ * !
 TYPE-DEF A GES AMEND_PHASE_DESCRIPTION @ MAGNETIC -3 0.28 !
 TYPE-DEF B GES AMEND_PHASE_DESCRIPTION @ MAGNETIC -1 0.4 !
 TYPE-DEF O GES AMEND_PHASE_DESCRIPTION B2_BCC DIS_PART A2_BCC !
 FUNCTION ZERO      298.15  0;                                         6000 N !
 FUNCTION UN_ASS    298.15  0;                                         6000 N !
 FUNCTION R         298.15  +8.31451;                                  6000 N !
$ ------------------------------------------------------------------------------
$ Element data
$ ------------------------------------------------------------------------------
$ Ru
$
$ BCC_A2 revised in unary 4.4
$
 PAR  G(HCP_A3,RU:VA),,                 +GHSERRU;                4500 N 91Din !
 PAR  G(FCC_A1,RU:VA),,                 +GHSERRU+12500-2.4*T;    4500 N 91Din !
 PAR  G(BCC_A2,RU:VA),,                 +GHSERRU+21500-5.05*T;   4500 N 01SGUN !
 PAR  G(A2_BCC,RU:VA),,                 +GHSERRU+21500-5.05*T;   4500 N 01SGUN !
 PAR  G(LIQUID,RU),,                    +GLIQRU;                 4500 N 91Din !
$
 FUNCTION GHSERRU   298.15  -7561.873+127.866233*T-22.9143287*T*LN(T)
       -0.004062566*T**2+1.7641E-07*T**3+56377*T**(-1);
      1500.00  Y  -59448.103+489.516214*T-72.3241219*T*LN(T)
       +0.018726245*T**2-1.952433E-06*T**3+11063885*T**(-1);
      2607.00  Y  -38588773+168610.517*T-21329.705*T*LN(T)
       +5.221639*T**2-2.40245985E-04*T**3+1.30829926E+10*T**(-1);
      2740.00  Y  -55768.304+364.482314*T-51.8816*T*LN(T);
      4500.00  N !
 FUNCTION GLIQRU    298.15  +27480.616-8.398748*T+GHSERRU;
       800.00  Y  +50827.232-179.818561*T+19.539341*T*LN(T)
       -0.026524167*T**2+1.667839E-06*T**3-3861125*T**(-1);
      2607.00  Y  -17161.807+349.673561*T-51.8816*T*LN(T);
      4500.00  N !
$ ------------------------------------------------------------------------------
$ Ti
$
$ BCT_A5 added in unary 3.0
$
 PAR  G(HCP_A3,TI:VA),,                 +GHSERTI;                4000 N 91Din !
 PAR  G(BCC_A2,TI:VA),,                 +GBCCTI;                 4000 N 91Din !
 PAR  G(A2_BCC,TI:VA),,                 +GBCCTI;                 4000 N 91Din !
 PAR  G(FCC_A1,TI:VA),,                 +GHSERTI+6000-0.1*T;     4000 N 91Din !
$PAR  G(DIAMOND_A4,TI),,                +GHSERTI+25000;          4000 N 91Din !
$PAR  G(BCT_A5,TI),,                    +GHSERTI+4602.2;         3000 N SGCOST !
$PAR  G(CBCC_A12,TI:VA),,               +GHSERTI+4602.2;         4000 N 91Din !
$PAR  G(CUB_A13,TI:VA),,                +GHSERTI+7531.2;         4000 N 91Din !
 PAR  G(LIQUID,TI),,                    +GLIQTI;                 4000 N 91Din !
$
 FUNCTION GHSERTI   298.15  -8059.921+133.615208*T-23.9933*T*LN(T)
       -0.004777975*T**2+1.06716E-07*T**3+72636*T**(-1);
       900.00  Y  -7811.815+132.988068*T-23.9887*T*LN(T)
       -0.0042033*T**2-9.0876E-08*T**3+42680*T**(-1);
      1155.00  Y  +908.837+66.976538*T-14.9466*T*LN(T)
       -0.0081465*T**2+2.02715E-07*T**3-1477660*T**(-1);
      1941.00  Y  -124526.786+638.806871*T-87.2182461*T*LN(T)
       +0.008204849*T**2-3.04747E-07*T**3+36699805*T**(-1);
      4000.00  N !
 FUNCTION GBCCTI    298.15  -1272.064+134.71418*T-25.5768*T*LN(T)
       -6.63845E-04*T**2-2.78803E-07*T**3+7208*T**(-1);
      1155.00  Y  +6667.385+105.366379*T-22.3771*T*LN(T)
       +0.00121707*T**2-8.4534E-07*T**3-2002750*T**(-1);
      1941.00  Y  +26483.26-182.426471*T+19.0900905*T*LN(T)
       -0.02200832*T**2+1.228863E-06*T**3+1400501*T**(-1);
      4000.00  N !
 FUNCTION GLIQTI    298.15  +12194.415-6.980938*T+GHSERTI;
      1300.00  Y  +369519.198-2554.0225*T+342.059267*T*LN(T)
       -0.163409355*T**2+1.2457117E-05*T**3-67034516*T**(-1);
      1941.00  Y  -19887.066+298.7367*T-46.29*T*LN(T);
      4000.00  N !
 FUNCTION GFCCTI    298.15  +GHSERTI+6000-0.1*T;                       4000 N !
$ ------------------------------------------------------------------------------
$ Binary system
$
$ J. Liu, C. Zhou, H. Wang, Calphad, 72, 102239(2021).
$
$ Checked against paper and author's tdb. Checked at 6000 K.
$
$ Modified from 09Gao.
$
$ Va are included in the bcc/B2 model in the paper, but they are not needed
$ here.
$
$ There are far too many (and too large) parameters for the B2 phase.
$
 PAR  L(LIQUID,RU,TI;0),,               -161750.8+10.9043*T;,,        N 21Liu !
 PAR  L(LIQUID,RU,TI;1),,               +35845.2+3.3196*T;,,          N 21Liu !
$
 PAR  L(BCC_A2,RU,TI:VA;0),,            -186594.6+21.894*T;,,         N 21Liu !
 PAR  L(BCC_A2,RU,TI:VA;1),,            +91570.9-27.7947*T;,,         N 21Liu !
 PAR  L(BCC_A2,RU,TI:VA;2),,            +15410.9;,,                   N 09Gao !
$
 PAR  L(A2_BCC,RU,TI:VA;0),,            -186594.6+21.894*T;,,         N 21Liu !
 PAR  L(A2_BCC,RU,TI:VA;1),,            +91570.9-27.7947*T;,,         N 21Liu !
 PAR  L(A2_BCC,RU,TI:VA;2),,            +15410.9;,,                   N 09Gao !
$
 PAR  L(HCP_A3,RU,TI:VA;0),,            -145857.7+25.6282*T;,,        N 21Liu !
 PAR  L(HCP_A3,RU,TI:VA;1),,            +6731.2;,,                    N 09Gao !
$
 PAR  G(B2_BCC,RU:TI:VA),,              -67993.7+16.6704*T;,,         N 21Liu !
 PAR  G(B2_BCC,TI:RU:VA),,              -67993.7+16.6704*T;,,         N 21Liu !
 PAR  L(B2_BCC,RU,TI:RU:VA;0),,         -31603.8+30.3575*T;,,         N 21Liu !
 PAR  L(B2_BCC,RU:RU,TI:VA;0),,         -31603.8+30.3575*T;,,         N 21Liu !
 PAR  L(B2_BCC,RU,TI:RU:VA;1),,         -28438.9;,,                   N 09Gao !
 PAR  L(B2_BCC,RU:RU,TI:VA;1),,         -28438.9;,,                   N 09Gao !
 PAR  L(B2_BCC,RU,TI:TI:VA;0),,         +65011.9-38.7287*T;,,         N 21Liu !
 PAR  L(B2_BCC,TI:RU,TI:VA;0),,         +65011.9-38.7287*T;,,         N 21Liu !
 PAR  L(B2_BCC,RU,TI:TI:VA;1),,         +75595.3;,,                   N 09Gao !
 PAR  L(B2_BCC,TI:RU,TI:VA;1),,         +75595.3;,,                   N 09Gao !
 PAR  L(B2_BCC,RU,TI:TI:VA;2),,         -23023.6-40.8687*T;,,         N 09Gao !
 PAR  L(B2_BCC,TI:RU,TI:VA;2),,         -23023.6-40.8687*T;,,         N 09Gao !
$
$ metastable
$
 PAR  L(FCC_A1,RU,TI:VA;0),,            -145857.7+25.6282*T;,,        N Same !
 PAR  L(FCC_A1,RU,TI:VA;1),,            +6731.2;,,                    N Same !
$ ------------------------------------------------------------------------------
$
$
 LIST-OF-REFERENCE
 NUMBER  SOURCE
  Null   'Unknown source'
  Same   'Same or similar interaction as in the corresponding stable phase'
  REFLAV 'Laves phase convention: G(LAVES,X:X)=+3*GHSERXX+15000'
  SGCOST 'COST 507 database, SGTE unary database V.3.0, 1996; Al, B, Nd, Ti, Zn'
  91Din  'A.T. Dinsdale, Calphad, 15, 317-425(1991).'
  01SGUN 'SGTE unary database V.4.4, 2001.'
  09Gao  'Y. Gao, C. Guo, C. Li, S. Cui, Z. Du,
          J. Alloys Compd., 479, 148-51(2009); Ru-Ti'
  21Liu  'J. Liu, C. Zhou, H. Wang, Calphad, 72, 102239(2021); Ru-Ti'
!
