$
$ Database for Si-C from S.-M. Liang et al. 2017
$
$ S.-M. Liang, M. Drue, A. Kozlov, M. Rettenmayr, R. Schmid-Fetzer,
$ J. Alloys Compd., 698, 743-53(2017).
$
$ Dataset created 2016.12.12 by Bengt Hallstedt.
$ 2021.02.05: Modified for use with GES6.
$
$ Based on the assessment from 96Gro.
$
$ If BCC_A2 is included, it is stable from 3300 to 5200 K at about SiC
$ composition.
$
$ CBCC_A12 and CUB_A13 parameters should probably be removed.
$
$ The GAS is quite a bit more stable than the GAS included in 17Lia2.
$
$ The thermodynamic properties of alpha-SiC (2H) and beta-SiC (3C) have been
$ evaluated by C. Varadachari and R. Bhowmick (Modelling Simul. Mater. Sci.
$ Eng., 17 (2009) 075006). According to this beta-Sic is about 1 kJ/mol-atoms
$ more stable than alpha-Sic at all temperatures. These data should be used
$ for future evaluation.
$
$ ------------------------------------------------------------------------------
 TEMP-LIM 298.15 6000.00 !
$
$ELEMENT NAME  REF. STATE               ATOMIC MASS H298-H0    S298    !
$
 ELEMENT VA   VACUUM                      0.0          0.0      0.0    ! 
 ELEMENT C    GRAPHITE                   12.011     1054.0      5.7423 ! 
 ELEMENT SI   DIAMOND_A4                 28.0855    3217.      18.81   ! 
$ ------------------------------------------------------------------------------
$ Species
$
 SPECIE  C2                                 C2 !
 SPECIE  C3                                 C3 !
 SPECIE  C4                                 C4 !
 SPECIE  C5                                 C5 !
 SPECIE  C60                                C60 !
 SPECIE  SI2                                SI2 !
 SPECIE  SI3                                SI3 !
 SPECIE  SIC                                SI1C1 !
 SPECIE  SIC2                               SI1C2 !
 SPECIE  SI2C                               SI2C1 !
$ ------------------------------------------------------------------------------
$ Phase definitions
$
 PHASE LIQUID:L % 1 1 !
 CONST LIQUID:L : C SI : !
$
$ Fcc (cF4, Fm-3m) and MeX (cF8, Fm-3m)
$
 PHASE FCC_A1 %A 2 1 1 !
 CONST FCC_A1 : SI : C VA% : !
$
$ Bcc (cI2, Im-3m)
$
 PHASE BCC_A2 %B 2 1 3 !
 CONST BCC_A2 : SI : C VA% : !
$
$ Hcp (hP2, P6_3/mmc) and Me2X (NiAs-type, hP4, P6_3/mmc, B8_1)
$
 PHASE HCP_A3 % 2 1 0.5 !
 CONST HCP_A3 : SI : C VA% : !
$
$ Prototype C (cF8, Fd-3m)
$
 PHASE DIAMOND_A4 % 1 1 !
 CONST DIAMOND_A4 : C SI% : !
$
$ Prototype C (hP4, P6_3/mmc)
$
 PHASE GRAPHITE_A9 % 1 1 !
 CONST GRAPHITE_A9 : C : !
$
$ Prototype ZnS (cF8, F-43m)
$
 PHASE SIC_B3 % 2 1 1 !
 CONST SIC_B3 : SI : C : !
$
 PHASE GAS:G % 1 1 !
 CONST GAS:G : C C2 C3 C4 C5 C60 SI SI2 SI3 SIC SIC2 SI2C : !
$ ------------------------------------------------------------------------------
$ Defaults
$
 DEFINE-SYSTEM-DEFAULT ELEMENT 2 !
 DEFAULT-COM DEFINE_SYSTEM_ELEMENT VA !
 DEFAULT-COM REJECT_PHASE BCC_A2 GAS !
 TYPE-DEF % SEQ * !
 TYPE-DEF A GES AMEND_PHASE_DESCRIPTION @ MAGNETIC -3 0.28 !
 TYPE-DEF B GES AMEND_PHASE_DESCRIPTION @ MAGNETIC -1 0.4 !
 FUNCTION ZERO      298.15  0;                                         6000 N !
 FUNCTION UN_ASS    298.15  0;                                         6000 N !
 FUNCTION R         298.15  +8.31451;                                  6000 N !
 FUNCTION RTLNP     298.15  +8.31451*T*LN(1E-05*P);                    6000 N !
$ ------------------------------------------------------------------------------
$ Element data
$ ------------------------------------------------------------------------------
$ C
$
 PAR  G(GRAPHITE_A9,C),,                +GHSERCC;,,                   N 91Din !
 PAR  G(DIAMOND_A4,C),,                 +GDIACC;,,                    N 91Din !
 PAR  G(LIQUID,C),,                     +GHSERCC+117369-24.63*T;,,    N 91Din !
$
 PAR  G(GAS,C),,                        +F3880T+RTLNP;,,              N 97SUB !
 PAR  G(GAS,C2),,                       +F4635T+RTLNP;,,              N 97SUB !
 PAR  G(GAS,C3),,                       +F5109T+RTLNP;,,              N 97SUB !
 PAR  G(GAS,C4),,                       +F5190T+RTLNP;,,              N 97SUB !
 PAR  G(GAS,C5),,                       +F5273T+RTLNP;,,              N 97SUB !
 PAR  G(GAS,C60),,                      +F3869T+RTLNP;,,              N 97SUB !
$
 FUNCTION GHSERCC   298.15  -17368.441+170.73*T-24.3*T*LN(T)
       -4.723E-04*T**2+2562600*T**(-1)-2.643E+08*T**(-2)+1.2E+10*T**(-3);
      6000.00  N !
 FUNCTION GDIACC    298.15  -16359.441+175.61*T-24.31*T*LN(T)
       -4.723E-04*T**2+2698000*T**(-1)-2.61E+08*T**(-2)+1.11E+10*T**(-3);
      6000.00  N !
$ C(g)
 FUNCTION F3880T    298.15  +710430.933-17.7062915*T-20.97529*T*LN(T)
       +1.998237E-04*T**2-3.34617167E-08*T**3+1680.6515*T**(-1);
      3400.00  Y  +698015.711+2.57175229*T-23.05071*T*LN(T)
       -6.04604E-05*T**2+6.74291667E-10*T**3+8558245*T**(-1);
     10000.00  Y  +736197.571-32.7975305*T-19.44529*T*LN(T)
       -1.5396035E-04*T**2-6.15402167E-11*T**3-56188350*T**(-1);
     20000.00  N !
$ C2(g)
 FUNCTION F4635T    298.15  +803005.137+419.91537*T-97.48141*T*LN(T)
       +0.08202995*T**2-1.97357E-05*T**3+690749.5*T**(-1);
       500.00  Y  +826732.963-2.78396986*T-30.08349*T*LN(T)
       -0.002621389*T**2+8.30959667E-08*T**3-868501*T**(-1);
      4300.00  Y  +850321.492-26.7776258*T-27.96957*T*LN(T)
       -0.0019408995*T**2+3.222655E-08*T**3-22380050*T**(-1);
     12000.00  Y  +409662.375+520.538141*T-86.66656*T*LN(T)
       +0.0015642485*T**2-7.28093667E-09*T**3+6.04612E+08*T**(-1);
     20000.00  N !
$ C3(g)
 FUNCTION F5109T    298.15  +829826.554-14.7696342*T-32.21563*T*LN(T)
       -0.014548565*T**2+1.77806833E-06*T**3-100277.6*T**(-1);
      1000.00  Y  +809388.443+179.252911*T-59.93982*T*LN(T)
       +0.0025413955*T**2-2.54139667E-07*T**3+2769455*T**(-1);
      2800.00  Y  +959399.017-367.175864*T+7.286391*T*LN(T)
       -0.010483215*T**2+2.00694833E-07*T**3-58720050*T**(-1);
      5100.00  Y  +645204.419+237.848567*T-60.73106*T*LN(T)
       -0.0047721765*T**2+1.3846755E-07*T**3+1.945987E+08*T**(-1);
      8000.00  Y  -79243.2065+1580.271*T-211.8741*T*LN(T)
       +0.009202285*T**2-1.030498E-07*T**3+8.44019E+08*T**(-1);
     10000.00  N !
$ C4(g)
 FUNCTION F5190T    298.15  +1015583.43+114.927797*T-53.39543*T*LN(T)
       -0.01399763*T**2+8.26027167E-07*T**3+181008.25*T**(-1);
      2500.00  Y  +937071.116+522.054722*T-106.1735*T*LN(T)
       +0.0016641645*T**2-4.03015E-08*T**3+21906740*T**(-1);
      7000.00  Y  +974994.002+406.652033*T-92.4518*T*LN(T)
       -2.6888155E-04*T**2+7.07303167E-09*T**3+7587140*T**(-1);
     10000.00  N !
$ C5(g)
 FUNCTION F5273T    298.15  +1028316.51+169.994577*T-62.97185*T*LN(T)
       -0.0317015*T**2+4.09694E-06*T**3+186275.3*T**(-1);
       900.00  Y  +999750.246+470.150389*T-106.5965*T*LN(T)
       -0.0014783715*T**2+7.07236167E-08*T**3+3747842.5*T**(-1);
      3500.00  Y  +990603.917+513.736613*T-112.1708*T*LN(T)
       -6.611165E-06*T**2+1.10554567E-10*T**3+6565820*T**(-1);
     10000.00  N !
$ C60(g)
 FUNCTION F3869T    298.15  +2466802.51+88.4522291*T+10.293*T*LN(T)
       -1.15472*T**2+1.77008333E-04*T**3+4621630*T**(-1);
       800.00  Y  +1709986.12+9262.2894*T-1356.31*T*LN(T)
       -0.0366229*T**2+1.98371667E-06*T**3+84578000*T**(-1);
      3300.00  N !
$ ------------------------------------------------------------------------------
$ Si
$
 PAR  G(DIAMOND_A4,SI),,                +GHSERSI;                3600 N 91Din !
 PAR  G(FCC_A1,SI:VA),,                 +GHSERSI+51000-21.8*T;   3600 N 91Din !
 PAR  G(BCC_A2,SI:VA),,                 +GHSERSI+47000-22.5*T;   3600 N 91Din !
 PAR  G(HCP_A3,SI:VA),,                 +GHSERSI+49200-20.8*T;   3600 N 91Din !
$PAR  G(CBCC_A12,SI:VA),,               +GHSERSI+50208-20.377*T; 3600 N 91Din !
$PAR  G(CUB_A13,SI:VA),,                +GHSERSI+47279-20.377*T; 3600 N 91Din !
 PAR  G(LIQUID,SI),,                    +GLIQSI;                 3600 N 91Din !
$
 PAR  G(GAS,SI),,                       +F8197T+RTLNP;,,              N 90SUB !
 PAR  G(GAS,SI2),,                      +F8227T+RTLNP;,,              N 90SUB !
 PAR  G(GAS,SI3),,                      +F8245T+RTLNP;,,              N 90SUB !
$
 FUNCTION GHSERSI   298.15  -8162.609+137.236859*T-22.8317533*T*LN(T)
       -0.001912904*T**2-3.552E-09*T**3+176667*T**(-1);
      1687.00  Y  -9457.642+167.281367*T-27.196*T*LN(T)-4.20369E+30*T**(-9);
      3600.00  N !
 FUNCTION GLIQSI    298.15  +50696.36-30.099439*T+GHSERSI+2.09307E-21*T**7;
      1687.00  Y  +40370.523+137.722298*T-27.196*T*LN(T);
      3600.00  N !
 FUNCTION GBCCSI    298.15  +GHSERSI+47000-22.5*T;               3600 N 91Din !
$ Si(g)
 FUNCTION F8197T    298.15  +444772.786-60709.2124*T**(-1)-27.6547439*T
       -21.0681554*T*LN(T)+3.99285396E-04*T**2-9.9554096E-08*T**3;
      2000.00  Y  +444116.957+762762.028*T**(-1)-38.3214094*T
       -19.3609998*T*LN(T)-9.76258996E-04*T**2+4.14151845E-08*T**3;
      4000.00  Y  +400678.285+22825602.8*T**(-1)+96.3062503*T
       -35.5990619*T*LN(T)+0.00175586581*T**2-4.58426236E-08*T**3;
      6000.00  N !
$ Si2(g)
 FUNCTION F8227T    298.15  +580605.171-8227.81508*T**(-1)-31.8482492*T
       -28.7155033*T*LN(T)-0.0094705886*T**2+1.76928808E-07*T**3;
       600.00  Y  +576928.698+444960.032*T**(-1)-3.54867845*T
       -32.2831164*T*LN(T)-0.0114310436*T**2+1.75212671E-06*T**3;
      1200.00  Y  +565230.011+1453776.82*T**(-1)+139.106857*T
       -53.3225696*T*LN(T)+0.00393279264*T**2-2.42637831E-07*T**3;
      2600.00  Y  +583134.867-3023002.76*T**(-1)+39.6531838*T
       -40.3154759*T*LN(T)-1.64330156E-04*T**2-5.40281315E-09*T**3;
      6000.00  N !
$ Si3(g)
 FUNCTION F8245T    298.15  +616635.909+234142.916*T**(-1)+129.920395*T
       -58.7282976*T*LN(T)-0.00312912992*T**2+5.00836655E-07*T**3;
      1000.00  Y  +614516.828+384664.408*T**(-1)+160.460124*T
       -63.3670984*T*LN(T)+9.95168584E-04*T**2-1.50930827E-07*T**3;
      2900.00  Y  +630336.932-1798745.53*T**(-1)+58.7146891*T
       -49.9352032*T*LN(T)-0.00334104952*T**2+9.15842733E-08*T**3;
      6000.00  N !
$ ------------------------------------------------------------------------------
$ Binary system
$
$ S.-M. Liang, M. Drue, A. Kozlov, M. Rettenmayr, R. Schmid-Fetzer,
$ J. Alloys Compd., 698, 743-53(2017).
$
$ Based on the assessment from 96Gro.
$
$ Checked against paper and author's tdb. Checked at 6000 K.
$
$ If BCC_A2 is included, it is stable from 3300 to 5200 K at about SiC
$ composition.
$
$ CBCC_A12 and CUB_A13 parameters should probably be removed.
$
$ The GAS is quite a bit more stable than the GAS included in 17Lia2.
$
 PAR  L(LIQUID,C,SI;0),,                +14000;,,                     N 17Lia2 !
$
 PAR  L(DIAMOND_A4,C,SI;0),,            +98500;,,                     N 17Lia2 !
$
 PAR  G(SIC_B3,SI:C),,                  -80797.31+280*T-42.59*T*LN(T)
             -0.0041850*T**2+2.1E-07*T**3+831000*T**(-1);,,           N 17Lia2 !
$
 PAR  G(GAS,SIC),,                      +F4595T+RTLNP;,,              N 97SUB !
 PAR  G(GAS,SIC2),,                     +F5093T+RTLNP;,,              N 97SUB !
 PAR  G(GAS,SI2C),,                     +F4600T+RTLNP;,,              N 97SUB !
$
$ Metastable
$
 PAR  G(FCC_A1,SI:C),,                  +GHSERSI+GHSERCC
             -20510+38.7*T;,,                                         N 91Lac !
 PAR  G(BCC_A2,SI:C),,                  +GBCCSI+3*GHSERCC
             +322050-75.667*T;,,                                      N 91Lac !
 PAR  G(HCP_A3,SI:C),,                  +UN_ASS;,,                    N !
$PAR  G(CBCC_A12,SI:C),,                +1000000+566.0326*T
$            -85.955678*T*LN(T)-0.007814909*T**2+3.7239E-07*T**3
$            +1688653*T**(-1);,,                                      N 89NPL !
$PAR  G(CUB_A13,SI:C),,                 +1000000+566.0326*T
$            -85.955678*T*LN(T)-0.007814909*T**2+3.7239E-07*T**3
$            +1688653*T**(-1);,,                                      N 89NPL !
$
$ SiC(g)
 FUNCTION F4595T    298.15  +725601.421-32.1284996*T-28.29004*T*LN(T)
       -0.00726013*T**2+9.80463333E-07*T**3+47778.095*T**(-1);
       800.00  Y  +725038.857-15.1074165*T-31.09713*T*LN(T)
       -0.0034762805*T**2+1.66206967E-07*T**3+9681.02*T**(-1);
      3300.00  Y  +717535.732+42.4826917*T-38.7544*T*LN(T)
       -9.905315E-04*T**2+3.34080833E-08*T**3-387715.3*T**(-1);
      6000.00  N !
$ SiC2(g)
 FUNCTION F5093T    298.15  +601698.193+30.3505465*T-38.29322*T*LN(T)
       -0.017498075*T**2+2.59693167E-06*T**3+76755.05*T**(-1);
       800.00  Y  +590844.296+161.779951*T-57.87267*T*LN(T)
       -0.001452758*T**2+7.39996167E-08*T**3+1227098*T**(-1);
      1800.00  Y  +594043.494+172.87365*T-59.98141*T*LN(T)
       +0.0010505585*T**2-2.16247333E-07*T**3-815564*T**(-1);
      3400.00  Y  +689208.205-242.138825*T-7.672787*T*LN(T)
       -0.011235315*T**2+3.10229E-07*T**3-31338790*T**(-1);
      6000.00  N !
$ Si2C(g)
 FUNCTION F4600T    298.15  +539739.005+23.8531953*T-41.27413*T*LN(T)
       -0.01401768*T**2+2.25791333E-06*T**3+138150.7*T**(-1);
       800.00  Y  +530862.204+134.046942*T-57.76428*T*LN(T)
       -8.784E-05*T**2+3.04671667E-09*T**3+1054468.5*T**(-1);
      6000.00  N !
$ ------------------------------------------------------------------------------
$
 ASSESSED_SYSTEM
  C-SI(TDB -* +LIQ +DIAM +GRAPH +SIC_B3 ;P3 TMM:300/5000 STP:.99/1690/-2) !
$
$
 LIST-OF-REFERENCE
 NUMBER  SOURCE
  Null   'Unknown source'
  89NPL  'NPL, unpublished, 1989; Mn-Si-C'
  90SUB  'SGTE Substance Database, version 1990'
  91Din  'A.T. Dinsdale, Calphad, 15, 317-425(1991).'
  91Lac  'J. Lacaze, B. Sundman,
          Metall. Mater. Trans. A, 22A, 2211-23(1991); Fe-Si-C'
  96Gro  'J. Groebner, H.L. Lukas, F. Aldinger, Calphad, 20, 247-54(1996); Si-C'
  97SUB  'SGTE substance database, version 1997'
  17Lia2 'S.-M. Liang, M. Drue, A. Kozlov, M. Rettenmayr, R. Schmid-Fetzer,
          J. Alloys Compd., 698, 743-53(2017); Si-C'
!
