$
$ Database for Cu-Ga from D. Jendrzejczyk-Handzlik et al. 2015.
$
$ D. Jendrzejczyk-Handzlik, K. Fitzner, W. Gierlotka,
$ J. Alloys. Compd., 621, 287-94(2015).
$
$ Dataset created 2018.06.21 by Bengt Hallstedt.
$ 2020.12.26: Modified for use with GES6.
$
$ The modelling is similar to 08Li and their models for the gamma phases were
$ adopted. Although new experimental data are used, this modelling is not
$ an improvement compared to 08Li.
$
$ There is an inverse miscibility gap with a minimum at 3838 K and x(Ga)=0.57.
$
$ ------------------------------------------------------------------------------
 TEMP-LIM 298.15 6000.00 !
$
$ELEMENT NAME  REF. STATE               ATOMIC MASS H298-H0    S298    !
$
 ELEMENT VA   VACUUM                      0.0          0.0      0.0    ! 
 ELEMENT CU   FCC_A1                     63.546     5004.      33.15   !
 ELEMENT GA   ORTHORHOMBIC_GA            69.72      5572.0     40.7271 ! 
$ ------------------------------------------------------------------------------
$ Phase definitions
$
 PHASE LIQUID:L % 1 1 !
 CONST LIQUID:L : CU GA : !
$
$ Fcc (cF4, Fm-3m) and MeX (cF8, Fm-3m)
$
 PHASE FCC_A1 %A 2 1 1 !
 CONST FCC_A1 : CU% GA : VA : !
$
$ Bcc (cI2, Im-3m)
$
 PHASE BCC_A2 %B 2 1 3 !
 CONST BCC_A2 : CU GA : VA : !
$
$ Hcp (hP2, P6_3/mmc) and Me2X (NiAs-type, hP4, P6_3/mmc, B8_1)
$
 PHASE HCP_A3 %A 2 1 0.5 !
 CONST HCP_A3 : CU GA : VA : !
$
$ alpha-Ga (oC8, Cmca)
$
 PHASE ORTHORHOMBIC_A11 % 1 1 !
 CONST ORTHORHOMBIC_A11 : GA : !
$
$ Prototype CdMg3 (hP8, P6_3/mmc), zeta-prime
$
 PHASE CU3GA_D019 % 2 0.778 0.222 !
 CONST CU3GA_D019 : CU : GA : !
$
$ Prototype Al4Cu9 (cP52, P-43m), gamma-1/gamma-0
$
 PHASE CUGA_GAM_1 % 4 6 3 3 1 !
 CONST CUGA_GAM_1 : CU : CU GA : CU GA : GA : !
$
$ Prototype Al4Cu9 (cP52, P-43m), gamma-2
$
 PHASE CUGA_GAM_2 % 4 3 3 3 4 !
 CONST CUGA_GAM_2 : CU : CU VA : CU GA : GA : !
$
$ Prototype Al4Cu9 (cP52, P-43m), gamma-3
$
 PHASE CUGA_GAM_3 % 3 6 3 4 !
 CONST CUGA_GAM_3 : CU VA : CU GA : GA : !
$
$ Prototype FeSi2-l (tP3, P4/mmm), epsilon
$
 PHASE CUGA2 % 2 1 2 !
 CONST CUGA2 : CU : GA : !
$ ------------------------------------------------------------------------------
$ Defaults
$
 DEFINE-SYSTEM-DEFAULT ELEMENT 2 !
 DEFAULT-COM DEFINE_SYSTEM_ELEMENT VA !
 TYPE-DEF % SEQ * !
 TYPE-DEF A GES AMEND_PHASE_DESCRIPTION @ MAGNETIC -3 0.28 !
 TYPE-DEF B GES AMEND_PHASE_DESCRIPTION @ MAGNETIC -1 0.4 !
 FUNCTION ZERO      298.15  0;                                         6000 N !
 FUNCTION UN_ASS    298.15  0;                                         6000 N !
 FUNCTION R         298.15  +8.31451;                                  6000 N !
$ ------------------------------------------------------------------------------
$ Element data
$ ------------------------------------------------------------------------------
$ Cu
$
$ BCT_A5 from 00Moo not included in unary
$ CBCC_A12 and CUB_A13 not included in unary
$
 PAR  G(FCC_A1,CU:VA),,                 +GHSERCU;                3200 N 91Din !
 PAR  G(BCC_A2,CU:VA),,                 +GHSERCU+4017-1.255*T;   3200 N 91Din !
 PAR  G(HCP_A3,CU:VA),,                 +GHSERCU+600+0.2*T;      3200 N 91Din !
$PAR  G(BCT_A5,CU),,                    +GHSERCU+4184;           3200 N 00Moo !
$PAR  G(CBCC_A12,CU:VA),,               +GHSERCU+3556;           2000 N 03Mie2 !
$PAR  G(CUB_A13,CU:VA),,                +GHSERCU+2092;           2000 N 03Mie2 !
 PAR  G(LIQUID,CU),,                    +GLIQCU;                 3200 N 91Din !
$
 FUNCTION GHSERCU   298.15  -7770.458+130.485235*T-24.112392*T*LN(T)
       -0.00265684*T**2+1.29223E-07*T**3+52478*T**(-1);
      1357.77  Y  -13542.026+183.803828*T-31.38*T*LN(T)+3.64167E+29*T**(-9);
      3200.00  N !
 FUNCTION GLIQCU    298.15  +12964.735-9.511904*T+GHSERCU-5.8489E-21*T**7;
      1357.77  Y  -46.545+173.881484*T-31.38*T*LN(T);
      3200.00  N !
 FUNCTION GBCCCU    298.15  +GHSERCU+4017-1.255*T;                     3200 N !
$ ------------------------------------------------------------------------------
$ Ga
$
$ DIAMOND_A4 added in unary 5.0
$
$ Changed name from ORTHORHOMBIC_GA to ORTHORHOMBIC_A11
$
 PAR  G(ORTHORHOMBIC_A11,GA)    200.00  +GHSERGA;                4000 N 91Din !
 PAR  G(FCC_A1,GA:VA)           200.00  +GHSERGA+3800-10.2*T;    4000 N 91Din !
 PAR  G(BCC_A2,GA:VA)           200.00  +GHSERGA+4500-11.7*T;    4000 N 91Din !
 PAR  G(HCP_A3,GA:VA)           200.00  +GHSERGA+4500-9.5*T;     4000 N 91Din !
$PAR  G(DIAMOND_A4,GA)          200.00  +GHSERGA+20900-2*T;      4000 N 09SGUN !
$PAR  G(BCT_A5,GA)              200.00  +GHSERGA+3846-9.8*T;     4000 N 91Din !
$PAR  G(TETRAGONAL_A6,GA)       200.00  +GHSERGA+3500-10*T;      4000 N 91Din !
 PAR  G(LIQUID,GA)              200.00  +GLIQGA;                 4000 N 91Din !
$
 PAR  G(CUGA_GAM_3,VA:GA:GA),,          +7*GHSERGA+50000;,,           N 08Li !
$
 FUNCTION GHSERGA   200.00  -21312.331+585.263691*T-108.228783*T*LN(T)
       +0.227155636*T**2-1.18575257E-04*T**3+439954*T**(-1);
       302.91  Y  -7055.643+132.73019*T-26.0692906*T*LN(T)
       +1.506E-04*T**2-4.0173E-08*T**3-118332*T**(-1)+1.64547E+23*T**(-9);
      4000.00  N !
 FUNCTION GLIQGA    200.00  +5491.298-18.073995*T+GHSERGA-7.0171E-17*T**7;
       302.91  Y  +5666.455-18.681147*T+GHSERGA-1.64547E+23*T**(-9);
      4000.00  N !
 FUNCTION GHCPGA    298.15  +GHSERGA+4500-9.5*T;                       6000 N !
$ ------------------------------------------------------------------------------
$ Binary system
$
$ D. Jendrzejczyk-Handzlik, K. Fitzner, W. Gierlotka,
$ J. Alloys. Compd., 621, 287-94(2015).
$
$ Checked against paper. Checked at 6000 K.
$
$ The modelling is similar to 08Li and their models for the gamma phases were
$ adopted. Although new experimental data are used, this modelling is not
$ an improvement compared to 08Li.
$
$ There is an inverse miscibility gap with a minimum at 3838 K and x(Ga)=0.57.
$
 PAR  L(LIQUID,CU,GA;0),,               -49437.4+102.82605*T
             -11.846535*T*LN(T);,,                                    N 15Jen !
 PAR  L(LIQUID,CU,GA;1),,               -94083.045+374.46608*T
             -44.081496*T*LN(T);,,                                    N 15Jen !
 PAR  L(LIQUID,CU,GA;2),,               -83026.154+437.39141*T
             -52.983933*T*LN(T);,,                                    N 15Jen !
$
 PAR  L(FCC_A1,CU,GA:VA;0),,            -30849.564+6.5948693*T;,,     N 15Jen !
 PAR  L(FCC_A1,CU,GA:VA;1),,            -42606.471+7.1880575*T;,,     N 15Jen !
$
 PAR  L(BCC_A2,CU,GA:VA;0),,            -45529.464+13.879687*T;,,     N 15Jen !
 PAR  L(BCC_A2,CU,GA:VA;1),,            -43069.495-1.0073545*T;,,     N 15Jen !
$
 PAR  L(HCP_A3,CU,GA:VA;0),,            -37724.991+4.6528745*T;,,     N 15Jen !
 PAR  L(HCP_A3,CU,GA:VA;1),,            -38974.711+9.2629479*T;,,     N 15Jen !
$
 PAR  G(CU3GA_D019,CU:GA),,             +0.778*GHSERCU+0.222*GHSERGA
             -10496.24-1.8586013*T;,,                                 N 15Jen !
$
 PAR  G(CUGA_GAM_1,CU:CU:CU:GA),,       +12*GHSERCU+GHSERGA
             +161520.14-96.363495*T;,,                                N 15Jen !
 PAR  G(CUGA_GAM_1,CU:CU:GA:GA),,       +9*GHSERCU+4*GHSERGA
             -142883.19-42.921393*T;,,                                N 15Jen !
 PAR  G(CUGA_GAM_1,CU:GA:CU:GA),,       +9*GHSERCU+4*GHSERGA
             -142883.19-42.921393*T;,,                                N 15Jen !
 PAR  G(CUGA_GAM_1,CU:GA:GA:GA),,       +6*GHSERCU+7*GHSERGA
             +24288.346-78.797829*T;,,                                N 15Jen !
 PAR  L(CUGA_GAM_1,CU:CU,GA:CU:GA;0),,  -235202.9+71.8839*T;,,        N 15Jen !
 PAR  L(CUGA_GAM_1,CU:CU:CU,GA:GA;0),,  -235202.9+71.8839*T;,,        N 15Jen !
 PAR  L(CUGA_GAM_1,CU:CU,GA:GA:GA;0),,  -244630.9+71.8839*T;,,        N 15Jen !
 PAR  L(CUGA_GAM_1,CU:GA:CU,GA:GA;0),,  -244630.9+71.8839*T;,,        N 15Jen !
 PAR  L(CUGA_GAM_1,CU:CU,GA:CU:GA;1),,  -4629.3806;,,                 N 15Jen !
 PAR  L(CUGA_GAM_1,CU:CU:CU,GA:GA;1),,  -4629.3806;,,                 N 15Jen !
 PAR  L(CUGA_GAM_1,CU:CU,GA:GA:GA;1),,  -4629.3806;,,                 N 15Jen !
 PAR  L(CUGA_GAM_1,CU:GA:CU,GA:GA;1),,  -4629.3806;,,                 N 15Jen !
$
 PAR  G(CUGA_GAM_2,CU:CU:CU:GA),,       +9*GHSERCU+4*GHSERGA
             -142835.09-42.403424*T;,,                                N 15Jen !
 PAR  G(CUGA_GAM_2,CU:CU:GA:GA),,       +6*GHSERCU+7*GHSERGA
             +24288.346-78.797829*T;,,                                N 15Jen !
 PAR  G(CUGA_GAM_2,CU:VA:CU:GA),,       +6*GHSERCU+4*GHSERGA;,,       N 15Jen !
 PAR  G(CUGA_GAM_2,CU:VA:GA:GA),,       +3*GHSERCU+7*GHSERGA;,,       N 15Jen !
 PAR  L(CUGA_GAM_2,CU:CU,VA:CU:GA;0),,  -169751.57-65.601202*T;,,     N 15Jen !
 PAR  L(CUGA_GAM_2,CU:CU,VA:GA:GA;0),,  +ZERO;,,                      N 15Jen !
 PAR  L(CUGA_GAM_2,CU:CU:CU,GA:GA;0),,  -244630.9+71.8839*T;,,        N 15Jen !
 PAR  L(CUGA_GAM_2,CU:CU:CU,GA:GA;1),,  -4629.3806;,,                 N 15Jen !
 PAR  L(CUGA_GAM_2,CU:VA:CU,GA:GA;0),,  -55501.27+205.6819*T;,,       N 15Jen !
$
 PAR  G(CUGA_GAM_3,CU:CU:GA),,          +9*GHSERCU+4*GHSERGA
             -142835.09-42.403424*T;,,                                N 15Jen !
 PAR  G(CUGA_GAM_3,CU:GA:GA),,          +6*GHSERCU+7*GHSERGA
             +24288.346-78.797829*T;,,                                N 15Jen !
 PAR  G(CUGA_GAM_3,VA:CU:GA),,          +3*GHSERCU+4*GHSERGA;,,       N 15Jen !
 PAR  L(CUGA_GAM_3,CU,VA:CU:GA;0),,     -146978.83+125.5074*T;,,      N 15Jen !
 PAR  L(CUGA_GAM_3,CU,VA:GA:GA;0),,     +ZERO;,,                      N 15Jen !
 PAR  L(CUGA_GAM_3,CU:CU,GA:GA;0),,     -244630.9+71.8839*T;,,        N 15Jen !
 PAR  L(CUGA_GAM_3,CU:CU,GA:GA;1),,     -4629.3806;,,                 N 15Jen !
 PAR  L(CUGA_GAM_3,VA:CU,GA:GA;0),,     +678.07096;,,                 N 15Jen !
$
 PAR  G(CUGA2,CU:GA),,                  +GHSERCU+2*GHSERGA
             -23433.146-10.584871*T;,,                                N 15Jen !
$ ------------------------------------------------------------------------------
$
$
 LIST-OF-REFERENCE
 NUMBER  SOURCE
  Null   'Unknown source'
  Same   'Same or similar interaction as in the corresponding stable phase'
  COST   'COST 507 database'
  91Din  'A.T. Dinsdale, Calphad, 15, 317-425(1991).'
  00Moo  'K.-W. Moon, W.J. Boettinger, U.R. Kattner, F.S. Biancaniello,
          C.A. Handwerker, J. Electron. Mater., 29, 1122-36(2000); Cu'
  03Mie2 'J. Miettinen, Calphad, 27, 103-14(2003); Cu'
  08Li   'J.-B. Li, L.N. Ji, J.K. Liang, J. Luo, C.R. Li, G.H. Rao,
          Calphad, 32, 447-53(2008); Cu-Ga'
  09SGUN 'SGTE unary database V.5.0, 2009.'
  15Jen  'D. Jendrzejczyk-Handzlik, K. Fitzner, W. Gierlotka,
          J. Alloys. Compd., 621, 287-94(2015); Cu-Ga'
!
