$
$ Database for Ge-Tm from K. Achgar et al. 2018.
$
$ K. Achgar, S. Kardellass, H. Azza, N. Selhaoui,
$ J. Therm. Anal. Calorim., 131, 2699-2707(2018).
$
$ Dataset created 2022.07.03 by Bengt Hallstedt.
$
$ Invariant equilibria differ by up to 18 K, probably because of insufficient
$ accuracy for fractional compound compositions.
$
$ ------------------------------------------------------------------------------
 TEMP-LIM 298.15 6000.00 !
$
$ELEMENT NAME  REF. STATE               ATOMIC MASS H298-H0    S298    !
$
 ELEMENT VA   VACUUM                      0.0          0.0      0.0    ! 
 ELEMENT GE   DIAMOND_A4                 72.59      4636.0     31.09   ! 
 ELEMENT TM   HCP_A3                    168.9342    7397.312   74.01496! 
$ ------------------------------------------------------------------------------
$ Phase definitions
$
 PHASE LIQUID:L % 1 1 !
 CONST LIQUID:L : GE TM : !
$
$ Fcc (cF4, Fm-3m) and MeX (cF8, Fm-3m)
$
 PHASE FCC_A1 %A 2 1 1 !
 CONST FCC_A1 : GE : VA : !
$
$ Bcc (cI2, Im-3m)
$
 PHASE BCC_A2 %B 2 1 3 !
 CONST BCC_A2 : GE : VA : !
$
$ Hcp (hP2, P6_3/mmc) and Me2X (NiAs-type, hP4, P6_3/mmc, B8_1)
$
 PHASE HCP_A3 % 2 1 0.5 !
 CONST HCP_A3 : GE TM% : VA : !
$
$ Prototype C (cF8, Fd-3m)
$
 PHASE DIAMOND_A4 % 1 1 !
 CONST DIAMOND_A4 : GE : !
$
$ Prototype Si2Zr (oC12, Cmcm)
$
 PHASE GE20TM9_C49 % 2 2 0.9 !
 CONST GE20TM9_C49 : GE : TM : !
$
$ Prototype DyGe2 (oC24, Cmc2_1)
$
 PHASE GE2TM_LT % 2 1.8 1 !
 CONST GE2TM_LT : GE : GE TM% : !
$
$ Prototype Ge1.9Tm (oP20, Pmma, 51)
$
 PHASE GE2TM_HT % 2 1.8 1 !
 CONST GE2TM_HT : GE : GE TM% : !
$
$ Prototype AlB2 (hP3, P6/mmm)
$
 PHASE GE3TM2_C32 % 2 3 2 !
 CONST GE3TM2_C32 : GE : TM : !
$
$ Prototype Er3Ge4 (oC28, Cmcm)
$
 PHASE GE5TM4 % 2 5 4 !
 CONST GE5TM4 : GE : TM : !
$
$ Prototype CrB (oC8, Cmcm)
$
 PHASE GETM_B33 % 2 1 1 !
 CONST GETM_B33 : GE : TM : !
$
$ Prototype Ge10Ho11 (tI84, I4/mmm)
$
 PHASE GE10TM11 % 2 10 11 !
 CONST GE10TM11 : GE : TM : !
$
$ Prototype Ge4Sm5 (oP36, Pnma)
$
 PHASE GE4TM5 % 2 4 5 !
 CONST GE4TM5 : GE : TM : !
$
$ Prototype Mn5Si3 (hP16, P6_3/mcm)
$
 PHASE GE3TM5_D88 % 2 3 5 !
 CONST GE3TM5_D88 : GE : TM : !
$ ------------------------------------------------------------------------------
$ Defaults
$
 DEFINE-SYSTEM-DEFAULT ELEMENT 2 !
 DEFAULT-COM DEFINE_SYSTEM_ELEMENT VA !
 TYPE-DEF % SEQ * !
 TYPE-DEF A GES AMEND_PHASE_DESCRIPTION @ MAGNETIC -3 0.28 !
 TYPE-DEF B GES AMEND_PHASE_DESCRIPTION @ MAGNETIC -1 0.4 !
 FUNCTION ZERO      298.15  0;                                         6000 N !
 FUNCTION UN_ASS    298.15  0;                                         6000 N !
 FUNCTION R         298.15  +8.31451;                                  6000 N !
$ ------------------------------------------------------------------------------
$ Element data
$ ------------------------------------------------------------------------------
$ Ge
$
$ BCT_A5 and RHOMBOHEDRAL_A7 added in unary 4.1
$
 PAR  G(DIAMOND_A4,GE),,                +GHSERGE;                3200 N 91Din !
 PAR  G(FCC_A1,GE:VA),,                 +GHSERGE+36000-22.3*T;   3200 N 91Din !
 PAR  G(BCC_A2,GE:VA),,                 +GHSERGE+34100-23.5*T;   3200 N 91Din !
 PAR  G(HCP_A3,GE:VA),,                 +GHSERGE+35000-21.5*T;   3200 N 91Din !
$PAR  G(BCT_A5,GE),,                    +GHSERGE+28800-16.5*T;   3600 N 99SGUN !
$PAR  G(RHOMBOHEDRAL_A7,GE),,           +GHSERGE+29800-16.5*T;   3600 N 99SGUN !
 PAR  G(LIQUID,GE),,                    +GLIQGE;                 3200 N 91Din !
$
 PAR  G(GE2TM_LT,GE:GE),,               +2.8*GHSERGE+72395.44004;,,   N 18Ach !
 PAR  G(GE2TM_HT,GE:GE),,               +2.8*GHSERGE+72507.85556;,,   N 18Ach !
$
 FUNCTION GHSERGE   298.15  -9486.153+165.635573*T-29.5337682*T*LN(T)
       +0.005568297*T**2-1.513694E-06*T**3+163298*T**(-1);
       900.00  Y  -5689.239+102.86087*T-19.8536239*T*LN(T)-0.003672527*T**2;
      1211.40  Y  -9548.204+156.708024*T-27.6144*T*LN(T)-8.59809E+28*T**(-9);
      3200.00  N !
 FUNCTION GLIQGE    298.15  +37141.489-30.687043*T+GHSERGE+8.56632E-21*T**7;
      1211.40  Y  +27243.473+126.324186*T-27.6144*T*LN(T);
      3200.00  N !
$ ------------------------------------------------------------------------------
$ Tm
$
 PAR  G(HCP_A3,TM:VA),,                 +GHSERTM;                2300 N 91Din !
 PAR  G(LIQUID,TM),,                    +GLIQTM;                 2300 N 91Din !
$
 FUNCTION GHSERTM   298.15  -10016.715+151.037648*T-34.3664974*T*LN(T)
       +0.012110965*T**2-3.831156E-06*T**3+95982*T**(-1);
       700.00  Y  -14701.965+147.957496*T-32.1951269*T*LN(T)
       +4.44753E-04*T**2-3.96694E-07*T**3+1091664*T**(-1);
      1600.00  Y  -8669.227+97.98144*T-25.1816969*T*LN(T)-0.003384563*T**2;
      1818.00  Y  +727125.608-4147.40063*T+534.082763*T*LN(T)
       -0.19093039*T**2+1.1689185E-05*T**3-1.8038222E+08*T**(-1);
      2300.00  N !
 FUNCTION GLIQTM    298.15  +13199.249-6.557671*T+GHSERTM;
       600.00  Y  +22640.028-126.738485*T+6.8744933*T*LN(T)
       -0.025487085*T**2+2.288172E-06*T**3-1585412*T**(-1);
      1818.00  Y  -10090.305+214.184413*T-41.37976*T*LN(T);
      2300.00  N !
$ ------------------------------------------------------------------------------
$ Binary system
$
$ K. Achgar, S. Kardellass, H. Azza, N. Selhaoui,
$ J. Therm. Anal. Calorim., 131, 2699-2707(2018).
$
$ Checked against paper. Checked at 6000 K.
$
$ Invariant equilibria differ by up to 18 K, probably because of insufficient
$ accuracy for fractional compound compositions.
$
 PAR  L(LIQUID,GE,TM;0),,               -275450.516+19.8279*T;,,      N 18Ach !
 PAR  L(LIQUID,GE,TM;1),,               +2031.9279;,,                 N 18Ach !
 PAR  L(LIQUID,GE,TM;2),,               +79130.1539;,,                N 18Ach !
$
 PAR  L(HCP_A3,GE,TM:VA;0),,            +UN_ASS;,,                    N !
$
 PAR  G(GE20TM9_C49,GE:TM),,            +2*GHSERGE+0.9*GHSERTM
             -178256.03478+6.84545*T;,,                               N 18Ach !
$
 PAR  G(GE2TM_LT,GE:TM),,               +1.8*GHSERGE+GHSERTM
             -194880.14084+5.43004*T;,,                               N 18Ach !
 PAR  L(GE2TM_LT,GE:GE,TM;0),,          -44678.04068;,,               N 18Ach !
$
 PAR  G(GE2TM_HT,GE:TM),,               +1.8*GHSERGE+GHSERTM
             -194551.11564+5.14668*T;,,                               N 18Ach !
 PAR  L(GE2TM_HT,GE:GE,TM;0),,          -36656.3512;,,                N 18Ach !
$
 PAR  G(GE3TM2_C32,GE:TM),,             +3*GHSERGE+2*GHSERTM
             -386523.051+13.386*T;,,                                  N 18Ach !
 PAR  G(GE5TM4,GE:TM),,                 +5*GHSERGE+4*GHSERTM
             -754585.4286+36.4446*T;,,                                N 18Ach !
 PAR  G(GETM_B33,GE:TM),,               +GHSERGE+GHSERTM
             -167615.3206+3.0002*T;,,                                 N 18Ach !
 PAR  G(GE10TM11,GE:TM),,               +10*GHSERGE+11*GHSERTM
             -1757863.9869+8.988*T;,,                                 N 18Ach !
 PAR  G(GE4TM5,GE:TM),,                 +4*GHSERGE+5*GHSERTM
             -755522.523+6.5313*T;,,                                  N 18Ach !
 PAR  G(GE3TM5_D88,GE:TM),,             +3*GHSERGE+5*GHSERTM
             -674626.1712+17.1584*T;,,                                N 18Ach !
$ ------------------------------------------------------------------------------
$
$
 LIST-OF-REFERENCE
 NUMBER  SOURCE
  Null   'Unknown source'
  Same   'Same or similar interaction as in the corresponding stable phase'
  91Din  'A.T. Dinsdale, Calphad, 15, 317-425(1991).'
  99SGUN 'SGTE unary database V.4.1, 1999.'
  18Ach  'K. Achgar, S. Kardellass, H. Azza, N. Selhaoui,
          J. Therm. Anal. Calorim., 131, 2699-2707(2018); Ge-Tm'
!
