$
$ Database for Pd-Si from Thermodata 2005
$
$ Thermodata, unpublished work, 2005.
$
$ Dataset created 2016.03.28 by Bengt Hallstedt.
$ 2021.02.03: Modified for use with GES6.
$
$ Not included in LB, probably because of a very large inverse miscibility gap.
$
$ The dataset from 05The is reproduced.
$
$ 05The did not include Si in the fcc phase.
$
$ There is an inverse miscibility gap with a minimum at 1977 K and x(Si)=0.22.
$
$ ------------------------------------------------------------------------------
 TEMP-LIM 298.15 6000.00 !
$
$ELEMENT NAME  REF. STATE               ATOMIC MASS H298-H0    S298    !
$
 ELEMENT VA   VACUUM                      0.0          0.0      0.0    ! 
 ELEMENT PD   FCC_A1                    106.42      5468.488   37.8234 ! 
 ELEMENT SI   DIAMOND_A4                 28.0855    3217.      18.81   ! 
$ ------------------------------------------------------------------------------
$ Phase definitions
$
 PHASE LIQUID:L % 1 1 !
 CONST LIQUID:L : PD SI : !
$
$ Fcc (cF4, Fm-3m) and MeX (cF8, Fm-3m)
$
 PHASE FCC_A1 %A 2 1 1 !
 CONST FCC_A1 : PD% SI : VA : !
$
$ Bcc (cI2, Im-3m)
$
 PHASE BCC_A2 %B 2 1 3 !
 CONST BCC_A2 : PD SI : VA : !
$
$ Hcp (hP2, P6_3/mmc) and Me2X (NiAs-type, hP4, P6_3/mmc, B8_1)
$
 PHASE HCP_A3 %A 2 1 0.5 !
 CONST HCP_A3 : PD SI : VA : !
$
$ Prototype C (cF8, Fd-3m)
$
 PHASE DIAMOND_A4 % 1 1 !
 CONST DIAMOND_A4 : SI : !
$
$ Prototype Pd5Si (mP24, P2_1)
$
 PHASE PD5SI % 2 5 1 !
 CONST PD5SI : PD : SI : !
$
$ Prototype Pd9Si2 (oP44, Pnma)
$
 PHASE PD9SI2 % 2 9 2 !
 CONST PD9SI2 : PD : SI : !
$
$ Prototype Fe3C (oP16, Pnma)
$
 PHASE PD3SI_D011 % 2 3 1 !
 CONST PD3SI_D011 : PD : SI : !
$
$ Prototype Fe2P (hP9, P-62m)
$
 PHASE PD2SI_C22 % 2 2 1 !
 CONST PD2SI_C22 : PD : SI : !
$
$ Prototype MnP (oP8, Pnma)
$
 PHASE PDSI_B31 % 2 1 1 !
 CONST PDSI_B31 : PD : SI : !
$ ------------------------------------------------------------------------------
$ Defaults
$
 DEFINE-SYSTEM-DEFAULT ELEMENT 2 !
 DEFAULT-COM DEFINE_SYSTEM_ELEMENT VA !
 TYPE-DEF % SEQ * !
 TYPE-DEF A GES AMEND_PHASE_DESCRIPTION @ MAGNETIC -3 0.28 !
 TYPE-DEF B GES AMEND_PHASE_DESCRIPTION @ MAGNETIC -1 0.4 !
 FUNCTION ZERO      298.15  0;                                         6000 N !
 FUNCTION UN_ASS    298.15  0;                                         6000 N !
 FUNCTION R         298.15  +8.31451;                                  6000 N !
$ ------------------------------------------------------------------------------
$ Element data
$ ------------------------------------------------------------------------------
$ Pd
$
$ RHOMBOHEDRAL_A7 added in unary 5.0
$
$ BCT_A5 from 99Gho (used in SGSOL 5.0) not included in unary
$
 PAR  G(FCC_A1,PD:VA),,                 +GHSERPD;                4000 N 91Din !
 PAR  G(BCC_A2,PD:VA),,                 +GHSERPD+10500-1.8*T;    4000 N 91Din !
 PAR  G(HCP_A3,PD:VA),,                 +GHSERPD+2000+0.1*T;     4000 N 91Din !
$PAR  G(BCT_A5,PD),,                    +GHSERPD+2139+5.76*T;    4000 N 99Gho !
$PAR  G(RHOMBOHEDRAL_A7,PD),,           +GHSERPD+4000;           4000 N 06Vre !
 PAR  G(LIQUID,PD),,                    +GLIQPD;                 4000 N 91Din !
$
 FUNCTION GHSERPD   298.15  -10204.027+176.076315*T-32.211*T*LN(T)
       +0.007120975*T**2-1.919875E-06*T**3+168687*T**(-1);
       900.00  Y  +917.062+49.659892*T-13.5708*T*LN(T)
       -0.00717522*T**2+1.91115E-07*T**3-1112465*T**(-1);
      1828.00  Y  -67161.018+370.102147*T-54.2067086*T*LN(T)
       +0.002091396*T**2-6.2811E-08*T**3+18683526*T**(-1);
      4000.00  N !
 FUNCTION GLIQPD    298.15  +11506.758-5.112162*T+GHSERPD;
       600.00  Y  +23405.778-116.918419*T+10.8922031*T*LN(T)
       -0.027266568*T**2+2.430675E-06*T**3-1853674*T**(-1);
      1828.00  Y  -12373.637+251.416903*T-41.17*T*LN(T);
      4000.00  N !
$ ------------------------------------------------------------------------------
$ Si
$
 PAR  G(DIAMOND_A4,SI),,                +GHSERSI;                3600 N 91Din !
 PAR  G(FCC_A1,SI:VA),,                 +GHSERSI+51000-21.8*T;   3600 N 91Din !
 PAR  G(BCC_A2,SI:VA),,                 +GHSERSI+47000-22.5*T;   3600 N 91Din !
 PAR  G(HCP_A3,SI:VA),,                 +GHSERSI+49200-20.8*T;   3600 N 91Din !
$PAR  G(CBCC_A12,SI:VA),,               +GHSERSI+50208-20.377*T; 3600 N 91Din !
$PAR  G(CUB_A13,SI:VA),,                +GHSERSI+47279-20.377*T; 3600 N 91Din !
 PAR  G(LIQUID,SI),,                    +GLIQSI;                 3600 N 91Din !
$
 FUNCTION GHSERSI   298.15  -8162.609+137.236859*T-22.8317533*T*LN(T)
       -0.001912904*T**2-3.552E-09*T**3+176667*T**(-1);
      1687.00  Y  -9457.642+167.281367*T-27.196*T*LN(T)-4.20369E+30*T**(-9);
      3600.00  N !
 FUNCTION GLIQSI    298.15  +50696.36-30.099439*T+GHSERSI+2.09307E-21*T**7;
      1687.00  Y  +40370.523+137.722298*T-27.196*T*LN(T);
      3600.00  N !
 FUNCTION GBCCSI    298.15  +GHSERSI+47000-22.5*T;                     3600 N !
$ ------------------------------------------------------------------------------
$ Binary system
$
$ Thermodata, unpublished work, 2005.
$
$ Not included in LB, probably because a very large inverse miscibility gap.
$
$ Checked at 6000 K.
$
$ The dataset from 05The is reproduced.
$
$ 05The did not include Si in the fcc phase.
$
$ There is an inverse miscibility gap with a minimum at 1977 K and x(Si)=0.22.
$
 PAR  L(LIQUID,PD,SI;0),,               -233289.2+120.77487*T;,,      N 05The !
 PAR  L(LIQUID,PD,SI;1),,               -143502.6+85.3446*T;,,        N 05The !
$
 PAR  L(FCC_A1,PD,SI:VA;0),,            +80*T;,,                      N !
$
 PAR  G(PD5SI,PD:SI),,                  +5*GHSERPD+GHSERSI
             -196748.4+97.31664*T;,,                                  N 05The !
 PAR  G(PD9SI2,PD:SI),,                 +9*GHSERPD+2*GHSERSI
             -382703.97+187.27225*T;,,                                N 05The !
 PAR  G(PD3SI_D011,PD:SI),,             +3*GHSERPD+GHSERSI
             -160857.68+70.14116*T;,,                                 N 05The !
 PAR  G(PD2SI_C22,PD:SI),,              +2*GHSERPD+GHSERSI
             -134772.69+54.79704*T;,,                                 N 05The !
 PAR  G(PDSI_B31,PD:SI),,               +GHSERPD+GHSERSI
             -56081.14+14.65542*T;,,                                  N 05The !
$
$ Metastable
$
 PAR  L(BCC_A2,PD,SI:VA;0),,            +80*T;,,                      N !
 PAR  L(HCP_A3,PD,SI:VA;0),,            +80*T;,,                      N !
$ ------------------------------------------------------------------------------
$
$
 LIST-OF-REFERENCE
 NUMBER  SOURCE
  Null   'Unknown source'
  Same   'Same or similar interaction as in the corresponding stable phase'
  COST   'COST 507 database'
  91Din  'A.T. Dinsdale, Calphad, 15, 317-425(1991).'
  99Gho  'G. Ghosh, Metall. Mater. Trans. A, 30A, 5-18(1999); Pd'
  05The  'Thermodata, unpublished work, 2005; Pd-Si'
  06Vre  'J. Vrestal, J. Pinkas, A. Watson, A. Scott, J. Houserova, A. Kroupa,
          Calphad, 30, 14-17(2006), SGTE unary database V.5.0, 2009; Pd'
!
