$
$ Database for In-Li from X. Zhou et al. 2020.
$
$ X. Zhou, F. Zhang, S. Liu, Y. Du, B. Jin, Calphad, 70, 101779(2020).
$
$ Dataset created 2022.11.20 by Bengt Hallstedt.
$
$ Associate liquid model. The associate has a positive energy of formation,
$ which makes no sense.
$
$ ------------------------------------------------------------------------------
 TEMP-LIM 298.15 6000.00 !
$
$ELEMENT NAME  REF. STATE               ATOMIC MASS H298-H0    S298    !
$
 ELEMENT VA   VACUUM                      0.0          0.0      0.0    ! 
 ELEMENT IN   TETRAGONAL_A6             114.82      6610.0     57.65   ! 
 ELEMENT LI   BCC_A2                      6.941     4632.00    29.12   ! 
$ ------------------------------------------------------------------------------
$ Species
$
 SPECIE  IN2LI3                             IN2LI3 !
$ ------------------------------------------------------------------------------
$ Phase definitions
$
 PHASE LIQUID:L % 1 1 !
 CONST LIQUID:L : IN IN2LI3 LI : !
$
$ Fcc (cF4) and MeX (cF8)
$
 PHASE FCC_A1 %A 2 1 1 !
 CONST FCC_A1 : IN LI : VA : !
$
$ Bcc (cI2, Im-3m)
$
 PHASE BCC_A2 %B 2 1 3 !
 CONST BCC_A2 : IN LI% : VA : !
$
$ Hcp (hP2, P6_3/mmc) and Me2X (NiAs-type, hP4, P6_3/mmc, B8_1)
$
 PHASE HCP_A3 %A 2 1 0.5 !
 CONST HCP_A3 : IN LI : VA : !
$
$ Prototype In (tI2, I4/mmm)
$
 PHASE TETRAGONAL_A6 % 1 1 !
 CONST TETRAGONAL_A6 : IN% LI : !
$
$ Prototype NaTl (cF16, Fd-3m)
$
 PHASE INLI_B32 % 2 1 1 !
 CONST INLI_B32 : IN% LI : IN LI% : !
$
$ Prototype Al2Li3 (hR5, R-3m)
$
 PHASE IN2LI3 % 2 2 3 !
 CONST IN2LI3 : IN : LI : !
$
$ Prototype GaLi2 (oC12, Cmcm)
$
 PHASE INLI2 % 2 1 2 !
 CONST INLI2 : IN% LI : IN LI% : !
$
$ Prototype AuCu3 (cP4, Fm-3m)
$
 PHASE INLI3_L12 % 2 1 3 !
 CONST INLI3_L12 : IN : LI : !
$
$ Prototype In3Li13 (cF128, Fd-3m)
$
 PHASE IN3LI13 % 2 3 13 !
 CONST IN3LI13 : IN : LI : !
$ ------------------------------------------------------------------------------
$ Defaults
$
 DEFINE-SYSTEM-DEFAULT ELEMENT 2 !
 DEFAULT-COM DEFINE_SYSTEM_ELEMENT VA !
 TYPE-DEF % SEQ * !
 TYPE-DEF A GES AMEND_PHASE_DESCRIPTION @ MAGNETIC -3 0.28 !
 TYPE-DEF B GES AMEND_PHASE_DESCRIPTION @ MAGNETIC -1 0.4 !
 FUNCTION ZERO      298.15  0;                                         6000 N !
 FUNCTION UN_ASS    298.15  0;                                         6000 N !
 FUNCTION R         298.15  +8.31451;                                  6000 N !
$ ------------------------------------------------------------------------------
$ Element data
$ ------------------------------------------------------------------------------
$ In
$
$ FCC_A1 and TET_ALPHA1 revised in unary 4.1
$ BCT_A5 and RHOMBOHEDRAL_A7 added in unary 4.1
$ TET_ALPHA1 revised in unary 5.0 (using the value from 99Ans)
$ DHCP added in unary 5.0
$
$ There is quite a bit of confusion about TET_ALPHA1_A6. The structure is
$ the same as In (TETRAGONAL_A6), but with a different (presumably) c/a ratio.
$ TET_ALPHA1_A6 is present in Bi-In, In-Pb and In-Sn (possibly more). Between
$ the TETRAGONAL_A6 (In-ss) and TET_ALPHA1_A6 there is a narrow two-phase
$ region. In each system a different G(TET_ALPHA1_A6,IN) lattice stability
$ was used.
$ In 91Din a value from an unpublished revision of the Bi-In system by
$ P.-Y. Chevalier 1990 is included. In SGTE Unary V 4.4 a value from 98Boa
$ for the In-Pb system is included. 98Boa treated the TET_ALPHA1_A6
$ phase in Bi-In and In-Pb as two different phases and used the lattice
$ stability from 88Che0 for the Bi-In branch of this phase. Finally, SGTE
$ unary V 5.0 uses a value from an unpublished evaluation by 99Ans of the
$ In-Sn system. Due to the close proximity of the TETRAGONAL_A6 and
$ TET_ALPHA1_A6 phases in these systems, any change of lattice stability
$ will cause a distortion of the phase diagram and require reoptimisation.
$
$ The DHCP phase is labelled D0_24 in 03Liu and alpha-prime in 92Ans. The
$ phase is present between the fcc and hcp phases in the Au-Sn and Au-In
$ systems.
$
 PAR  G(TETRAGONAL_A6,IN),,             +GHSERIN;                3800 N 91Din !
 PAR  G(FCC_A1,IN:VA),,                 +GHSERIN+162.061;        3800 N 98Boa !
$PAR  G(FCC_A1,IN:VA),,                 +GHSERIN+123-0.1988*T;   3800 N 91Din !
 PAR  G(BCC_A2,IN:VA),,                 +GHSERIN+800-0.8*T;      3800 N 91Din !
 PAR  G(HCP_A3,IN:VA),,                 +GHSERIN+533-0.6868*T;   3800 N 91Din !
$PAR  G(DHCP,IN),,                      +GHSERIN+520-0.384*T;    3800 N 92Ans !
$PAR  G(TET_ALPHA1_A6,IN),,             +GHSERIN+123-0.1988*T;   3800 N 99Ans1 !
$PAR  G(TET_ALPHA1_A6,IN),,             +GHSERIN+0.31*T;         3800 N 98Boa !
$PAR  G(TET_ALPHA1_A6,IN),,             +GHSERIN+193-0.16479*T;  3800 N 91Din !
$PAR  G(TET_ALPHA1_A6,IN),,             +GHSERIN-33+0.16*T;      3800 N 88Che0 !
$PAR  G(BCT_A5,IN),,                    +GHSERIN
$            +5040.87-3.33969*T;                                 3800 N 99Ans1 !
$PAR  G(BCT_A5,IN),,                    +GHSERIN+2092;           3800 N 03Liu1 !
$PAR  G(RHOMBOHEDRAL_A7,IN),,           +GHSERIN+4184;           3800 N 88Che0 !
 PAR  G(LIQUID,IN),,                    +GLIQIN;                 3800 N 91Din !
$
 PAR  G(INLI_B32,IN:IN),,               +2*GHSERIN+22000+43*T;,,      N 20Zho !
 PAR  G(INLI2,IN:IN),,                  +3*GHSERIN+5000;,,            N 20Zho !
$
 FUNCTION GHSERIN   298.15  -6978.89+92.338115*T-21.8386*T*LN(T)
       -0.00572566*T**2-2.120321E-06*T**3-22906*T**(-1);
       429.75  Y  -7033.516+124.476588*T-27.4562*T*LN(T)
       +5.4607E-04*T**2-8.367E-08*T**3-211708*T**(-1)+3.53116E+22*T**(-9);
      3800.00  N !
 FUNCTION GLIQIN    298.15  +3282.092-7.63686*T+GHSERIN-5.59058E-20*T**7;
       429.75  Y  +3283.706-7.640804*T+GHSERIN-3.53116E+22*T**(-9);
      3800.00  N !
$ ------------------------------------------------------------------------------
$ Li
$
$ TETRAGONAL_A6 from 20Zho not included in unary
$
 PAR  G(BCC_A2,LI:VA)           200.00  +GHSERLI;                3000 N 91Din !
 PAR  G(FCC_A1,LI:VA)           200.00  +GHSERLI-108+1.3*T;      3000 N 91Din !
 PAR  G(HCP_A3,LI:VA)           200.00  +GHSERLI-154+2*T;        3000 N 91Din !
 PAR  G(TETRAGONAL_A6,LI)       200.00  +GHSERLI+523.77;         3000 N 20Zho !
 PAR  G(LIQUID,LI)              200.00  +GLIQLI;                 3000 N 91Din !
$
 PAR  G(INLI_B32,LI:LI),,               +2*GHSERLI+9000;,,            N 20Zho !
 PAR  G(INLI2,LI:LI),,                  +3*GHSERLI+5034+15.63*T;,,    N 20Zho !
$
 FUNCTION GHSERLI   200.00  -10583.817+217.637482*T-38.940488*T*LN(T)
       +0.035466931*T**2-1.9869816E-05*T**3+159994*T**(-1);
       453.60  Y  -559579.123+10547.8799*T-1702.88865*T*LN(T)
       +2.25832944*T**2-5.71066077E-04*T**3+33885874*T**(-1);
       500.00  Y  -9062.994+179.278285*T-31.2283718*T*LN(T)
       +0.002633221*T**2-4.38058E-07*T**3-102387*T**(-1);
      3000.00  N !
 FUNCTION GLIQLI    200.00  +2700.205-5.795621*T+GHSERLI;
       250.00  Y  +12015.027-362.187078*T+61.6104424*T*LN(T)
       -0.182426463*T**2+6.3955671E-05*T**3-559968*T**(-1);
       453.60  Y  -6057.31+172.652183*T-31.2283718*T*LN(T)
       +0.002633221*T**2-4.38058E-07*T**3-102387*T**(-1);
       500.00  Y  +3005.684-6.626102*T+GHSERLI;
      3000.00  N !
$ ------------------------------------------------------------------------------
$ Binary system
$
$ X. Zhou, F. Zhang, S. Liu, Y. Du, B. Jin, Calphad, 70, 101779(2020).
$
$ Checked against paper and author's tdb. Checked at 6000 K.
$
$ Associate liquid model. The associate has a positive energy of formation,
$ which makes no sense.
$
 PAR  G(LIQUID,IN2LI3),,                +2*GLIQIN+3*GLIQLI
             +12000+40*T;,,                                           N 20Zho !
 PAR  L(LIQUID,IN,LI;0),,               -54000+18*T;,,                N 20Zho !
 PAR  L(LIQUID,IN,IN2LI3;0),,           -185000-6*T;,,                N 20Zho !
 PAR  L(LIQUID,IN,IN2LI3;1),,           +34000-20*T;,,                N 20Zho !
 PAR  L(LIQUID,IN2LI3,LI;0),,           -213000-12*T;,,               N 20Zho !
 PAR  L(LIQUID,IN2LI3,LI;1),,           -22000-12*T;,,                N 20Zho !
$
 PAR  L(BCC_A2,IN,LI:VA;0),,            +UN_ASS;,,                    N !
 PAR  L(TETRAGONAL_A6,IN,LI;0),,        -47158.56;,,                  N 20Zho !
$
 PAR  G(INLI_B32,IN:LI),,               +GHSERIN+GHSERLI
             -51000+6.33*T;,,                                         N 20Zho !
 PAR  G(INLI_B32,LI:IN),,               +GHSERLI+GHSERIN;,,           N 20Zho !
 PAR  L(INLI_B32,IN,LI:LI;0),,          -81000+30*T;,,                N 20Zho !
 PAR  L(INLI_B32,IN:IN,LI;0),,          -47000-38.2*T;,,              N 20Zho !
$
 PAR  G(IN2LI3,IN:LI),,                 +2*GHSERIN+3*GHSERLI
             -149987.69+48*T;,,                                       N 20Zho !
$
 PAR  G(INLI2,IN:LI),,                  +GHSERIN+2*GHSERLI
             -94469.84+37*T;,,                                        N 20Zho !
 PAR  G(INLI2,LI:IN),,                  +ZERO;,,                      N 20Zho !
 PAR  L(INLI2,IN,LI:LI;0),,             -7534.87-25*T;,,              N 20Zho !
$
 PAR  G(INLI3_L12,IN:LI),,              +GHSERIN+3*GHSERLI
             -100413.56+36.98*T;,,                                    N 20Zho !
 PAR  G(IN3LI13,IN:LI),,                +3*GHSERIN+13*GHSERLI
             -320000+108*T;,,                                         N 20Zho !
$ ------------------------------------------------------------------------------
$
$
 LIST-OF-REFERENCE
 NUMBER  SOURCE
  Null   'Unknown source'
  Same   'Same or similar interaction as in the corresponding stable phase'
  COST   'COST 507 database'
  88Che0 'P.-Y Chevalier, Calphad, 12, 383-92(1988)
          SGTE unary database V.4.1, 1999; In'
  91Din  'A.T. Dinsdale, Calphad, 15, 317-425(1991).'
  92Ans  'I. Ansara, J.-Ph. Nabot, Calphad, 16, 13-18(1992),
          SGTE unary database V.5.0, 2009; In'
  97Ans  'I. Ansara, N. Dupin, H.L. Lukas, B. Sundman,
          J. Alloys Compd., 247, 20-30(1997); Al-Ni'
  98Boa  'D. Boa, I. Ansara, Thermochim. Acta, 314, 79-86(1998),
          SGTE unary database V.4.1, 1999; In, Pb, In-Pb, Bi-In-Pb'
  99Ans1 'I. Ansara, S.G. Fries, H.L. Lukas, unpublished, 1999,
          SGTE unary database V.5.0, 2009; In, Sn'
  20Zho  'X. Zhou, F. Zhang, S. Liu, Y. Du, B. Jin,
          Calphad, 70, 101779(2020); Li, In-Li'
!
