$
$ Database for Ge-O from I. Bajenova et al. 2021.
$
$ I. Bajenova, A. Khvan, M. Derevyanko, N. Aristova, A. Dinsdale,
$ A. Kondriatev, A. Pisch, Calphad, 74, 102299(2021).
$
$ Dataset created 2022.07.03 by Bengt Hallstedt.
$
$ The publication concerns only pure GeO2, where 3rd generation modelling is
$ used. This is combined here with the Ge-O model from 15Din (which is not 3rd
$ generation).
$
$ ------------------------------------------------------------------------------
 TEMP-LIM 298.15 6000.00 !
$
$ELEMENT NAME  REF. STATE               ATOMIC MASS H298-H0    S298    !
$
 ELEMENT /-   ELECTRON_GAS                0.0          0.0      0.0    ! 
 ELEMENT VA   VACUUM                      0.0          0.0      0.0    ! 
 ELEMENT GE   DIAMOND_A4                 72.59      4636.0     31.09   ! 
 ELEMENT O    1/2_MOLE_O2(G)             15.999     4341.0    102.52   ! 
$ ------------------------------------------------------------------------------
$ Species
$
 SPECIE  GE+4                               GE/+4 !
 SPECIE  O-2                                O/-2 !
 SPECIE  O2                                 O2 !
 SPECIE  O3                                 O3 !
$ ------------------------------------------------------------------------------
$ Phase definitions
$
 PHASE LIQUID:L % 1 1 !
 CONST LIQUID:L : GE : !
$
 PHASE ION:Y % 2 1 1 !
 CONST ION:Y : GE+4 : O-2 VA : !
$
$ Fcc (cF4, Fm-3m) and MeX (cF8, Fm-3m)
$
 PHASE FCC_A1 %A 2 1 1 !
 CONST FCC_A1 : GE : O VA% : !
$
$ Bcc (cI2, Im-3m)
$
 PHASE BCC_A2 %B 2 1 3 !
 CONST BCC_A2 : GE : O VA% : !
$
$ Hcp (hP2, P6_3/mmc) and Me2X (NiAs-type, hP4, P6_3/mmc, B8_1)
$
 PHASE HCP_A3 % 2 1 0.5 !
 CONST HCP_A3 : GE : O VA% : !
$
$ Prototype C (cF8, Fd-3m)
$
 PHASE DIAMOND_A4 % 1 1 !
 CONST DIAMOND_A4 : GE : !
$
$ Prototype TiO2 (tP6, P4_2/mnm), rutile
$
 PHASE GEO2_C4 % 2 1 2 !
 CONST GEO2_C4 : GE+4 : O-2 : !
$
$ Prototype SiO2 (hP9, P3_121), alpha-quartz
$
 PHASE GEO2_HT % 2 1 2 !
 CONST GEO2_HT : GE+4 : O-2 : !
$
 PHASE O2GAS % 1 1 !
 CONST O2GAS : O2 :!
$
 PHASE GAS:G % 1 1 !
 CONST GAS:G : O O2 O3 : !
$ ------------------------------------------------------------------------------
$ Defaults
$
 DEFINE-SYSTEM-DEFAULT ELEMENT 2 !
 DEFAULT-COM DEFINE_SYSTEM_ELEMENT VA /- !
 DEFAULT-COM REJECT_PHASE LIQUID GAS !
 TYPE-DEF % SEQ * !
 TYPE-DEF A GES AMEND_PHASE_DESCRIPTION @ MAGNETIC -3 0.28 !
 TYPE-DEF B GES AMEND_PHASE_DESCRIPTION @ MAGNETIC -1 0.4 !
 FUNCTION ZERO      298.15  0;                                         6000 N !
 FUNCTION UN_ASS    298.15  0;                                         6000 N !
 FUNCTION R         298.15  +8.31451;                                  6000 N !
 FUNCTION RTLNP     298.15  +8.31451*T*LN(1E-05*P);                    6000 N !
 FUNCTION TEMP      1       +T**(-1);                                  6000 N ! 
 FUNCTION ROBR      1       +R**(-1);                                  6000 N !
$ ------------------------------------------------------------------------------
$ Element data
$ ------------------------------------------------------------------------------
$ Ge
$
$ BCT_A5 and RHOMBOHEDRAL_A7 added in unary 4.1
$
 PAR  G(DIAMOND_A4,GE),,                +GHSERGE;                3200 N 91Din !
 PAR  G(FCC_A1,GE:VA),,                 +GHSERGE+36000-22.3*T;   3200 N 91Din !
 PAR  G(BCC_A2,GE:VA),,                 +GHSERGE+34100-23.5*T;   3200 N 91Din !
 PAR  G(HCP_A3,GE:VA),,                 +GHSERGE+35000-21.5*T;   3200 N 91Din !
$PAR  G(BCT_A5,GE),,                    +GHSERGE+28800-16.5*T;   3600 N 99SGUN !
$PAR  G(RHOMBOHEDRAL_A7,GE),,           +GHSERGE+29800-16.5*T;   3600 N 99SGUN !
 PAR  G(LIQUID,GE),,                    +GLIQGE;                 3200 N 91Din !
$
 PAR  G(ION,GE+4:VA),,                  +GLIQGE;                 3200 N 91Din !
$
 FUNCTION GHSERGE   298.15  -9486.153+165.635573*T-29.5337682*T*LN(T)
       +0.005568297*T**2-1.513694E-06*T**3+163298*T**(-1);
       900.00  Y  -5689.239+102.86087*T-19.8536239*T*LN(T)-0.003672527*T**2;
      1211.40  Y  -9548.204+156.708024*T-27.6144*T*LN(T)-8.59809E+28*T**(-9);
      3200.00  N !
 FUNCTION GLIQGE    298.15  +37141.489-30.687043*T+GHSERGE+8.56632E-21*T**7;
      1211.40  Y  +27243.473+126.324186*T-27.6144*T*LN(T);
      3200.00  N !
$ ------------------------------------------------------------------------------
$ O
$
$ GHSEROO modified in unary 3.0
$
$ DIAMOND_A4 from 92Hal not included in unary
$
 PAR  G(O2GAS,O2),,                     +2*GHSEROO+RTLNP;,,           N 91Din !
$
 PAR  G(GAS,O),,                        +F7397T+RTLNP;,,              N 92SUB !
 PAR  G(GAS,O2),,                       +2*GHSEROO+RTLNP;,,           N 91Din !
 PAR  G(GAS,O3),,                       +F7683T+RTLNP;,,              N 92SUB !
$
$ 1/2 O2(g)
 FUNCTION GHSEROO   298.15  -3480.87-25.503038*T-11.1355*T*LN(T)
       -0.005098875*T**2+6.61845833E-07*T**3-38365*T**(-1);
      1000.00  Y  -6568.763+12.659879*T-16.8138*T*LN(T)
       -5.957975E-04*T**2+6.781E-09*T**3+262905*T**(-1);
      3300.00  Y  -13986.728+31.259624*T-18.9536*T*LN(T)
       -4.25243E-04*T**2+1.0721E-08*T**3+4383200*T**(-1);
      6000.00  N !
$ O(g)
 FUNCTION F7397T    298.15  +243206.529-42897.0876*T**(-1)-20.7513421*T
       -21.0155542*T*LN(T)+1.26870532E-04*T**2-1.23131285E-08*T**3;
      2950.00  Y  +252301.473-3973170.33*T**(-1)-51.974853*T
       -17.2118798*T*LN(T)-5.41356254E-04*T**2+7.64520703E-09*T**3;
      6000.00  N !
$ O3(g)
 FUNCTION F7683T    298.15  +133772.042-11328.9959*T**(-1)-84.8602165*T
       -19.8314069*T*LN(T)-0.0392015696*T**2+7.90727187E-06*T**3;
       600.00  Y  +120765.524+997137.156*T**(-1)+120.113376*T
       -51.8410152*T*LN(T)-0.00353983136*T**2+3.20640143E-07*T**3;
      1500.00  Y  +115412.196+1878139.02*T**(-1)+164.679664*T
       -58.069736*T*LN(T)-2.84399032E-04*T**2+5.95650279E-10*T**3;
      6000.00  N !
$ ------------------------------------------------------------------------------
$ Binary system
$
$ I. Bajenova, A. Khvan, M. Derevyanko, N. Aristova, A. Dinsdale,
$ A. Kondriatev, A. Pisch, Calphad, 74, 102299(2021).
$
$ Checked against paper and author's tdb. Checked at 6000 K.
$
$ The publication concerns only pure GeO2, where 3rd generation modelling is
$ used. This is combined here with the Ge-O model from 15Din (which is not 3rd
$ generation).
$
 PAR  G(ION,GE+4:O-2),,                 +2*GGEO2LIQ;,,                N 21Baj !
 PAR  L(ION,GE+4:O-2,VA;0),,            +118086.78;,,                 N 15Din !
 PAR  L(ION,GE+4:O-2,VA;1),,            -64090.73;,,                  N 15Din !
 PAR  L(ION,GE+4:O-2,VA;2),,            -6936.38;,,                   N 15Din !
$
 PAR  G(GEO2_C4,GE+4:O-2) 1             +E0TE+GE1SUMTE+GE2SUMTE
             +GCORTE;,,                                               N 21Baj !
 PAR  G(GEO2_HT,GE+4:O-2) 1             +E0HE+GE1SUMHE+GE2SUMHE
             +GE3SUMHE+GCORHE;,,                                      N 21Baj !
$
$ Tetragonal GeO2
 FUNCTION E0TE      1       -610036;                                   6000 N !
$
 FUNCTION E1TE      1       +912.77;                                   6000 N ! 
 FUNCTION ALF1TE    1       +1.688 ;                                   6000 N ! 
 FUNCTION GE1F1TE   1       +12.47169*E1TE*ALF1TE;                     6000 N !
 FUNCTION TETE1     1       -E1TE*TEMP;                                6000 N !
 FUNCTION ETETE1    1       +1-1*EXP(TETE1);                           6000 N !
 FUNCTION GE1F2TE   1       +24.94338*T*ALF1TE*LN(ETETE1);             6000 N !
 FUNCTION GE1SUMTE  1       +GE1F1TE+GE1F2TE;                          6000 N !
$ 
 FUNCTION E2TE      1       +327.108;                                  6000 N ! 
 FUNCTION ALF2TE    1       +1.312;                                    6000 N !
 FUNCTION GE2F1TE   1       +12.47169*E2TE*ALF2TE;                     6000 N !
 FUNCTION TETE2     1       -E2TE*TEMP;                                6000 N !
 FUNCTION ETETE2    1       +1-1*EXP(TETE2);                           6000 N !
 FUNCTION GE2F2TE   1       +24.94338*T*ALF2TE*LN(ETETE2);             6000 N !
 FUNCTION GE2SUMTE  1       +GE2F1TE+GE2F2TE;                          6000 N !
$
 FUNCTION COEFF3TE  1       +3E-09;                                    6000 N !
 FUNCTION GCORTE    1       -0.0833333*COEFF3TE*T**4;
      1308.00  Y  +4978.568-3.96687*T-2.241298E+18*T**(-5) 
       +1.275450E+36*T**(-11);
      6000.00  N !
$
$ Hexagonal GeO2
 FUNCTION E0HE      1       -588476;                                   6000 N !
$
 FUNCTION E1HE      1       +1021.97;                                  6000 N ! 
 FUNCTION ALF1HE    1       +1.29 ;                                    6000 N ! 
 FUNCTION GE1F1HE   1       +12.47169*E1HE*ALF1HE;                     6000 N !
 FUNCTION TEHE1     1       -E1HE*TEMP;                                6000 N !
 FUNCTION ETEHE1    1       +1-1*EXP(TEHE1);                           6000 N !
 FUNCTION GE1F2HE   1       +24.94338*T*ALF1HE*LN(ETEHE1);             6000 N !
 FUNCTION GE1SUMHE  1       +GE1F1HE+GE1F2HE;                          6000 N !
$ 
 FUNCTION E2HE      1       +363;                                      6000 N ! 
 FUNCTION ALF2HE    1       +1.15;                                     6000 N !
 FUNCTION GE2F1HE   1       +12.47169*E2HE*ALF2HE;                     6000 N !
 FUNCTION TEHE2     1       -E2HE*TEMP;                                6000 N !
 FUNCTION ETEHE2    1       +1-1*EXP(TEHE2);                           6000 N !
 FUNCTION GE2F2HE   1       +24.94338*T*ALF2HE*LN(ETEHE2);             6000 N !
 FUNCTION GE2SUMHE  1       +GE2F1HE+GE2F2HE;                          6000 N !
$ 
 FUNCTION E3HE      1       +130;                                      6000 N ! 
 FUNCTION ALF3HE    1       +0.56;                                     6000 N !
 FUNCTION GE3F1HE   1       +12.47169*E3HE*ALF3HE;                     6000 N !
 FUNCTION TEHE3     1       -E3HE*TEMP;                                6000 N !
 FUNCTION ETEHE3    1       +1-1*EXP(TEHE3);                           6000 N !
 FUNCTION GE3F2HE   1       +24.94338*T*ALF3HE*LN(ETEHE3);             6000 N !
 FUNCTION GE3SUMHE  1       +GE3F1HE+GE3F2HE;                          6000 N ! 
$
 FUNCTION COEFF3HE  1       +2.9998E-09;                               6000 N !
 FUNCTION GCORHE    1       -0.0833333*COEFF3HE*T**4;
      1388.00  Y  +6224.9-4.67926*T-3.823897E+18*T**(-5) 
       +3.107137E+36*T**(-11);
      6000.00  N !  
$
$ Liquid/amorphous GeO2
 FUNCTION GGEO2LIQ  1       +E0AM+GE1SUMAM+GE2SUMAM+GE3SUMAM+GD2ST;    6000 N !
 FUNCTION E0AM      1       -577426;                                   6000 N !
$
 FUNCTION E1AM      1       +931.4 ;                                   6000 N ! 
 FUNCTION ALF1AM    1       +1.448;                                    6000 N ! 
 FUNCTION GE1F1AM   1       +12.47169*E1AM*ALF1AM;                     6000 N !
 FUNCTION TEAM1     1       -E1AM*TEMP;                                6000 N !
 FUNCTION ETEAM1    1       +1-1*EXP(TEAM1);                           6000 N !
 FUNCTION GE1F2AM   1       +24.94338*T*ALF1AM*LN(ETEAM1);             6000 N !
 FUNCTION GE1SUMAM  1       +GE1F1AM+GE1F2AM;                          6000 N !
$ 
 FUNCTION E2AM      1       +301.7;                                    6000 N ! 
 FUNCTION ALF2AM    1       +1.15;                                     6000 N !
 FUNCTION GE2F1AM   1       +12.47169*E2AM*ALF2AM;                     6000 N !
 FUNCTION TEAM2     1       -E2AM*TEMP;                                6000 N !
 FUNCTION ETEAM2    1       +1-1*EXP(TEAM2);                           6000 N !
 FUNCTION GE2F2AM   1       +24.94338*T*ALF2AM*LN(ETEAM2);             6000 N !
 FUNCTION GE2SUMAM  1       +GE2F1AM+GE2F2AM;                          6000 N !
$ 
 FUNCTION E3AM      1       +83.188;                                   6000 N ! 
 FUNCTION ALF3AM    1       +0.402;                                    6000 N !
 FUNCTION GE3F1AM   1       +12.47169*E3AM*ALF3AM;                     6000 N !
 FUNCTION TEAM3     1       -E3AM*TEMP;                                6000 N !
 FUNCTION ETEAM3    1       +1-1*EXP(TEAM3);                           6000 N !
 FUNCTION GE3F2AM   1       +24.94338*T*ALF3AM*LN(ETEAM3);             6000 N !
 FUNCTION GE3SUMAM  1       +GE3F1AM+GE3F2AM;                          6000 N !
$
 FUNCTION GDM       1       +20185.175-9.262*T;                        6000 N !
 FUNCTION GDE       1       -GDM*TEMP;                                 6000 N !
 FUNCTION GDES      1       +ROBR*GDE;                                 6000 N !
 FUNCTION GDX       1       +1+EXP(GDES);                              6000 N !
 FUNCTION GDL       1       +LN(GDX);                                  6000 N !
 FUNCTION GD2ST     1       -R*T*GDL;                                  6000 N !
$ ------------------------------------------------------------------------------
$
$
 LIST-OF-REFERENCE
 NUMBER  SOURCE
  Null   'Unknown source'
  91Din  'A.T. Dinsdale, Calphad, 15, 317-425(1991).'
  92SUB  'SGTE Substance Database, version 1992'
  99SGUN 'SGTE unary database V.4.1, 1999.'
  15Din  'A.T. Dinsdale, A. Akhmetova, A.V. Khvan, N. Aristova,
          J. Phase Equilib. Diffus., 36, 254-61(2015); Ge-O'
  21Baj  'I. Bajenova, A. Khvan, M. Derevyanko, N. Aristova, A. Dinsdale,
          A. Kondriatev, A. Pisch, Calphad, 74, 102299(2021); Ge-O'
!
