$
$ Database for Dy-Si from K. Xu et al. 2020.
$
$ K. Xu, L. Chen, K. Chang, P. Wan, M. Li, Z. Deng, F. Huang, Q. Huang,
$ Calphad, 68, 101738(2020).
$
$ Dataset created 2021.07.03 by Bengt Hallstedt.
$
$ ------------------------------------------------------------------------------
 TEMP-LIM 298.15 6000.00 !
$
$ELEMENT NAME  REF. STATE               ATOMIC MASS H298-H0    S298    !
$
 ELEMENT VA   VACUUM                      0.0          0.0      0.0    ! 
 ELEMENT DY   HCP_A3                    162.50      8865.896   74.9559 ! 
 ELEMENT SI   DIAMOND_A4                 28.0855    3217.      18.81   ! 
$ ------------------------------------------------------------------------------
$ Phase definitions
$
 PHASE LIQUID:L % 1 1 !
 CONST LIQUID:L : DY SI : !
$
$ Fcc (cF4, Fm-3m) and MeX (cF8, Fm-3m)
$
 PHASE FCC_A1 %A 2 1 1 !
 CONST FCC_A1 : DY SI : VA : !
$
$ Bcc (cI2, Im-3m)
$
 PHASE BCC_A2 %B 2 1 3 !
 CONST BCC_A2 : DY% SI : VA : !
$
$ Hcp (hP2, P6_3/mmc) and Me2X (NiAs-type, hP4, P6_3/mmc, B8_1)
$
 PHASE HCP_A3 %A 2 1 0.5 !
 CONST HCP_A3 : DY% SI : VA : !
$
$ Prototype C (cF8, Fd-3m)
$
 PHASE DIAMOND_A4 % 1 1 !
 CONST DIAMOND_A4 : SI : !
$
$ Prototype Mn5Si3 (hP16, P6_3/mcm)
$
 PHASE DY5SI3_D88 % 2 5 3 !
 CONST DY5SI3_D88 : DY : SI : !
$
$ Prototype Gd5Si4 (oP36, Pnma)
$
 PHASE DY5SI4 % 2 5 4 !
 CONST DY5SI4 : DY : SI : !
$
$ Prototype CrB (oC8, Cmcm)
$ Also FeB suggested
$
 PHASE DYSI_B33 % 2 1 1 !
 CONST DYSI_B33 : DY : SI : !
$
$ Prototype Ho3Si4 (oC24, Cmcm)
$
 PHASE DY3SI4 % 2 3 4 !
 CONST DY3SI4 : DY : SI : !
$
$ Prototype AlB2 (hP3, P6/mmm)
$
 PHASE DY3SI5_C32 % 2 3 5 !
 CONST DY3SI5_C32 : DY : SI : !
$
$ unknown structure
$
 PHASE DY3SI5_BETA % 2 3 5 !
 CONST DY3SI5_BETA : DY : SI : !
$
$ Prototype GdSi1.4 (oI12, Imma)
$
 PHASE DYSI2_ALPHA % 2 1 2 !
 CONST DYSI2_ALPHA : DY : SI : !
$
$ Prototype Si2Th (tI12, I4_1/amd)
$
 PHASE DYSI2_CC % 2 1 2 !
 CONST DYSI2_CC : DY : SI : !
$ ------------------------------------------------------------------------------
$ Defaults
$
 DEFINE-SYSTEM-DEFAULT ELEMENT 2 !
 DEFAULT-COM DEFINE_SYSTEM_ELEMENT VA !
 TYPE-DEF % SEQ * !
 TYPE-DEF A GES AMEND_PHASE_DESCRIPTION @ MAGNETIC -3 0.28 !
 TYPE-DEF B GES AMEND_PHASE_DESCRIPTION @ MAGNETIC -1 0.4 !
 FUNCTION ZERO      298.15  0;                                         6000 N !
 FUNCTION UN_ASS    298.15  0;                                         6000 N !
 FUNCTION R         298.15  +8.31451;                                  6000 N !
$ ------------------------------------------------------------------------------
$ Element data
$ ------------------------------------------------------------------------------
$ Dy
$
$ HCP_A3, BCC_A2 and LIQUID revised in unary 3.0
$
$ FCC_A1 from 94Lan not included in unary
$ FCC_A1 from 03Cac not included in unary (but it should be)
$ FCC_A1, CBCC_A12 and CUB_A13 from 09Wan4 not included in unary.
$
 PAR  G(HCP_A3,DY:VA)           100.00  +GHSERDY;                3000 N 95She1 !
 PAR  TC(HCP_A3,DY:VA)          100.00    179;                   3000 N 95She1 !
 PAR  BM(HCP_A3,DY:VA)          100.00      3.0;                 3000 N 95She1 !
 PAR  G(BCC_A2,DY:VA)           100.00  +GBCCDY;                 3000 N 95She1 !
 PAR  G(FCC_A1,DY:VA)           100.00  +GHSERDY
             +1300-0.6651608*T;                                  3000 N 03Cac !
$PAR  G(FCC_A1,DY:VA)           298.15  +GHSERDY+5000;           3000 N 94Lan !
$PAR  G(CBCC_A12,DY:VA)         298.15  +GHSERDY+10000;          3000 N 09Wan4 !
$PAR  G(CUB_A13,DY:VA)          298.15  +GHSERDY+10000;          3000 N 09Wan4 !
 PAR  G(LIQUID,DY)              100.00  +GLIQDY;                 3000 N 95She1 !
$
 FUNCTION GHSERDY   100.00  -7937.16586+102.307412*T-26.3917167*T*LN(T)
       -7.61683657E-04*T**2-5.86914125E-07*T**3+4010.90565*T**(-1);
      1000.00  Y  -13733.328+214.012934*T-43.8283359*T*LN(T)
       +0.0166909801*T**2-3.49702836E-06*T**3+0.0173619874*T**(-1);
      1654.15  Y  -404681.371+2032.1415*T-272.123952*T*LN(T)
       +0.0578301681*T**2-2.76169148E-06*T**3+1.09616238E+08*T**(-1);
      3000.00  N !
 FUNCTION GBCCDY    100.00  +1508.1802-0.566616181*T+GHSERDY;
      1000.00  Y  +327500.062-2868.04585*T+391.515418*T*LN(T)
       -0.224042148*T**2+2.04076075E-05*T**3-48652656.5*T**(-1);
      1654.15  Y  -33708.7949+291.409631*T-50.208*T*LN(T);
      1685.15  Y  -40775.4966+330.318068*T-55.2811171*T*LN(T)
       +0.0015254673*T**2-7.7437116E-08*T**3+1776589.32*T**(-1);
      3000.00  N !
 FUNCTION GLIQDY    100.00  +13196.6185-7.5443643*T+GHSERDY;
      1000.00  Y  +300126.971-2519.78614*T+341.302578*T*LN(T)
       -0.196153225*T**2+1.76197799E-05*T**3-43071677.5*T**(-1);
      1685.15  Y  -21864.7344+282.205014*T-49.9151*T*LN(T);
      3000.00  N !
$ ------------------------------------------------------------------------------
$ Si
$
 PAR  G(DIAMOND_A4,SI),,                +GHSERSI;                3600 N 91Din !
 PAR  G(FCC_A1,SI:VA),,                 +GHSERSI+51000-21.8*T;   3600 N 91Din !
 PAR  G(BCC_A2,SI:VA),,                 +GHSERSI+47000-22.5*T;   3600 N 91Din !
 PAR  G(HCP_A3,SI:VA),,                 +GHSERSI+49200-20.8*T;   3600 N 91Din !
$PAR  G(CBCC_A12,SI:VA),,               +GHSERSI+50208-20.377*T; 3600 N 91Din !
$PAR  G(CUB_A13,SI:VA),,                +GHSERSI+47279-20.377*T; 3600 N 91Din !
 PAR  G(LIQUID,SI),,                    +GLIQSI;                 3600 N 91Din !
$
 FUNCTION GHSERSI   298.15  -8162.609+137.236859*T-22.8317533*T*LN(T)
       -0.001912904*T**2-3.552E-09*T**3+176667*T**(-1);
      1687.00  Y  -9457.642+167.281367*T-27.196*T*LN(T)-4.20369E+30*T**(-9);
      3600.00  N !
 FUNCTION GLIQSI    298.15  +50696.36-30.099439*T+GHSERSI+2.09307E-21*T**7;
      1687.00  Y  +40370.523+137.722298*T-27.196*T*LN(T);
      3600.00  N !
 FUNCTION GBCCSI    298.15  +GHSERSI+47000-22.5*T;                     3600 N !
$ ------------------------------------------------------------------------------
$ Binary system
$
$ K. Xu, L. Chen, K. Chang, P. Wan, M. Li, Z. Deng, F. Huang, Q. Huang,
$ Calphad, 68, 101738(2020).
$
$ Checked against paper. Checked at 6000 K.
$
 PAR  L(LIQUID,DY,SI;0),,               -240162.227;,,                N 20Xu !
 PAR  L(LIQUID,DY,SI;1),,               +6028.16945;,,                N 20Xu !
 PAR  L(LIQUID,DY,SI;2),,               +58205.0304;,,                N 20Xu !
$
 PAR  L(HCP_A3,DY,SI:VA;0),,            +UN_ASS;,,                    N !
 PAR  L(BCC_A2,DY,SI:VA;0),,            +UN_ASS;,,                    N !
$
 PAR  G(DY5SI3_D88,DY:SI),,             -578760.789+852.591281*T
             -193.96*T*LN(T)-0.0256415*T**2+214250*T**(-1);,,         N 20Xu !
 PAR  G(DY5SI4,DY:SI),,                 +5*GHSERDY+4*GHSERSI
             -640149.808-32.31*T;,,                                   N 20Xu !
 PAR  G(DYSI_B33,DY:SI),,               -157859.153+194.246685*T
             -43.72*T*LN(T)-0.007405*T**2+90137.5*T**(-1);,,          N 20Xu !
 PAR  G(DY3SI4,DY:SI),,                 +3*GHSERDY+4*GHSERSI
             -468642.047-27.7047714*T;,,                              N 20Xu !
 PAR  G(DY3SI5_C32,DY:SI),,             +3*GHSERDY+5*GHSERSI
             -483744.473-25.742497*T;,,                               N 20Xu !
 PAR  G(DY3SI5_BETA,DY:SI),,            +3*GHSERDY+5*GHSERSI
             -440950.918-67.1700835*T;,,                              N 20Xu !
 PAR  G(DYSI2_ALPHA,DY:SI),,            -192137.525+397.280214*T
             -74.71*T*LN(T)-0.009291*T**2+450059.5*T**(-1);,,         N 20Xu !
 PAR  G(DYSI2_CC,DY:SI),,               -185093.125+443.340401*T
             -83.56*T*LN(T)-0.004665*T**2+402716*T**(-1);,,           N 20Xu !
$ ------------------------------------------------------------------------------
$
$
 LIST-OF-REFERENCE
 NUMBER  SOURCE
  Null   'Unknown source'
  Same   'Same or similar interaction as in the corresponding stable phase'
  REFLAV 'Laves phase convention: G(LAVES,X:X)=+3*GHSERXX+15000'
  91Din  'A.T. Dinsdale, Calphad, 15, 317-425(1991).'
  94Lan  'S. Landin, J. Agren,
          J. Alloys Compd., 207-208, 449-53(1994); Dy, Tb'
  95She1 'H. Shen, W. Zhang, G. Liu, R. Wang, Z. Du, Report F-95-01,
          University of Science and Technology, Beijing, May 1995,
          SGTE unary database V.3.0, 1996; Dy'
  03Cac  'G. Cacciamani, S. De Negri, A. Saccone, R. Ferro,
          Intermetallics, 11, 1135-51(2003); Dy, Ho, Al-Dy'
  09Wan4 'C.P. Wang, Z. Lin, X.J. Liu,
          J. Alloys Compd., 469, 123-28(2009); Dy, Mn, Pr'
  20Xu   'K. Xu, L. Chen, K. Chang, P. Wan, M. Li, Z. Deng, F. Huang, Q. Huang,
          Calphad, 68, 101738(2020); Dy-Si'
!
