$
$ Database for Ir-Mo from Y.-Y. Huang et al. 2020.
$
$ Y.-Y. Huang, B. Wu, F. Li, L.-L. Chen, Z.-X. Deng, K. Chang,
$ J. Mining Metall. B, 56, 109-18(2020).
$
$ Dataset created 2022.12.04 by Bengt Hallstedt.
$
$ The modelling of the epsilon (hcp) phase is incorrect.
$ Sigma is modelled as a stoichiometric compound.
$
$ This system should be modelled with a 4-sl hcp model.
$
$ ------------------------------------------------------------------------------
 TEMP-LIM 298.15 6000.00 !
$
$ELEMENT NAME  REF. STATE               ATOMIC MASS H298-H0    S298    !
$
 ELEMENT VA   VACUUM                      0.0          0.0      0.0    ! 
 ELEMENT IR   FCC_A1                    192.22      5267.656   35.5054 ! 
 ELEMENT MO   BCC_A2                     95.94      4589.0     28.56   ! 
$ ------------------------------------------------------------------------------
$ Phase definitions
$
 PHASE LIQUID:L % 1 1 !
 CONST LIQUID:L : IR MO : !
$
$ Fcc (cF4, Fm-3m) and MeX (cF8, Fm-3m)
$
 PHASE FCC_A1 %A 2 1 1 !
 CONST FCC_A1 : IR% MO : VA : !
$
$ Bcc (cI2, Im-3m)
$
 PHASE BCC_A2 %B 2 1 3 !
 CONST BCC_A2 : IR MO% : VA : !
$
$ Hcp (hP2, P6_3/mmc) and Me2X (NiAs-type, hP4, P6_3/mmc, B8_1)
$
 PHASE HCP_A3 %A 2 1 0.5 !
 CONST HCP_A3 : IR MO : VA: !
$
$ Prototype CdMg3 (hP8, P6_3/mmc)
$
 PHASE IR3MO_D019 %  2 3 1 !
 CONST IR3MO_D019 : IR% MO : IR MO% : !
$
$ Prototype AuCd (oP4, Pmma)
$
 PHASE IRMO_B19 %  2 1 1 !
 CONST IRMO_B19 : IR : MO : !
$
$ Prototype Mg (hP2, P6_3/mmc), epsilon, this is hcp!
$
 PHASE IRMO_A3 %  2 1 1 !
 CONST IRMO_A3 : IR% MO : IR MO% : !
$
$ Prototype CrFe (tP30, P4_2/mnm), sigma
$
 PHASE IR3MO7_D8B %  2 17 43 !
 CONST IR3MO7_D8B : IR : MO : !
$
$ Prototype Cr3Si (cP8, Pm-3n)
$
 PHASE IRMO3_A15 %  2 1 3 !
 CONST IRMO3_A15 : IR% MO : IR MO% : !
$ ------------------------------------------------------------------------------
$ Defaults
$
 DEFINE-SYSTEM-DEFAULT ELEMENT 2 !
 DEFAULT-COM DEFINE_SYSTEM_ELEMENT VA !
 TYPE-DEF % SEQ * !
 TYPE-DEF A GES AMEND_PHASE_DESCRIPTION @ MAGNETIC -3 0.28 !
 TYPE-DEF B GES AMEND_PHASE_DESCRIPTION @ MAGNETIC -1 0.4 !
 FUNCTION ZERO      298.15  0;                                         6000 N !
 FUNCTION UN_ASS    298.15  0;                                         6000 N !
 FUNCTION R         298.15  +8.31451;                                  6000 N !
$ ------------------------------------------------------------------------------
$ Element data
$ ------------------------------------------------------------------------------
$ Ir
$
 PAR  G(FCC_A1,IR:VA),,                 +GHSERIR;                4000 N 91Din !
 PAR  G(BCC_A2,IR:VA),,                 +GHSERIR+32000-6.9*T;    4000 N 91Din !
 PAR  G(HCP_A3,IR:VA),,                 +GHSERIR+4000-0.6*T;     4000 N 91Din !
 PAR  G(LIQUID,IR),,                    +GLIQIR;                 4000 N 91Din !
$
 PAR  G(IR3MO_D019,IR:IR),,             +4*GHSERIR+80024;,,           N 20Hua !
 PAR  G(IRMO_A3,IR:IR),,                +2*GHSERIR+2000.2;,,          N 20Hua !
 PAR  G(IRMO3_A15,IR:IR),,              +4*GHSERIR+15001.5;,,         N 20Hua !
$
 FUNCTION GHSERIR   298.15  -6936.288+118.780119*T-22.7944*T*LN(T)
       -0.003091976*T**2-20083*T**(-1);
      1215.00  Y  -8123.73+140.066697*T-26.085*T*LN(T)-4.7969E-07*T**3;
      2719.00  Y  +290529.037-1258.35297*T+152.498874*T*LN(T)
       -0.047176402*T**2+1.844977E-06*T**3-92987250*T**(-1);
      4000.00  N !
 FUNCTION GLIQIR    298.15  +23455.244-6.312059*T+GHSERIR;
      1000.00  Y  +102217.789-587.632815*T+73.9517579*T*LN(T)
       -0.04638802*T**2+2.761831E-06*T**3-13382612*T**(-1);
      2719.00  Y  -38347.217+411.234043*T-59.418*T*LN(T);
      4000.00  N !
 FUNCTION GBCCIR    298.15  +GHSERIR+32000-6.9*T;                      4000 N !
$ ------------------------------------------------------------------------------
$ Mo
$
 PAR  G(BCC_A2,MO:VA),,                 +GHSERMO;                5000 N 91Din !
 PAR  G(FCC_A1,MO:VA),,                 +GHSERMO+15200+0.63*T;   5000 N 91Din !
 PAR  G(HCP_A3,MO:VA),,                 +GHSERMO+11550;          5000 N 91Din !
 PAR  G(LIQUID,MO),,                    +GLIQMO;                 5000 N 91Din !
$
 PAR  G(IR3MO_D019,MO:MO),,             +4*GHSERMO+86008.6;,,         N 20Hua !
 PAR  G(IRMO_A3,MO:MO),,                +2*GHSERMO+103010.3-25*T;,,   N 20Hua !
 PAR  G(IRMO3_A15,MO:MO),,              +4*GHSERMO+36390;,,           N 20Hua !
$
 FUNCTION GHSERMO   298.15  -7746.302+131.9197*T-23.56414*T*LN(T)
       -0.003443396*T**2+5.66283E-07*T**3+65812*T**(-1)-1.30927E-10*T**4;
      2896.00  Y  -30556.41+283.559746*T-42.63829*T*LN(T)-4.849315E+33*T**(-9);
      5000.00  N !
 FUNCTION GLIQMO    298.15  +41831.347-14.694912*T+GHSERMO+4.24519E-22*T**7;
      2896.00  Y  +3538.963+271.6697*T-42.63829*T*LN(T);
      5000.00  N !
 FUNCTION GFCCMO    298.15  +GHSERMO+15200+0.63*T;                     6000 N !
$ ------------------------------------------------------------------------------
$ Binary system
$
$ Y.-Y. Huang, B. Wu, F. Li, L.-L. Chen, Z.-X. Deng, K. Chang,
$ J. Mining Metall. B, 56, 109-18(2020).
$
$ Checked against paper. Checked at 6000 K.
$
$ The modelling of the epsilon (hcp) phase is incorrect.
$ Sigma is modelled as a stoichiometric compound.
$
$ This system should be modelled with a 4-sl hcp model.
$
 PAR  L(LIQUID,IR,MO;0),,               -102800+0.20004*T;,,          N 20Hua !
 PAR  L(LIQUID,IR,MO;1),,               -25020;,,                     N 20Hua !
 PAR  L(LIQUID,IR,MO;2),,               -20004+3.0021*T;,,            N 20Hua !
$
 PAR  L(FCC_A1,IR,MO:VA;0),,            -115046+10.60318*T;,,         N 20Hua !
 PAR  L(FCC_A1,IR,MO:VA;1),,            -20000-20.9*T;,,              N 20Hua !
$
 PAR  L(BCC_A2,IR,MO:VA;0),,            -50015-21.0063*T;,,           N 20Hua !
 PAR  L(BCC_A2,IR,MO:VA;1),,            -48028.8;,,                   N 20Hua !
$
 PAR  G(IR3MO_D019,IR:MO),,             +3*GHSERIR+GHSERMO
             -122261.1;,,                                             N 20Hua !
 PAR  G(IR3MO_D019,MO:IR),,             +3*GHSERMO+GHSERIR+40004;,,   N 20Hua !
 PAR  L(IR3MO_D019,IR,MO:IR;0),,        -200080+39*T;,,               N 20Hua !
 PAR  L(IR3MO_D019,IR,MO:MO;0),,        -200080+39*T;,,               N 20Hua !
 PAR  L(IR3MO_D019,IR:IR,MO;0),,        -108054;,,                    N 20Hua !
 PAR  L(IR3MO_D019,MO:IR,MO;0),,        -108054;,,                    N 20Hua !
$
 PAR  G(IRMO_B19,IR:MO),,               +GHSERIR+GHSERMO
             -49004.9-5.5*T;,,                                        N 20Hua !
$
 PAR  G(IRMO_A3,IR:MO),,                +GHSERIR+GHSERMO
             -40028.01-7*T;,,                                         N 20Hua !
 PAR  G(IRMO_A3,MO:IR),,                +GHSERMO+GHSERIR
             -40028.01-7*T;,,                                         N 20Hua !
 PAR  L(IRMO_A3,IR,MO:IR;0),,           -50101-3.1*T;,,               N 20Hua !
 PAR  L(IRMO_A3,IR,MO:MO;0),,           -50101-3.1*T;,,               N 20Hua !
 PAR  L(IRMO_A3,IR:IR,MO;0),,           -70011+10.011*T;,,            N 20Hua !
 PAR  L(IRMO_A3,MO:IR,MO;0),,           -70011+10.011*T;,,            N 20Hua !
$
 PAR  G(IR3MO7_D8B,IR:MO),,             +17*GHSERIR+43*GHSERMO
             -244000-509.3*T;,,                                       N 20Hua !
$
 PAR  G(IRMO3_A15,IR:MO),,              +GHSERIR+3*GHSERMO
             -40032-18.91512*T;,,                                     N 20Hua !
 PAR  G(IRMO3_A15,MO:IR),,              +GHSERMO+3*GHSERIR+80008;,,   N 20Hua !
 PAR  L(IRMO3_A15,IR,MO:IR;0),,         -12009.6;,,                   N 20Hua !
 PAR  L(IRMO3_A15,IR,MO:MO;0),,         -12009.6;,,                   N 20Hua !
 PAR  L(IRMO3_A15,IR:IR,MO;0),,         -45036;,,                     N 20Hua !
 PAR  L(IRMO3_A15,MO:IR,MO;0),,         -45036;,,                     N 20Hua !
$
$ Metastable
$
 PAR  L(HCP_A3,IR,MO:VA;0),,            -115046+10.60318*T;,,         N Same !
 PAR  L(HCP_A3,IR,MO:VA;1),,            -20000-20.9*T;,,              N Same !
$ ------------------------------------------------------------------------------
$
$
 LIST-OF-REFERENCE
 NUMBER  SOURCE
  Null   'Unknown source'
  Same   'Same or similar interaction as in the corresponding stable phase'
  COST   'COST 507 database'
  91Din  'A.T. Dinsdale, Calphad, 15, 317-425(1991).'
  96SGUN 'SGTE unary database V.3.0, 1996.'
  20Hua  'Y.-Y. Huang, B. Wu, F. Li, L.-L. Chen, Z.-X. Deng, K. Chang,
          J. Mining Metall. B, 56, 109-18(2020); Ir-Mo'
!
