$
$ Database for Cr-Lu from H. Okamoto 1992.
$
$ H. Okamoto, J. Phase Equilib., 13, 212-13(1992).
$
$ Dataset created 2025.02.17 by Bengt Hallstedt.
$
$ Pre-SGTE element data used in the paper. Invariants differ by up to 39 K.
$
$ ------------------------------------------------------------------------------
 TEMP-LIM 298.15 6000.00 !
$
$ELEMENT NAME  REF. STATE               ATOMIC MASS H298-H0    S298    !
$
 ELEMENT VA   VACUUM                      0.0          0.0      0.0    ! 
 ELEMENT CR   BCC_A2                     51.996     4050.0     23.5429 ! 
 ELEMENT LU   HCP_A3                    174.967     6388.968   50.9611 ! 
$ ------------------------------------------------------------------------------
$ Phase definitions
$
 PHASE LIQUID:L % 1 1 !
 CONST LIQUID:L : CR LU : !
$
$ Fcc (cF4, Fm-3m) and MeX (cF8, Fm-3m)
$
 PHASE FCC_A1 %A 2 1 1 !
 CONST FCC_A1 : CR : VA : !
$
$ Bcc (cI2, Im-3m)
$
 PHASE BCC_A2 %B 2 1 3 !
 CONST BCC_A2 : CR : VA : !
$
$ Hcp (hP2, P6_3/mmc) and Me2X (NiAs-type, hP4, P6_3/mmc, B8_1)
$
 PHASE HCP_A3 %A 2 1 0.5 !
 CONST HCP_A3 : CR LU% : VA : !
$ ------------------------------------------------------------------------------
$ Defaults
$
 DEFINE-SYSTEM-DEFAULT ELEMENT 2 !
 DEFAULT-COM DEFINE_SYSTEM_ELEMENT VA !
 TYPE-DEF % SEQ * !
 TYPE-DEF A GES AMEND_PHASE_DESCRIPTION @ MAGNETIC -3 0.28 !
 TYPE-DEF B GES AMEND_PHASE_DESCRIPTION @ MAGNETIC -1 0.4 !
 FUNCTION ZERO      298.15  0;                                         6000 N !
 FUNCTION UN_ASS    298.15  0;                                         6000 N !
 FUNCTION R         298.15  +8.31451;                                  6000 N !
$ ------------------------------------------------------------------------------
$ Element data
$ ------------------------------------------------------------------------------
$ Cr
$
 PAR  G(BCC_A2,CR:VA),,                 +GHSERCR;,,                   N 91Din !
 PAR  TC(BCC_A2,CR:VA),,                 -311.50;,,                   N 91Din !
 PAR  BM(BCC_A2,CR:VA),,                   -0.008;,,                  N 91Din !
 PAR  G(FCC_A1,CR:VA),,                 +GHSERCR+7284+0.163*T;,,      N 91Din !
 PAR  TC(FCC_A1,CR:VA),,                -1109.00;,,                   N 91Din !
 PAR  BM(FCC_A1,CR:VA),,                   -2.46;,,                   N 91Din !
 PAR  G(HCP_A3,CR:VA),,                 +GHSERCR+4438;,,              N 91Din !
 PAR  TC(HCP_A3,CR:VA),,                -1109.00;,,                   N 91Din !
 PAR  BM(HCP_A3,CR:VA),,                   -2.46;,,                   N 91Din !
$PAR  G(CBCC_A12,CR:VA),,               +GHSERCR+11087+2.7196*T;,,    N 91Din !
$PAR  G(CUB_A13,CR:VA),,                +GHSERCR+15899+0.6276*T;,,    N 91Din !
 PAR  G(LIQUID,CR),,                    +GLIQCR;,,                    N 91Din !
$
 FUNCTION GHSERCR   298.15  -8856.94+157.48*T-26.908*T*LN(T)
       +0.00189435*T**2-1.47721E-06*T**3+139250*T**(-1);
      2180.00  Y  -34869.344+344.18*T-50*T*LN(T)-2.88526E+32*T**(-9);
      6000.00  N !
 FUNCTION GLIQCR    298.15  +24339.955-11.420225*T+GHSERCR+2.37615E-21*T**7;
      2180.00  Y  -16459.984+335.616316*T-50*T*LN(T);
      6000.00  N !
 FUNCTION GFCCCR    298.15  +GHSERCR+7284+0.163*T;                     6000 N !
$ ------------------------------------------------------------------------------
$ Lu
$
$ FCC_A1 from 13Wan not in unary
$ FCC_A1 from 18Shi not in unary and not acceptable
$
 PAR  G(HCP_A3,LU:VA),,                 +GHSERLU;                3700 N 91Din !
$PAR  G(FCC_A1,LU:VA),,                 +GHSERLU+5000;           3700 N 13Wan !
$PAR  G(FCC_A1,LU:VA),,                 +GHSERLU+75657;          3700 N 18Shi !
 PAR  G(LIQUID,LU),,                    +GLIQLU;                 3700 N 91Din !
$
 FUNCTION GHSERLU   298.15  -8788.329+146.536283*T-29.812*T*LN(T)
       +0.00519165*T**2-1.790717E-06*T**3+39723*T**(-1);
       700.00  Y  -9043.057+142.327643*T-29.0095*T*LN(T)
       +0.00371416*T**2-1.50147E-06*T**3+141549*T**(-1);
      1700.00  Y  +6940.092-46.91844*T-1.83986*T*LN(T)-0.0119001*T**2;
      1936.00  Y  -404023.691+1829.37943*T-239.019502*T*LN(T)
       +0.041800748*T**2-1.661174E-06*T**3+1.24825465E+08*T**(-1);
      3700.00  N !
 FUNCTION GLIQLU    298.15  +12772.12-4.998883*T+GHSERLU;
       600.00  Y  +30389.863-198.378793*T+20.9392663*T*LN(T)
       -0.034238743*T**2+2.890636E-06*T**3-2398650*T**(-1);
      1936.00  Y  -18994.687+292.091104*T-47.9068*T*LN(T);
      3700.00  N !
$ ------------------------------------------------------------------------------
$ Binary system
$
$ H. Okamoto, J. Phase Equilib., 13, 212-13(1992).
$
$ Checked against paper. Checked at 6000 K.
$
$ Pre-SGTE element data used in the paper. Invariants differ by up to 39 K.
$
 PAR  L(LIQUID,CR,LU;0),,               +25440;,,                     N 92Oka !
 PAR  L(LIQUID,CR,LU;1),,               +13356;,,                     N 92Oka !
$
 PAR  L(HCP_A3,CR,LU:VA;0),,            +100000;,,                    N 25Hal !
$ ------------------------------------------------------------------------------
$
$
 LIST-OF-REFERENCE
 NUMBER  SOURCE
  Null   'Unknown source'
  Same   'Same or similar interaction as in the corresponding stable phase'
  REFLAV 'Laves phase convention: G(LAVES,X:X)=+3*GHSERXX+15000'
  91Din  'A.T. Dinsdale, Calphad, 15, 317-425(1991).'
  92Oka  'H. Okamoto, J. Phase Equilib., 13, 212-13(1992); Cr-Lu'
  13Wan  'D. Wang, Y. Yu, X.J. Liu, C.P. Wang, Calphad, 41, 20-25(2013); Lu'
  18Shi  'C. Shi, Y. Du, B. Hu, B. Yang, Y. Pan, F. Guo, S. Liu, Q. Du,
          Calphad, 62, 207-14(2018); Lu'
  25Hal  'B. Hallstedt, dummy solid interaction, 2025; Lu-W'
!
