$
$ Database for Mn-Si from W. Zheng et al. 2015
$
$ W. Zheng, X.-G. Lu, Y. He, Y. Cui, L. Li, J. Alloys Compd., 632, 661-75(2015).
$
$ Dataset created 2017.06.27 by Bengt Hallstedt.
$ 2021.01.30: Modified for use with GES6.
$
$ Modified from the assessment by 95Che.
$
$ ------------------------------------------------------------------------------
 TEMP-LIM 298.15 6000.00 !
$
$ELEMENT NAME  REF. STATE               ATOMIC MASS H298-H0    S298    !
$
 ELEMENT VA   VACUUM                      0.0          0.0      0.0    ! 
 ELEMENT MN   CBCC_A12                   54.9380    4995.696   32.2206 ! 
 ELEMENT SI   DIAMOND_A4                 28.0855    3217.      18.81   ! 
$ ------------------------------------------------------------------------------
$ Phase definitions
$
 PHASE LIQUID:L % 1 1 !
 CONST LIQUID:L : MN SI : !
$
$ Fcc (cF4, Fm-3m) and MeX (cF8, Fm-3m)
$
 PHASE FCC_A1 %A 2 1 1 !
 CONST FCC_A1 : MN% SI : VA : !
$
$ Bcc (cI2, Im-3m)
$
 PHASE BCC_A2 %B 2 1 3 !
 CONST BCC_A2 : MN% SI : VA : !
$
$ Hcp (hP2, P6_3/mmc) and Me2X (NiAs-type, hP4, P6_3/mmc, B8_1)
$
 PHASE HCP_A3 % 2 1 0.5 !
 CONST HCP_A3 : MN% SI : VA : !
$
$ Prototype alpha-Mn (cI58, I-43m)
$
 PHASE CBCC_A12 % 2 1 1 !
 CONST CBCC_A12 : MN% SI : VA : !
$
$ Prototype beta-Mn (cP20, P4_132)
$
 PHASE CUB_A13 % 2 1 1 !
 CONST CUB_A13 : MN% SI : VA : !
$
$ Prototype C (cF8, Fd-3m)
$
 PHASE DIAMOND_A4 % 1 1 !
 CONST DIAMOND_A4 : MN SI% : !
$
$ Prototype R-(Co,Cr,Mo) (hR53, R-3) or possibly Fe7W6 (hR13, R-3m)
$
 PHASE MN6SI % 2 6 1 !
 CONST MN6SI : MN : SI : !
$
$ Prototype Mn9Si2 (oI186, Immm), nu phase
$
 PHASE MN9SI2 % 2 9 2 !
 CONST MN9SI2 : MN : SI : !
$
$ The structure of alpha-Mn3Si is unknown.
$ Beta-Mn3Si is D0_3 (prototype BiF3 (cF16, Fm-3m))
$ The transformation is at 950 K.
$
 PHASE M3SI_D03 % 2 3 1 !
 CONST M3SI_D03 : MN : SI : !
$
$ Prototype Mn5Si3 (hP16, P6_3/mcm)
$
 PHASE M5SI3_D88 % 2 5 3 !
 CONST M5SI3_D88 : MN : SI : !
$
$ Prototype FeSi (cP8, P2_13)
$
 PHASE MSI_B20 % 2 1 1 !
 CONST MSI_B20 : MN : SI : !
$
$ Prototype Mn11Si19 (tP120, P-4n2)
$
 PHASE MN11SI19 % 2 11 19 !
 CONST MN11SI19 : MN : SI : !
$ ------------------------------------------------------------------------------
$ Defaults
$
 DEFINE-SYSTEM-DEFAULT ELEMENT 2 !
 DEFAULT-COM DEFINE_SYSTEM_ELEMENT VA !
 TYPE-DEF % SEQ * !
 TYPE-DEF A GES AMEND_PHASE_DESCRIPTION @ MAGNETIC -3 0.28 !
 TYPE-DEF B GES AMEND_PHASE_DESCRIPTION @ MAGNETIC -1 0.4 !
 FUNCTION ZERO      298.15  0;                                         6000 N !
 FUNCTION UN_ASS    298.15  0;                                         6000 N !
 FUNCTION R         298.15  +8.31451;                                  6000 N !
$ ------------------------------------------------------------------------------
$ Element data
$ ------------------------------------------------------------------------------
$ Mn
$
$ DIAMOND_A4 from 15Zhe not included in unary
$
 PAR  G(CBCC_A12,MN:VA),,               +GHSERMN;                2000 N 91Din !
 PAR  TC(CBCC_A12,MN:VA),,               -285.00;                2000 N 91Din !
 PAR  BM(CBCC_A12,MN:VA),,                 -0.66;                2000 N 91Din !
 PAR  G(CUB_A13,MN:VA),,                +GCUBMN;                 2000 N 91Din !
 PAR  G(FCC_A1,MN:VA),,                 +GFCCMN;                 2000 N 91Din !
 PAR  TC(FCC_A1,MN:VA),,                -1620.00;                2000 N 91Din !
 PAR  BM(FCC_A1,MN:VA),,                   -1.86;                2000 N 91Din !
 PAR  G(BCC_A2,MN:VA),,                 +GBCCMN;                 2000 N 91Din !
 PAR  TC(BCC_A2,MN:VA),,                 -580.00;                2000 N 91Din !
 PAR  BM(BCC_A2,MN:VA),,                   -0.27;                2000 N 91Din !
 PAR  G(HCP_A3,MN:VA),,                 +GHCPMN;                 2000 N 91Din !
 PAR  TC(HCP_A3,MN:VA),,                -1620.00;                2000 N 91Din !
 PAR  BM(HCP_A3,MN:VA),,                   -1.86;                2000 N 91Din !
 PAR  G(DIAMOND_A4,MN),,                +GHSERMN+1000;           2000 N 15Zhe !
 PAR  G(LIQUID,MN),,                    +GLIQMN;                 2000 N 91Din !
$
 FUNCTION GHSERMN   298.15  -8115.28+130.059*T-23.4582*T*LN(T)
       -0.00734768*T**2+69827*T**(-1);
      1519.00  Y  -28733.41+312.2648*T-48*T*LN(T)+1.656847E+30*T**(-9);
      2000.00  N !
 FUNCTION GCUBMN    298.15  -5800.4+135.995*T-24.8785*T*LN(T)
       -0.00583359*T**2+70269*T**(-1);
      1519.00  Y  +442.65-0.9715*T+GHSERMN+2.310723E+30*T**(-9);
      2000.00  N !
 FUNCTION GFCCMN    298.15  -3439.3+131.884*T-24.5177*T*LN(T)
       -0.006*T**2+69600*T**(-1);
      1519.00  Y  +2663.31-2.5984*T+GHSERMN+2.205113E+30*T**(-9);
      2000.00  N !
 FUNCTION GBCCMN    298.15  -3235.3+127.85*T-23.7*T*LN(T)
       -0.00744271*T**2+60000*T**(-1);
      1519.00  Y  +5544.58-4.5605*T+GHSERMN-3.91695E+29*T**(-9);
      2000.00  N !
 FUNCTION GHCPMN    298.15  -4439.3+133.007*T-24.5177*T*LN(T)
       -0.006*T**2+69600*T**(-1);
      1519.00  Y  +1663.31-1.4754*T+GHSERMN+2.205113E+30*T**(-9);
      2000.00  N !
 FUNCTION GLIQMN    298.15  +17859.91-12.6208*T+GHSERMN-4.41929E-21*T**7;
      1519.00  Y  -9993.9+299.036*T-48*T*LN(T);
      2000.00  N !
$ ------------------------------------------------------------------------------
$ Si
$
 PAR  G(DIAMOND_A4,SI),,                +GHSERSI;                3600 N 91Din !
 PAR  G(FCC_A1,SI:VA),,                 +GHSERSI+51000-21.8*T;   3600 N 91Din !
 PAR  G(BCC_A2,SI:VA),,                 +GHSERSI+47000-22.5*T;   3600 N 91Din !
 PAR  G(HCP_A3,SI:VA),,                 +GHSERSI+49200-20.8*T;   3600 N 91Din !
 PAR  G(CBCC_A12,SI:VA),,               +GHSERSI+50208-20.377*T; 3600 N 91Din !
 PAR  G(CUB_A13,SI:VA),,                +GHSERSI+47279-20.377*T; 3600 N 91Din !
 PAR  G(LIQUID,SI),,                    +GLIQSI;                 3600 N 91Din !
$
 FUNCTION GHSERSI   298.15  -8162.609+137.236859*T-22.8317533*T*LN(T)
       -0.001912904*T**2-3.552E-09*T**3+176667*T**(-1);
      1687.00  Y  -9457.642+167.281367*T-27.196*T*LN(T)-4.20369E+30*T**(-9);
      3600.00  N !
 FUNCTION GLIQSI    298.15  +50696.36-30.099439*T+GHSERSI+2.09307E-21*T**7;
      1687.00  Y  +40370.523+137.722298*T-27.196*T*LN(T);
      3600.00  N !
 FUNCTION GBCCSI    298.15  +GHSERSI+47000-22.5*T;               3600 N 91Din !
$ ------------------------------------------------------------------------------
$ Binary system
$
$ W. Zheng, X.-G. Lu, Y. He, Y. Cui, L. Li, J. Alloys Compd., 632, 661-75(2015).
$
$ Checked against paper. Checked at 6000 K.
$
$ Modified from the assessment by 95Che.
$
 PAR  L(LIQUID,MN,SI;0),,               -144940.73+26.0168*T;,,       N 15Zhe !
 PAR  L(LIQUID,MN,SI;1),,               -35971.42;,,                  N 15Zhe !
 PAR  L(LIQUID,MN,SI;2),,               +20101.5;,,                   N 95Che !
 PAR  L(LIQUID,MN,SI;3),,               +22617.55;,,                  N 95Che !
$
 PAR  L(FCC_A1,MN,SI:VA;0),,            -101155.8;,,                  N 15Zhe !
 PAR  L(BCC_A2,MN,SI:VA;0),,            -80946.85;,,                  N 15Zhe !
 PAR  L(DIAMOND_A4,MN,SI;0),,           -38330;,,                     N 15Zhe !
$
 PAR  L(CBCC_A12,MN,SI:VA;0),,          -163834.09+37.22733*T;,,      N 15Zhe !
 PAR  L(CBCC_A12,MN,SI:VA;1),,          -35971.42;,,                  N 15Zhe !
 PAR  L(CBCC_A12,MN,SI:VA;2),,          +20101.5;,,                   N 95Che !
 PAR  L(CBCC_A12,MN,SI:VA;3),,          +21617.55;,,                  N 15Zhe !
$
 PAR  L(CUB_A13,MN,SI:VA;0),,           -167534.09+42.22733*T;,,      N 15Zhe !
 PAR  L(CUB_A13,MN,SI:VA;1),,           -35971.42;,,                  N 15Zhe !
 PAR  L(CUB_A13,MN,SI:VA;2),,           +20101.50;,,                  N 95Che !
 PAR  L(CUB_A13,MN,SI:VA;3),,           +21617.55;,,                  N 15Zhe !
$
 PAR  G(MN6SI,MN:SI),,                  +6*GHSERMN+GHSERSI
             -107860-5.5957*T;,,                                      N 15Zhe !
 PAR  G(MN9SI2,MN:SI),,                 +9*GHSERMN+2*GHSERSI
             -200750-15.1833*T;,,                                     N 15Zhe !
 PAR  G(M3SI_D03,MN:SI),,               +4*GMN3SI-10960;,,            N 15Zhe !
 PAR  G(M5SI3_D88,MN:SI),,              +8*GMN5SI3-32000+0.8*T;,,     N 15Zhe !
 PAR  G(MSI_B20,MN:SI),,                +2*GMNSI-8000+0.86*T;,,       N 15Zhe !
 PAR  G(MN11SI19,MN:SI),,               +30*GMN11SI1-105000+10.2*T;,, N 15Zhe !
$
$ metastable
$
 PAR  L(HCP_A3,MN,SI:VA;0),,            -106955.8+3*T;,,              N 15Zhe !
$
$ Functions below are from 95Che
 FUNCTION GMN3SI    298.15  -31557.91+146.65936*T-25.22*T*LN(T)
       -6.51E-3*T**2+184000*T**(-1);
      6000.00  N !
 FUNCTION GMN5SI2   298.15  -33130.57+145.57655*T-25.205714*T*LN(T)
       -5.614286E-3*T**2+166429*T**(-1);
      6000.00  N !
 FUNCTION GMN5SI3   298.15  -36655.36+142.50732*T-25.17*T*LN(T)
       -3.375E-3*T**2+122500*T**(-1);
      6000.00  N !
 FUNCTION GMNSI     298.15  -42659.47+145.37763*T-24.66*T*LN(T)
       -3.195E-3*T**2+160000*T**(-1);
      6000.00  N !
 FUNCTION GMN11SI1  298.15  -37622.1+161.00858*T-26.64*T*LN(T)
       -0.855E-3*T**2+242000*T**(-1);
      6000.00  N !
$ ------------------------------------------------------------------------------
$
 ASSESSED_SYSTEM
  MN-SI(TDB -* +LIQUID +BCC_A2 +CBCC_A12 +CUB_A13 +DIAMOND +FCC_A1 +MSI_B20
  +M3SI_D03 +M5SI3_D88 +MN11SI19 +MN6SI +MN9SI2
  ;P3 TMM:300/2000 STP:.5/1700/-2) !
$
$
 LIST-OF-REFERENCE
 NUMBER  SOURCE
  Null   'Unknown source'
  Same   'Same or similar interaction as in the corresponding stable phase'
  REFLAV 'Laves phase convention: G(LAVES,X:X)=+3*GHSERXX+15000'
  91Din  'A.T. Dinsdale, Calphad, 15, 317-425(1991).'
  95Che  'P.-Y. Chevalier, E. Fischer, A. Rivet,
          Calphad, 19, 57-68(1995); Mn-Si'
  15Zhe  'W. Zheng, X.-G. Lu, Y. He, Y. Cui, L. Li,
          J. Alloys Compd., 632, 661-75(2015); Mn, Mn-Si, Fe-Mn-Si'
!
