$
$ Database for Mg-Ti from J.L. Murray 1986
$
$ J.L. Murray, Bull. Alloy Phase Diagrams, 7, 245-48(1986).
$
$ Dataset created 2015.06.21 by Bengt Hallstedt.
$ 2021.01.24: Modified for use with GES6.
$
$ The match is reasonable considering that pre-SGTE lattice stabilities were
$ used in 86Mur.
$
$ ------------------------------------------------------------------------------
 TEMP-LIM 298.15 6000.00 !
$
$ELEMENT NAME  REF. STATE               ATOMIC MASS H298-H0    S298    !
$
 ELEMENT VA   VACUUM                      0.0          0.0      0.0    ! 
 ELEMENT MG   HCP_A3                     24.305     4998.      32.671  !
 ELEMENT TI   HCP_A3                     47.88      4824.      30.72   ! 
$ ------------------------------------------------------------------------------
$ Phase definitions
$
 PHASE LIQUID:L % 1 1 !
 CONST LIQUID:L : MG TI : !
$
$ Fcc (cF4, Fm-3m) and MeX (cF8, Fm-3m)
$
 PHASE FCC_A1 %A 2 1 1 !
 CONST FCC_A1 : MG TI : VA : !
$
$ Bcc (cI2, Im-3m)
$
 PHASE BCC_A2 %B 2 1 3 !
 CONST BCC_A2 : MG TI% : VA : !
$
$ Hcp (hP2, P6_3/mmc) and Me2X (NiAs-type, hP4, P6_3/mmc, B8_1)
$
 PHASE HCP_A3 %A 2 1 0.5 !
 CONST HCP_A3 : MG TI : VA : !
$ ------------------------------------------------------------------------------
$ Defaults
$
 DEFINE-SYSTEM-DEFAULT ELEMENT 2 !
 DEFAULT-COM DEFINE_SYSTEM_ELEMENT VA !
 TYPE-DEF % SEQ * !
 TYPE-DEF A GES AMEND_PHASE_DESCRIPTION @ MAGNETIC -3 0.28 !
 TYPE-DEF B GES AMEND_PHASE_DESCRIPTION @ MAGNETIC -1 0.4 !
 FUNCTION ZERO      298.15  0;                                         6000 N !
 FUNCTION UN_ASS    298.15  0;                                         6000 N !
 FUNCTION R         298.15  +8.31451;                                  6000 N !
$ ------------------------------------------------------------------------------
$ Element data
$ ------------------------------------------------------------------------------
$ Mg
$
 PAR  G(FCC_A1,MG:VA),,                 +GHSERMG+2600-0.9*T;     3000 N 91Din !
 PAR  G(BCC_A2,MG:VA),,                 +GHSERMG+3100-2.1*T;     3000 N 91Din !
 PAR  G(HCP_A3,MG:VA),,                 +GHSERMG;                3000 N 91Din !
$PAR  G(CBCC_A12,MG:VA),,               +GHSERMG
$            +4602.4-3.011*T;                                    3000 N 91Din !
$PAR  G(CUB_A13,MG:VA),,                +GHSERMG+5000-3*T;       3000 N 91Din !
 PAR  G(LIQUID,MG),,                    +GLIQMG;                 3000 N 91Din !
$
 FUNCTION GHSERMG   298.15  -8367.34+143.675547*T-26.1849782*T*LN(T)
       +4.858E-04*T**2-1.393669E-06*T**3+78950*T**(-1);
       923.00  Y  -14130.185+204.716215*T-34.3088*T*LN(T)+1.038192E+28*T**(-9);
      3000.00  N !
 FUNCTION GLIQMG    298.15  +8202.243-8.83693*T+GHSERMG-8.0176E-20*T**7;
       923.00  Y  -5439.869+195.324057*T-34.3088*T*LN(T);
      3000.00  N !
$ ------------------------------------------------------------------------------
$ Ti
$
$ BCT_A5 added in unary 3.0
$
 PAR  G(HCP_A3,TI:VA),,                 +GHSERTI;                4000 N 91Din !
 PAR  G(BCC_A2,TI:VA),,                 +GBCCTI;                 4000 N 91Din !
 PAR  G(FCC_A1,TI:VA),,                 +GHSERTI+6000-0.1*T;     4000 N 91Din !
$PAR  G(DIAMOND_A4,TI),,                +GHSERTI+25000;          4000 N 91Din !
$PAR  G(BCT_A5,TI),,                    +GHSERTI+4602.2;         3000 N SGCOST !
$PAR  G(CBCC_A12,TI:VA),,               +GHSERTI+4602.2;         4000 N 91Din !
$PAR  G(CUB_A13,TI:VA),,                +GHSERTI+7531.2;         4000 N 91Din !
 PAR  G(LIQUID,TI),,                    +GLIQTI;                 4000 N 91Din !
$
 FUNCTION GHSERTI   298.15  -8059.921+133.615208*T-23.9933*T*LN(T)
       -0.004777975*T**2+1.06716E-07*T**3+72636*T**(-1);
       900.00  Y  -7811.815+132.988068*T-23.9887*T*LN(T)
       -0.0042033*T**2-9.0876E-08*T**3+42680*T**(-1);
      1155.00  Y  +908.837+66.976538*T-14.9466*T*LN(T)
       -0.0081465*T**2+2.02715E-07*T**3-1477660*T**(-1);
      1941.00  Y  -124526.786+638.806871*T-87.2182461*T*LN(T)
       +0.008204849*T**2-3.04747E-07*T**3+36699805*T**(-1);
      4000.00  N !
 FUNCTION GBCCTI    298.15  -1272.064+134.71418*T-25.5768*T*LN(T)
       -6.63845E-04*T**2-2.78803E-07*T**3+7208*T**(-1);
      1155.00  Y  +6667.385+105.366379*T-22.3771*T*LN(T)
       +0.00121707*T**2-8.4534E-07*T**3-2002750*T**(-1);
      1941.00  Y  +26483.26-182.426471*T+19.0900905*T*LN(T)
       -0.02200832*T**2+1.228863E-06*T**3+1400501*T**(-1);
      4000.00  N !
 FUNCTION GLIQTI    298.15  +12194.415-6.980938*T+GHSERTI;
      1300.00  Y  +369519.198-2554.0225*T+342.059267*T*LN(T)
       -0.163409355*T**2+1.2457117E-05*T**3-67034516*T**(-1);
      1941.00  Y  -19887.066+298.7367*T-46.29*T*LN(T);
      4000.00  N !
 FUNCTION GFCCTI    298.15  +GHSERTI+6000-0.1*T;                       4000 N !
$ ------------------------------------------------------------------------------
$ Binary system
$
$ J.L. Murray, Bull. Alloy Phase Diagrams, 7, 245-48(1986).
$
$ Checked against paper. Checked at 6000K.
$
$ The match is reasonable considering that pre-SGTE lattice stabilities were
$ used in 86Mur.
$
 PAR  L(LIQUID,MG,TI;0),,               +77020;,,                     N 86Mur !
$
 PAR  L(BCC_A2,MG,TI:VA;0),,            +33608;,,                     N 86Mur !
$
 PAR  L(HCP_A3,MG,TI:VA;0),,            +21779+22.165*T;,,            N 86Mur !
 PAR  L(HCP_A3,MG,TI:VA;1),,            +9467;,,                      N 86Mur !
$
$ Metastable
$
 PAR  L(FCC_A1,MG,TI:VA;0),,            +21779+22.165*T;,,            N Same !
 PAR  L(FCC_A1,MG,TI:VA;1),,            +9467;,,                      N Same !
$ ------------------------------------------------------------------------------
$
$
 LIST-OF-REFERENCE
 NUMBER  SOURCE
  Null   'Unknown source'
  Same   'Same or similar interaction as in the corresponding stable phase'
  REFLAV 'Laves phase convention: G(LAVES,X:X)=+3*GHSERXX+15000'
  COST   'COST 507 database'
  SGCOST 'COST 507 database, SGTE unary database V.3.0, 1996; Al, B, Nd, Ti, Zn'
  86Mur  'J.L. Murray, Bull. Alloy Phase Diagrams, 7, 245-48(1986); Mg-Ti'
  91Din  'A.T. Dinsdale, Calphad, 15, 317-425(1991).'
!
