$
$ Database for Ti-H from K. Wang et al. 2010
$
$ K. Wang, X. Kong, J. Du, C. Li, Z. Li, Z. Wu, Calphad, 34, 317-23(2010).
$
$ Dataset created 2016.05.26 by Bengt Hallstedt.
$ 2021.02.05: Modified for use with GES6.
$
$ Non-standard models for fcc and bcc.
$
$ The sign of L(LIQUID,H,TIH2;1) had to be changed in the author's tdb (Pandat).
$
$ ------------------------------------------------------------------------------
 TEMP-LIM 298.15 6000.00 !
$
$ELEMENT NAME  REF. STATE               ATOMIC MASS H298-H0    S298    !
$
 ELEMENT VA   VACUUM                      0.0          0.0      0.0    ! 
 ELEMENT H    1/2_MOLE_H2(G)              1.0079    4234.      65.285  ! 
 ELEMENT TI   HCP_A3                     47.88      4824.      30.72   ! 
$ ------------------------------------------------------------------------------
$ Species
$
 SPECIE  TIH2                               TI1H2 !
 SPECIE  H2                                 H2 !
$ ------------------------------------------------------------------------------
$ Phase definitions
$
 PHASE LIQUID:L % 1 1 !
 CONST LIQUID:L : H TI TIH2 : !
$
$ Fcc (cF4, Fm-3m) and CaF2 (cF12, Fm-3m); occupation of tetrahedral sites
$
 PHASE FCC_A1 %A 2 1 2 !
 CONST FCC_A1 : TI : H% VA : !
$
$ Bcc (cI2, Im-3m)
$
 PHASE BCC_A2 %B 2 1 1.5 !
 CONST BCC_A2 : TI : H VA% : !
$
$ Hcp (hP2, P6_3/mmc) and Me2X (NiAs-type, hP4, P6_3/mmc, B8_1)
$
 PHASE HCP_A3 %A 2 1 0.5 !
 CONST HCP_A3 : TI : H VA% : !
$
 PHASE GAS:G % 1 1 !
 CONST GAS:G : H H2 : !
$ ------------------------------------------------------------------------------
$ Defaults
$
 DEFINE-SYSTEM-DEFAULT ELEMENT 2 !
 DEFAULT-COM DEFINE_SYSTEM_ELEMENT VA !
 TYPE-DEF % SEQ * !
 TYPE-DEF A GES AMEND_PHASE_DESCRIPTION @ MAGNETIC -3 0.28 !
 TYPE-DEF B GES AMEND_PHASE_DESCRIPTION @ MAGNETIC -1 0.4 !
 FUNCTION ZERO      298.15  0;                                         6000 N !
 FUNCTION UN_ASS    298.15  0;                                         6000 N !
 FUNCTION R         298.15  +8.31451;                                  6000 N !
 FUNCTION RTLNP     298.15  +8.31451*T*LN(1E-05*P);                    6000 N !
$ ------------------------------------------------------------------------------
$ Element data
$ ------------------------------------------------------------------------------
$ H
$
$ H is not included in unary
$
 PAR  G(LIQUID,H),,                     +0.5*GHSERH2
             +8035+25*T+2*T*LN(T);,,                                  N 06Qiu !
$
 PAR  G(GAS,H),,                        +F10383T+RTLNP;,,             N 97SUB !
 PAR  G(GAS,H2),,                       +GHSERH2+RTLNP;,,             N 97SUB !
$
$ H(g)
 FUNCTION F10383T   298.15  +211801.621+24.4989821*T-20.78611*T*LN(T);
      6000.00  N !
$ H2(g)
 FUNCTION GHSERH2   298.15  -9522.9741+78.5273879*T-31.35707*T*LN(T)
       +0.0027589925*T**2-7.46390667E-07*T**3+56582.3*T**(-1);
      1000.00  Y  +180.108664-15.6128256*T-17.84857*T*LN(T)
       -0.00584168*T**2+3.14618667E-07*T**3-1280036*T**(-1);
      2100.00  Y  -18840.1663+92.3120255*T-32.05082*T*LN(T)
       -0.0010728235*T**2+1.14281783E-08*T**3+3561002.5*T**(-1);
      6000.00  N !
$ ------------------------------------------------------------------------------
$ Ti
$
$ BCT_A5 added in unary 3.0
$
 PAR  G(HCP_A3,TI:VA),,                 +GHSERTI;                4000 N 91Din !
 PAR  G(BCC_A2,TI:VA),,                 +GBCCTI;                 4000 N 91Din !
 PAR  G(FCC_A1,TI:VA),,                 +GHSERTI+6000-0.1*T;     4000 N 91Din !
$PAR  G(CBCC_A12,TI:VA),,               +GHSERTI+4602.2;         4000 N 91Din !
$PAR  G(CUB_A13,TI:VA),,                +GHSERTI+7531.2;         4000 N 91Din !
$PAR  G(DIAMOND_A4,TI),,                +GHSERTI+25000;          4000 N 91Din !
$PAR  G(BCT_A5,TI),,                    +GHSERTI+4602.2;         3000 N SGCOST !
 PAR  G(LIQUID,TI),,                    +GLIQTI;                 4000 N 91Din !
$
 FUNCTION GHSERTI   298.15  -8059.921+133.615208*T-23.9933*T*LN(T)
       -0.004777975*T**2+1.06716E-07*T**3+72636*T**(-1);
       900.00  Y  -7811.815+132.988068*T-23.9887*T*LN(T)
       -0.0042033*T**2-9.0876E-08*T**3+42680*T**(-1);
      1155.00  Y  +908.837+66.976538*T-14.9466*T*LN(T)
       -0.0081465*T**2+2.02715E-07*T**3-1477660*T**(-1);
      1941.00  Y  -124526.786+638.806871*T-87.2182461*T*LN(T)
       +0.008204849*T**2-3.04747E-07*T**3+36699805*T**(-1);
      4000.00  N !
 FUNCTION GBCCTI    298.15  -1272.064+134.71418*T-25.5768*T*LN(T)
       -6.63845E-04*T**2-2.78803E-07*T**3+7208*T**(-1);
      1155.00  Y  +6667.385+105.366379*T-22.3771*T*LN(T)
       +0.00121707*T**2-8.4534E-07*T**3-2002750*T**(-1);
      1941.00  Y  +26483.26-182.426471*T+19.0900905*T*LN(T)
       -0.02200832*T**2+1.228863E-06*T**3+1400501*T**(-1);
      4000.00  N !
 FUNCTION GLIQTI    298.15  +12194.415-6.980938*T+GHSERTI;
      1300.00  Y  +369519.198-2554.0225*T+342.059267*T*LN(T)
       -0.163409355*T**2+1.2457117E-05*T**3-67034516*T**(-1);
      1941.00  Y  -19887.066+298.7367*T-46.29*T*LN(T);
      4000.00  N !
 FUNCTION GFCCTI    298.15  +GHSERTI+6000-0.1*T;                       4000 N !
$ ------------------------------------------------------------------------------
$ Binary system
$
$ K. Wang, X. Kong, J. Du, C. Li, Z. Li, Z. Wu, Calphad, 34, 317-23(2010).
$
$ Checked against paper and author's tdb. Checked at 6000 K.
$
$ Non-standard models for fcc and bcc.
$
$ The sign of L(LIQUID,H,TIH2;1) had to be changed in the author's tdb (Pandat).
$
 PAR  G(LIQUID,TIH2),,                  +GHSERTI+GHSERH2
             +73032.4+80.2085*T;,,                                    N 10Wan !
 PAR  L(LIQUID,H,TIH2;0),,              -184222-152.063*T;,,          N 10Wan !
 PAR  L(LIQUID,H,TIH2;1),,              +154263+44.2163*T;,,          N 10Wan !
 PAR  L(LIQUID,TI,TIH2;0),,             -168706-11.8476*T;,,          N 10Wan !
$
 PAR  G(FCC_A1,TI:H),,                  +GFCCTI+GHSERH2
             -141748+138.601*T;,,                                     N 10Wan !
 PAR  L(FCC_A1,TI:H,VA;0),,             +8229.73;,,                   N 10Wan !
 PAR  L(FCC_A1,TI:H,VA;1),,             -17080.7;,,                   N 10Wan !
$
 PAR  G(BCC_A2,TI:H),,                  +GBCCTI+0.75*GHSERH2
             -95951.4+95.036*T;,,                                     N 10Wan !
 PAR  L(BCC_A2,TI:H,VA;0),,             +2970.28-6.5847*T;,,          N 10Wan !
 PAR  L(BCC_A2,TI:H,VA;1),,             -7380.82-0.3547*T;,,          N 10Wan !
$
 PAR  G(HCP_A3,TI:H),,                  +GHSERTI+0.25*GHSERH2
             -25108.3+22.1306*T;,,                                    N 10Wan !
 PAR  L(HCP_A3,TI:H,VA;0),,             +2218.31+0.3981*T;,,          N 10Wan !
$ ------------------------------------------------------------------------------
$
$
 LIST-OF-REFERENCE
 NUMBER  SOURCE
  Null   'Unknown source'
  Same   'Same or similar interaction as in the corresponding stable phase'
  COST   'COST 507 database'
  SGCOST 'COST 507 database, SGTE unary database V.3.0, 1996; Al, B, Nd, Ti, Zn'
  91Din  'A.T. Dinsdale, Calphad, 15, 317-425(1991).'
  97SUB  'SGTE substance database, version 1997'
  06Qiu  'C. Qiu, S.M. Opalka, G.B. Olson, D.L. Anton,
          Int. J. Mater. Res., 97, 845-53(2006); Na-H'
  10Wan  'K. Wang, X. Kong, J. Du, C. Li, Z. Li, Z. Wu,
          Calphad, 34, 317-23(2010); Ti-H'
!
