$
$ Database for Lu-Sb from S.L. Wang et al. 2011
$
$ S.L. Wang, F. Gao, S.X. Gan, C.P. Wang, X.J. Liu, Calphad, 35, 421-26(2011).
$
$ Dataset created 2016.09.24 by Bengt Hallstedt.
$ 2021.01.24: Modified for use with GES6.
$
$ ------------------------------------------------------------------------------
 TEMP-LIM 298.15 6000.00 !
$
$ELEMENT NAME  REF. STATE               ATOMIC MASS H298-H0    S298    !
$
 ELEMENT VA   VACUUM                      0.0          0.0      0.0    ! 
 ELEMENT LU   HCP_A3                    174.967     6388.968   50.9611 ! 
 ELEMENT SB   RHOMBOHEDRAL_A7           121.75      5870.152   45.5219 ! 
$ ------------------------------------------------------------------------------
$ Phase definitions
$
 PHASE LIQUID:L % 1 1 !
 CONST LIQUID:L : LU SB : !
$
$ Fcc (cF4, Fm-3m) and MeX (cF8, Fm-3m)
$
 PHASE FCC_A1 %A 2 1 1 !
 CONST FCC_A1 : SB : VA : !
$
$ Bcc (cI2, Im-3m)
$
 PHASE BCC_A2 %B 2 1 3 !
 CONST BCC_A2 : SB : VA : !
$
$ Hcp (hP2, P6_3/mmc) and Me2X (NiAs-type, hP4, P6_3/mmc, B8_1)
$
 PHASE HCP_A3 %A 2 1 0.5 !
 CONST HCP_A3 : LU% SB : VA : !
$
$ Prototype alpha-As (hR2, R-3m)
$
 PHASE RHOMBOHEDRAL_A7 % 1 1 !
 CONST RHOMBOHEDRAL_A7 : SB : !
$
$ unknown structure
$
 PHASE LU3SB % 2 3 1 !
 CONST LU3SB : LU : SB : !
$
$ Prototype Bi3Y5 (oP32, Pnma)
$
 PHASE LU5SB3 % 2 5 3 !
 CONST LU5SB3 : LU : SB : !
$
$ Prototype NaCl (cF8, Fm-3m)
$
 PHASE LUSB_B1 % 2 1 1 !
 CONST LUSB_B1 : LU : SB : !
$
$ unknown structure
$
 PHASE LUSB_BETA % 2 1 1 !
 CONST LUSB_BETA : LU : SB : !
$
$ Prototype HoSb2 (oC6, C222)
$
 PHASE LUSB2 % 2 1 2 !
 CONST LUSB2 : LU : SB : !
$ ------------------------------------------------------------------------------
$ Defaults
$
 DEFINE-SYSTEM-DEFAULT ELEMENT 2 !
 DEFAULT-COM DEFINE_SYSTEM_ELEMENT VA !
 TYPE-DEF % SEQ * !
 TYPE-DEF A GES AMEND_PHASE_DESCRIPTION @ MAGNETIC -3 0.28 !
 TYPE-DEF B GES AMEND_PHASE_DESCRIPTION @ MAGNETIC -1 0.4 !
 FUNCTION ZERO      298.15  0;                                         6000 N !
 FUNCTION UN_ASS    298.15  0;                                         6000 N !
 FUNCTION R         298.15  +8.31451;                                  6000 N !
$ ------------------------------------------------------------------------------
$ Element data
$ ------------------------------------------------------------------------------
$ Lu
$
 PAR  G(HCP_A3,LU:VA),,                 +GHSERLU;                3700 N 91Din !
 PAR  G(LIQUID,LU),,                    +GLIQLU;                 3700 N 91Din !
$
 FUNCTION GHSERLU   298.15  -8788.329+146.536283*T-29.812*T*LN(T)
       +0.00519165*T**2-1.790717E-06*T**3+39723*T**(-1);
       700.00  Y  -9043.057+142.327643*T-29.0095*T*LN(T)
       +0.00371416*T**2-1.50147E-06*T**3+141549*T**(-1);
      1700.00  Y  +6940.092-46.91844*T-1.83986*T*LN(T)-0.0119001*T**2;
      1936.00  Y  -404023.691+1829.37943*T-239.019502*T*LN(T)
       +0.041800748*T**2-1.661174E-06*T**3+1.24825465E+08*T**(-1);
      3700.00  N !
 FUNCTION GLIQLU    298.15  +12772.12-4.998883*T+GHSERLU;
       600.00  Y  +30389.863-198.378793*T+20.9392663*T*LN(T)
       -0.034238743*T**2+2.890636E-06*T**3-2398650*T**(-1);
      1936.00  Y  -18994.687+292.091104*T-47.9068*T*LN(T);
      3700.00  N !
$ ------------------------------------------------------------------------------
$ Sb
$
$ BCT_A5 revised in unary 3.0
$
$ BCT_A5 the value from 91Din is used in LBall-v7+fun.tdb.
$ BCT_A5 the value from 96SGUN is used in SGSOL 5.0.
$ It is only needed in Sb-Sn.
$
 PAR  G(RHOMBOHEDRAL_A7,SB),,           +GHSERSB;                2000 N 91Din !
 PAR  G(FCC_A1,SB:VA),,                 +GHSERSB+19874-13.7*T;   2000 N 91Din !
 PAR  G(BCC_A2,SB:VA),,                 +GHSERSB+19874-15.1*T;   2000 N 91Din !
 PAR  G(HCP_A3,SB:VA),,                 +GHSERSB+19874-13*T;     2000 N 91Din !
$PAR  G(BCT_A5,SB),,                    +GHSERSB+13000-8*T;      2000 N 96SGUN !
$PAR  G(BCT_A5,SB),,                    +GHSERSB+1000;           2000 N 91Din !
 PAR  G(LIQUID,SB),,                    +GLIQSB;                 2000 N 91Din !
$
 FUNCTION GHSERSB   298.15  -9242.858+156.154689*T-30.5130752*T*LN(T)
       +0.007748768*T**2-3.003415E-06*T**3+100625*T**(-1);
       903.78  Y  -11738.83+169.485872*T-31.38*T*LN(T)+1.616849E+27*T**(-9);
      2000.00  N !
 FUNCTION GLIQSB    298.15  +19822.328-21.923164*T+GHSERSB-1.74847E-20*T**7;
       903.78  Y  +8175.359+147.455986*T-31.38*T*LN(T);
      2000.00  N !
$ ------------------------------------------------------------------------------
$ Binary system
$
$ S.L. Wang, F. Gao, S.X. Gan, C.P. Wang, X.J. Liu, Calphad, 35, 421-26(2011).
$
$ Checked against paper and author's tdb. Checked at 6000 K.
$
 PAR  L(LIQUID,LU,SB;0),,               -229659-2.7*T;,,              N 11Wan !
 PAR  L(LIQUID,LU,SB;1),,               -12000-2.8*T;,,               N 11Wan !
 PAR  L(LIQUID,LU,SB;2),,               +1000+23*T;,,                 N 11Wan !
$
 PAR  L(HCP_A3,LU,SB:VA;0),,            -174500;,,                    N 11Wan !
$
 PAR  G(LU3SB,LU:SB),,                  +3*GHSERLU+GHSERSB
             -230000+9.42*T;,,                                        N 11Wan !
 PAR  G(LU5SB3,LU:SB),,                 +5*GHSERLU+3*GHSERSB
             -692480+39.12*T;,,                                       N 11Wan !
 PAR  G(LUSB_B1,LU:SB),,                +GHSERLU+GHSERSB
             -231492+18.828*T;,,                                      N 11Wan !
 PAR  G(LUSB_BETA,LU:SB),,              +GHSERLU+GHSERSB
             -231000+18.598*T;,,                                      N 11Wan !
 PAR  G(LUSB2,LU:SB),,                  +GHSERLU+2*GHSERSB
             -239127+18.879*T;,,                                      N 11Wan !
$ ------------------------------------------------------------------------------
$
$
 LIST-OF-REFERENCE
 NUMBER  SOURCE
  Null   'Unknown source'
  Same   'Same or similar interaction as in the corresponding stable phase'
  COST   'COST 507 database'
  91Din  'A.T. Dinsdale, Calphad, 15, 317-425(1991).'
  96SGUN 'SGTE unary database V.3.0, 1996.'
  11Wan  'S.L. Wang, F. Gao, S.X. Gan, C.P. Wang, X.J. Liu,
          Calphad, 35, 421-26(2011); Lu-Sb'
!
