$
$ Database for Si-U from AEA Harwell 1998
$
$ AEA Harwell, unpublished, 1998.
$
$ Dataset created 2016.03.25 by Bengt Hallstedt.
$ 2021.02.05: Modified for use with GES6.
$
$ The phase diagram is quite similar to that of 04Che in LB, i.e. it can be
$ assumed to be reproduced as intended.
$
$ There is an inverse miscibility gap with a minimum at 3857 K and x(U)=0.82.
$
$ According to the given temperature limits for the Gibbs energies of the
$ compounds several compounds formally do not have a defined Gibbs energy
$ at their melting temperature.
$
$ ------------------------------------------------------------------------------
 TEMP-LIM 298.15 6000.00 !
$
$ELEMENT NAME  REF. STATE               ATOMIC MASS H298-H0    S298    !
$
 ELEMENT VA   VACUUM                      0.0          0.0      0.0    ! 
 ELEMENT SI   DIAMOND_A4                 28.0855    3217.      18.81   ! 
 ELEMENT U    ORTHORHOMBIC_A20          238.0289    6364.      50.20   ! 
$ ------------------------------------------------------------------------------
$ Phase definitions
$
 PHASE LIQUID:L % 1 1 !
 CONST LIQUID:L : SI U : !
$
$ Fcc (cF4, Fm-3m) and MeX (cF8, Fm-3m)
$
 PHASE FCC_A1 %A 2 1 1 !
 CONST FCC_A1 : SI U : VA : !
$
$ Bcc (cI2, Im-3m)
$
 PHASE BCC_A2 %B 2 1 3 !
 CONST BCC_A2 : U : VA : !
$
$ Hcp (hP2, P6_3/mmc) and Me2X (NiAs-type, hP4, P6_3/mmc, B8_1)
$
 PHASE HCP_A3 %A 2 1 0.5 !
 CONST HCP_A3 : SI U : VA : !
$
$ Prototype C (cF8, Fd-3m)
$
 PHASE DIAMOND_A4 % 1 1 !
 CONST DIAMOND_A4 : SI : !
$
$ Prototype alpha-U (oC4, Cmcm)
$
 PHASE ORTHORHOMBIC_A20 % 1 1 !
 CONST ORTHORHOMBIC_A20 : U : !
$
$ Prototype beta-U (tP30, P4_2/mnm, SB: A_b)
$
 PHASE TETRAGONAL_U % 1 1 !
 CONST TETRAGONAL_U : U : !
$
$ Prototype AuCu3 (cP4, Pm-3m)
$
 PHASE SI3U_L12 % 2 3 1 !
 CONST SI3U_L12 : SI : U : !
$
$ Prototype Si2Th (tI12, I4_1/amd)
$
 PHASE SI2U_CC % 2 2 1 !
 CONST SI2U_CC : SI : U : !
$
$ Prototype AlB2 (hP3, P6/mmm)
$
 PHASE SI5U3_C32 % 2 5 3 !
 CONST SI5U3_C32 : SI : U : !
$
$ Prototype FeB (oP8, Pnma)
$
 PHASE SIU_B27 % 2 1 1 !
 CONST SIU_B27 : SI : U : !
$
$ Prototype Si2U3 (tP10, P4/mbm)
$
 PHASE SI2U3_D5A % 2 2 3 !
 CONST SI2U3_D5A : SI : U : !
$
$ Prototype SiU3 (tI16, I4/mcm, D0_c), low T
$ and prototype AuCu3 (cP4, Pm-3m, L1_2), high T
$
 PHASE SIU3 % 2 1 3 !
 CONST SIU3 : SI : U : !
$ ------------------------------------------------------------------------------
$ Defaults
$
 DEFINE-SYSTEM-DEFAULT ELEMENT 2 !
 DEFAULT-COM DEFINE_SYSTEM_ELEMENT VA !
 TYPE-DEF % SEQ * !
 TYPE-DEF A GES AMEND_PHASE_DESCRIPTION @ MAGNETIC -3 0.28 !
 TYPE-DEF B GES AMEND_PHASE_DESCRIPTION @ MAGNETIC -1 0.4 !
 FUNCTION ZERO      298.15  0;                                         6000 N !
 FUNCTION UN_ASS    298.15  0;                                         6000 N !
 FUNCTION R         298.15  +8.31451;                                  6000 N !
$ ------------------------------------------------------------------------------
$ Element data
$ ------------------------------------------------------------------------------
$ Si
$
$ ORTHORHOMBIC_A20 and TETRAGONAL_U from 04Che4 not included in unary
$
 PAR  G(DIAMOND_A4,SI),,                +GHSERSI;                3600 N 91Din !
 PAR  G(FCC_A1,SI:VA),,                 +GHSERSI+51000-21.8*T;   3600 N 91Din !
$PAR  G(BCC_A2,SI:VA),,                 +GHSERSI+47000-22.5*T;   3600 N 91Din !
 PAR  G(HCP_A3,SI:VA),,                 +GHSERSI+49200-20.8*T;   3600 N 91Din !
$PAR  G(CBCC_A12,SI:VA),,               +GHSERSI+50208-20.377*T; 3600 N 91Din !
$PAR  G(CUB_A13,SI:VA),,                +GHSERSI+47279-20.377*T; 3600 N 91Din !
$PAR  G(ORTHORHOMBIC_A20,SI),,          +GHSERSI+16000;          3600 N 04Che4 !
$PAR  G(TETRAGONAL_U,SI),,              +GHSERSI+15000;          3600 N 04Che4 !
 PAR  G(LIQUID,SI),,                    +GLIQSI;                 3600 N 91Din !
$
 FUNCTION GHSERSI   298.15  -8162.609+137.236859*T-22.8317533*T*LN(T)
       -0.001912904*T**2-3.552E-09*T**3+176667*T**(-1);
      1687.00  Y  -9457.642+167.281367*T-27.196*T*LN(T)-4.20369E+30*T**(-9);
      3600.00  N !
 FUNCTION GLIQSI    298.15  +50696.36-30.099439*T+GHSERSI+2.09307E-21*T**7;
      1687.00  Y  +40370.523+137.722298*T-27.196*T*LN(T);
      3600.00  N !
 FUNCTION GBCCSI    298.15  +GHSERSI+47000-22.5*T;               3600 N 91Din !
$ ------------------------------------------------------------------------------
$ U
$
$ FCC_A1 and HCP_A3 added in unary 4.1
$
$ HCP_A3 from 04Che not in unary
$
 PAR  G(ORTHORHOMBIC_A20,U),,           +GHSERUU;                3000 N 91Din !
 PAR  G(TETRAGONAL_U,U),,               +GTETUU;                 3000 N 91Din !
 PAR  G(BCC_A2,U:VA),,                  +GBCCUU;                 3000 N 91Din !
 PAR  G(FCC_A1,U:VA),,                  +GHSERUU+5000;           3000 N 99SGUN !
 PAR  G(HCP_A3,U:VA),,                  +GBCCUU+5000-0.008*T;    3000 N 99SGUN !
$PAR  G(HCP_A3,U:VA),,                  +GHSERUU+50000;          3000 N 04Che3 !
 PAR  G(LIQUID,U),,                     +GHSERUU
             +12355.5-10.3239*T;                                 3000 N 91Din !
$
 FUNCTION GHSERUU   298.15  -8407.734+130.955151*T-26.9182*T*LN(T)
       +0.00125156*T**2-4.42605E-06*T**3+38568*T**(-1);
       955.00  Y  -22521.8+292.121093*T-48.66*T*LN(T);
      3000.00  N !
 FUNCTION GTETUU    298.15  -5156.136+106.976316*T-22.841*T*LN(T)
       -0.01084475*T**2+2.7889E-08*T**3+81944*T**(-1);
       941.50  Y  -14327.309+244.16802*T-42.9278*T*LN(T);
      3000.00  N !
 FUNCTION GBCCUU    298.15  -752.767+131.5381*T-27.5152*T*LN(T)
       -0.00835595*T**2+9.67907E-07*T**3+204611*T**(-1);
      1049.00  Y  -4698.365+202.685635*T-38.2836*T*LN(T);
      3000.00  N !
 FUNCTION GLIQUU    298.15  +GHSERUU+12355.5-10.3239*T;                3000 N !
$ ------------------------------------------------------------------------------
$ Binary system
$
$ AEA Harwell, unpublished, 1998.
$
$ Nothing to check against. Checked at 6000 K.
$
$ The phase diagram is quite similar to that of 04Che in LB, i.e. it can be
$ assumed to be reproduced as intended.
$
$ There is an inverse miscibility gap with a minimum at 3857 K and x(U)=0.82.
$
$ According to the given temperature limits for the Gibbs energies of the
$ compounds several compounds formally do not have a defined Gibbs energy
$ at their melting temperature.
$
 PAR  L(LIQUID,SI,U;0),,                -190850.9+55.51973*T;,,       N 98AEA !
 PAR  L(LIQUID,SI,U;1),,                -30034.47;,,                  N 98AEA !
 PAR  L(LIQUID,SI,U;2),,                +18988.52;,,                  N 98AEA !
$
 PAR  G(SI3U_L12,SI:U),,                +GSI3U;,,                     N 98AEA !
 PAR  G(SI2U_CC,SI:U),,                 +GSI2U;,,                     N 98AEA !
 PAR  G(SI5U3_C32,SI:U),,               +GSI5U3;,,                    N 98AEA !
 PAR  G(SIU_B27,SI:U),,                 +GSIU;,,                      N 98AEA !
 PAR  G(SI2U3_D5A,SI:U),,               +GSI2U3;,,                    N 98AEA !
 PAR  G(SIU3,SI:U),,                    +GSIU3;,,                     N 98AEA !
$
 FUNCTION GSI3U     298.15  -173176+669.1663*T-113.175*T*LN(T)
       -0.00322385*T**2+2.78333E-10*T**3+1033380*T**(-1);
      1800.00  N !
 FUNCTION GSI2U     298.15  -163137+543.25488*T-91.403*T*LN(T)
       -2.954E-04*T**2-1.97235E-07*T**3+916040*T**(-1);
      1800.00  N !
 FUNCTION GSI5U3    298.15  -442718+1423.143*T-242.297*T*LN(T)
       -0.0048522*T**2-1.46667E-10*T**3+2334710*T**(-1);
      1800.00  N !
 FUNCTION GSIU      298.15  -108202+374.936*T-64.559*T*LN(T)
       -8.161E-04*T**2+1.5E-11*T**3+650585*T**(-1);
      1800.00  N !
 FUNCTION GSI2U3    298.15  -233114+958.4625*T-169.368*T*LN(T)
       -0.00121345*T**2+2.33333E-11*T**3+1759380*T**(-1);
      1800.00  N !
 FUNCTION GSIU3     298.15  -119017+459.063*T-91.487*T*LN(T)
       -0.031907*T**2+116150*T**(-1);
      1038.00  Y  -147384+902.12*T-156.1*T*LN(T);
      3200.00  N !
$ ------------------------------------------------------------------------------
$
 ASSESSED_SYSTEM
  SI-U(TDB -* +LIQUID +BCC_A2 +DIAMOND_A4 +ORTHO_A20 +SI2U3_D5A +SI2U_CC
  +SI3U_L12 +SI5U3_C32 +SIU_B27 +SIU3 +TETRAGONAL_U
  ;P3 TMM:300/3000 STP:.5/2500/-2) !
$
$
 LIST-OF-REFERENCE
 NUMBER  SOURCE
  Null   'Unknown source'
  Same   'Same or similar interaction as in the corresponding stable phase'
  COST   'COST 507 database'
  91Din  'A.T. Dinsdale, Calphad, 15, 317-425(1991).'
  98AEA  'AEA Harwell, unpublished, 1998; Si-U'
  99SGUN 'SGTE unary database V.4.1, 1999.'
  04Che3 'P.-Y. Chevalier, E. Fischer, B. Cheynet,
          Calphad, 28, 15-40(2004); U, Zr'
  04Che4 'P.-Y. Chevalier, E. Fischer, unpublished work, 2004; Si'
!
