$
$ Database for Re-Ta from Z.-K. Liu and Y.A. Chang 2000 (included in LB Vol. 5)
$
$ Z.-K. Liu, Y.A. Chang, J. Alloys Compd., 299, 153-62(2000).
$
$ Dataset created 2016.03.20 by Bengt Hallstedt.
$ 2021.02.05: Modified for use with GES6.
$
$ ------------------------------------------------------------------------------
 TEMP-LIM 298.15 6000.00 !
$
$ELEMENT NAME  REF. STATE               ATOMIC MASS H298-H0    S298    !
$
 ELEMENT VA   VACUUM                      0.0          0.0      0.0    ! 
 ELEMENT RE   HCP_A3                    186.207     5333.      36.4820 ! 
 ELEMENT TA   BCC_A2                    180.9479    5681.872   41.4718 ! 
$ ------------------------------------------------------------------------------
$ Phase definitions
$
 PHASE LIQUID:L % 1 1 !
 CONST LIQUID:L : RE TA : !
$
$ Fcc (cF4, Fm-3m) and MeX (cF8, Fm-3m)
$
 PHASE FCC_A1 %A 2 1 1 !
 CONST FCC_A1 : RE TA : VA : !
$
$ Bcc (cI2, Im-3m)
$
 PHASE BCC_A2 %B 2 1 3 !
 CONST BCC_A2 : RE TA% : VA : !
$
$ Hcp (hP2, P6_3/mmc) and Me2X (NiAs-type, hP4, P6_3/mmc, B8_1)
$
 PHASE HCP_A3 %A 2 1 0.5 !
 CONST HCP_A3 : RE% TA : VA : !
$
$ Prototype alpha-Mn (cI58, I-43m)
$
 PHASE CHI_A12 % 3 24 10 24 !
 CONST CHI_A12 : RE : RE TA : RE TA : !
$
$ Prototype CrFe (tP30, P4_2/mnm)
$
 PHASE SIGMA_D8B % 3 10 4 16 !
 CONST SIGMA_D8B : RE : TA : RE TA : !
$
$ Prototype CrFe (tP30, P4_2/mnm)
$
 PHASE SIGMA_OLD % 3 8 4 18 !
 CONST SIGMA_OLD : RE : TA : RE TA : !
$ ------------------------------------------------------------------------------
$ Defaults
$
 DEFINE-SYSTEM-DEFAULT ELEMENT 2 !
 DEFAULT-COM DEFINE_SYSTEM_ELEMENT VA !
 DEFAULT-COM REJECT_PHASE SIGMA_OLD !
 TYPE-DEF % SEQ * !
 TYPE-DEF A GES AMEND_PHASE_DESCRIPTION @ MAGNETIC -3 0.28 !
 TYPE-DEF B GES AMEND_PHASE_DESCRIPTION @ MAGNETIC -1 0.4 !
 FUNCTION ZERO      298.15  0;                                         6000 N !
 FUNCTION UN_ASS    298.15  0;                                         6000 N !
 FUNCTION R         298.15  +8.31451;                                  6000 N !
$ ------------------------------------------------------------------------------
$ Element data
$ ------------------------------------------------------------------------------
$ Re
$
$ Warning! Old data for hcp, bcc and Liquid used.
$
$ HCP_A3 and LIQUID revised in unary 3.0
$ BCC_A2 revised in unary 4.4
$
 PAR  G(HCP_A3,RE:VA),,                 +GHSERRE;,,                   N 91Din !
 PAR  G(FCC_A1,RE:VA),,                 +GHSERRE+11000-1.5*T;,,       N 91Din !
$PAR  G(BCC_A2,RE:VA),,                 +GHSERRE+17000-3.7*T;,,       N 01SGUN !
 PAR  G(BCC_A2,RE:VA),,                 +GHSERRE+29200-6*T;,,         N 91Din !
 PAR  G(LIQUID,RE),,                    +GLIQRE;,,                    N 91Din !
$
 PAR  G(CHI_A12,RE:RE:RE),,             +48*GFCCRE+10*GBCCRE
             +100000;,,                                               N 00Liu !
$
 FUNCTION GHSERRE   298.15  -7305.045+123.758773*T-23.6892641*T*LN(T)
       -0.002723387*T**2;
      3459.00  Y  +38514.17-65.920606*T+.0645635*T*LN(T)
       -0.008050184*T**2+2.19551E-07*T**3-15938253*T**(-1);
      6000.00  N !
 FUNCTION GLIQRE    298.15  +45296.708-11.184298*T+GHSERRE;  
      1000.00  Y  +66060.979-113.540121*T+7.4580354*T*LN(T)
       -0.016183804*T**2+7.69496E-07*T**3-4421721*T**(-1);
      3459.00  Y  -5301.43+328.158541*T-50*T*LN(T);
      6000.00  N !
 FUNCTION GFCCRE    298.15  +GHSERRE+11000-1.5*T;                      6000 N !
 FUNCTION GBCCRE    298.15  +GHSERRE+29200-6*T;                        6000 N !
$ ------------------------------------------------------------------------------
$ Ta
$
 PAR  G(BCC_A2,TA:VA),,                 +GHSERTA;,,                   N 91Din !
 PAR  G(FCC_A1,TA:VA),,                 +GHSERTA+16000+1.7*T;,,       N 91Din !
 PAR  G(HCP_A3,TA:VA),,                 +GHSERTA+12000+2.4*T;,,       N 91Din !
 PAR  G(LIQUID,TA),,                    +GLIQTA;,,                    N 91Din !
$
 FUNCTION GHSERTA   298.15  -7285.889+119.139857*T-23.7592624*T*LN(T)
       -0.002623033*T**2+1.70109E-07*T**3-3293*T**(-1);
      1300.00  Y  -22389.955+243.88676*T-41.137088*T*LN(T)
       +0.006167572*T**2-6.55136E-07*T**3+2429586*T**(-1);
      2500.00  Y  +229382.886-722.59722*T+78.5244752*T*LN(T)
       -0.017983376*T**2+1.95033E-07*T**3-93813648*T**(-1);
      3290.00  Y  -1042384.01+2985.49125*T-362.159132*T*LN(T)
       +0.043117795*T**2-1.055148E-06*T**3+5.54714342E+08*T**(-1);
      6000.00  N !
 FUNCTION GLIQTA    298.15  +29160.975-7.578729*T+GHSERTA;
      1000.00  Y  +43884.339-61.981795*T+0.0279523*T*LN(T)
       -0.012330066*T**2+6.14599E-07*T**3-3523338*T**(-1);
      3290.00  Y  -6314.543+258.110873*T-41.84*T*LN(T);
      6000.00  N !
 FUNCTION GFCCTA    298.15  +GHSERTA+16000+1.7*T;                      6000 N !
$ ------------------------------------------------------------------------------
$ Binary system
$
$ From Z.-K. Liu and Y.A. Chang 2000 (included in LB Vol. 5)
$
$ Z.-K. Liu, Y.A. Chang, J. Alloys Compd., 299, 153-62(2000).
$
$ Checked against LB and paper. Checked at 6000 K.
$
$ Old data for Re used in LB (and in 00Liu and here).
$
 PAR  L(LIQUID,RE,TA;0),,               -76549;,,                     N 00Liu !
 PAR  L(LIQUID,RE,TA;1),,               -4952;,,                      N 00Liu !
$
 PAR  L(BCC_A2,RE,TA:VA;0),,            -141470+23.165*T;,,           N 00Liu !
 PAR  L(HCP_A3,RE,TA:VA;0),,            -31286;,,                     N 00Liu !
$
 PAR  G(CHI_A12,RE:RE:TA),,             +24*GFCCRE+10*GBCCRE
             +24*GFCCTA+100000-1335348+1375757-215.488*T;,,           N 00Liu !
 PAR  G(CHI_A12,RE:TA:RE),,             +48*GFCCRE+10*GHSERTA
             -1375757+215.488*T;,,                                    N 00Liu !
 PAR  G(CHI_A12,RE:TA:TA),,             +24*GFCCRE+10*GHSERTA
             +24*GFCCTA-1335348;,,                                    N 00Liu !
 PAR  L(CHI_A12,RE:RE,TA:RE;0),,        -899979;,,                    N 00Liu !
 PAR  L(CHI_A12,RE:TA:RE,TA;0),,        -1522098-477.032*T;,,         N 00Liu !
$
 PAR  G(SIGMA_D8B,RE:TA:RE),,           +10*GFCCRE+4*GHSERTA
             +16*GBCCRE+265228;,,                                     N 00Liu !
 PAR  G(SIGMA_D8B,RE:TA:TA),,           +10*GFCCRE+20*GHSERTA
             -214224;,,                                               N 00Liu !
 PAR  G(SIGMA_D8B,RE:TA:RE,TA;0),,      -3110810;,,                   N 00Liu !
$
 PAR  G(SIGMA_OLD,RE:TA:RE),,           +8*GFCCRE+4*GHSERTA
             +18*GBCCRE+183628;,,                                     N 00Liu !
 PAR  G(SIGMA_OLD,RE:TA:TA),,           +8*GFCCRE+22*GHSERTA
             +100000;,,                                               N 00Liu !
 PAR  G(SIGMA_OLD,RE:TA:RE,TA;0),,      -3548022;,,                   N 00Liu !
$
$ metastable
$
 PAR  L(FCC_A1,RE,TA:VA;0),,            -31286;,,                     N Same !
$ ------------------------------------------------------------------------------
$
 ASSESSED_SYSTEM
  RE-TA(TDB -* +LIQUID +BCC_A2 +HCP_A3 +CHI_A12 +SIGMA_D8B
  ;P3 TMM:1000/4000 *) !
$
$
 LIST-OF-REFERENCE
 NUMBER  SOURCE
  Null   'Unknown source'
  Same   'Same or similar interaction as in the corresponding stable phase'
  REFLAV 'Laves phase convention: G(LAVES,X:X)=+3*GHSERXX+15000'
  91Din  'A.T. Dinsdale, Calphad, 15, 317-425(1991).'
  96Arb  'J.W. Arblaster, Calphad, 20, 343-52(1996),
          SGTE unary database V.3.0, 1996; Re'
  00Liu  'Z.-K. Liu, Y.A. Chang, J. Alloys Compd., 299, 153-62(2000); Re-Ta'
  01SGUN 'SGTE unary database V.4.4, 2001.'
  12Zac  'C.L. Zacherl, S.-L. Shang, A. Saengdeejing, Z.-K. Liu,
          Calphad, 38, 71-80(2012); Re-Ti'
!
