$
$ Database for Sb-Tm from S.L. Wang et al. 2011
$
$ S.L. Wang, Z.B. Hu, F. Gao, C.P. Wang, X.J. Liu, Calphad, 35, 473-78(2011).
$
$ Dataset created 2016.10.19 by Bengt Hallstedt.
$ 2021.02.05: Modified for use with GES6.
$
$ ------------------------------------------------------------------------------
 TEMP-LIM 298.15 6000.00 !
$
$ELEMENT NAME  REF. STATE               ATOMIC MASS H298-H0    S298    !
$
 ELEMENT VA   VACUUM                      0.0          0.0      0.0    ! 
 ELEMENT SB   RHOMBOHEDRAL_A7           121.75      5870.152   45.5219 ! 
 ELEMENT TM   HCP_A3                    168.9342    7397.312   74.01496! 
$ ------------------------------------------------------------------------------
$ Phase definitions
$
 PHASE LIQUID:L % 1 1 !
 CONST LIQUID:L : SB TM : !
$
$ Fcc (cF4, Fm-3m) and MeX (cF8, Fm-3m)
$
 PHASE FCC_A1 %A 2 1 1 !
 CONST FCC_A1 : SB TM : VA : !
$
$ Bcc (cI2, Im-3m)
$
 PHASE BCC_A2 %B 2 1 3 !
 CONST BCC_A2 : SB TM : VA : !
$
$ Hcp (hP2, P6_3/mmc) and Me2X (NiAs-type, hP4, P6_3/mmc, B8_1)
$
 PHASE HCP_A3 %A 2 1 0.5 !
 CONST HCP_A3 : SB TM% : VA : !
$
$ Prototype alpha-As (hR2, R-3m)
$
 PHASE RHOMBOHEDRAL_A7 % 1 1 !
 CONST RHOMBOHEDRAL_A7 : SB : !
$
$ Prototype HoSb2 (oC6, C222)
$
 PHASE SB2TM % 2 2 1 !
 CONST SB2TM : SB : TM : !
$
$ Prototype NaCl (cF8, Fm-3m)
$
 PHASE SBTM_B1 % 2 1 1 !
 CONST SBTM_B1 : SB : TM : !
$
$ unknown structure
$
 PHASE SBTM_BETA % 2 1 1 !
 CONST SBTM_BETA : SB : TM : !
$
$ Prototype Bi3Y5 (oP32, Pnma)
$
 PHASE SB3TM5_ALPHA % 2 3 5 !
 CONST SB3TM5_ALPHA : SB : TM : !
$
$ Prototype Sb3Yb5 (oP32, Pnma)
$
 PHASE SB3TM5_BETA % 2 3 5 !
 CONST SB3TM5_BETA : SB : TM : !
$ ------------------------------------------------------------------------------
$ Defaults
$
 DEFINE-SYSTEM-DEFAULT ELEMENT 2 !
 DEFAULT-COM DEFINE_SYSTEM_ELEMENT VA !
 TYPE-DEF % SEQ * !
 TYPE-DEF A GES AMEND_PHASE_DESCRIPTION @ MAGNETIC -3 0.28 !
 TYPE-DEF B GES AMEND_PHASE_DESCRIPTION @ MAGNETIC -1 0.4 !
 FUNCTION ZERO      298.15  0;                                         6000 N !
 FUNCTION UN_ASS    298.15  0;                                         6000 N !
 FUNCTION R         298.15  +8.31451;                                  6000 N !
$ ------------------------------------------------------------------------------
$ Element data
$ ------------------------------------------------------------------------------
$ Sb
$
$ BCT_A5 revised in unary 3.0
$
$ BCT_A5 the value from 91Din is used in LBall-v7+fun.tdb.
$ BCT_A5 the value from 96SGUN is used in SGSOL 5.0.
$ It is only needed in Sb-Sn.
$
 PAR  G(RHOMBOHEDRAL_A7,SB),,           +GHSERSB;                2000 N 91Din !
 PAR  G(FCC_A1,SB:VA),,                 +GHSERSB+19874-13.7*T;   2000 N 91Din !
 PAR  G(BCC_A2,SB:VA),,                 +GHSERSB+19874-15.1*T;   2000 N 91Din !
 PAR  G(HCP_A3,SB:VA),,                 +GHSERSB+19874-13*T;     2000 N 91Din !
$PAR  G(BCT_A5,SB),,                    +GHSERSB+13000-8*T;      2000 N 96SGUN !
$PAR  G(BCT_A5,SB),,                    +GHSERSB+1000;           2000 N 91Din !
 PAR  G(LIQUID,SB),,                    +GLIQSB;                 2000 N 91Din !
$
 FUNCTION GHSERSB   298.15  -9242.858+156.154689*T-30.5130752*T*LN(T)
       +0.007748768*T**2-3.003415E-06*T**3+100625*T**(-1);
       903.78  Y  -11738.83+169.485872*T-31.38*T*LN(T)+1.616849E+27*T**(-9);
      2000.00  N !
 FUNCTION GLIQSB    298.15  +19822.328-21.923164*T+GHSERSB-1.74847E-20*T**7;
       903.78  Y  +8175.359+147.455986*T-31.38*T*LN(T);
      2000.00  N !
$ ------------------------------------------------------------------------------
$ Tm
$
$ FCC_A1 from 09Wan and 12Don not included in unary
$ BCC_A2 from 04Du2 not included in unary
$ RHOMBOHEDRAL_A7 from 10Wan not included in unary
$
 PAR  G(HCP_A3,TM:VA),,                 +GHSERTM;                2300 N 91Din !
 PAR  G(FCC_A1,TM:VA),,                 +GHSERTM+5000;           2300 N 09Wan !
$PAR  G(FCC_A1,TM:VA),,                 +GHSERTM+2680;           2300 N 12Don !
 PAR  G(BCC_A2,TM:VA),,                 +GHSERTM+5000;           2300 N 04Du3 !
$PAR  G(RHOMBOHEDRAL_A7,TM),,           +GHSERTM+5000;           2300 N 10Wan !
 PAR  G(LIQUID,TM),,                    +GLIQTM;                 2300 N 91Din !
$
 FUNCTION GHSERTM   298.15  -10016.715+151.037648*T-34.3664974*T*LN(T)
       +0.012110965*T**2-3.831156E-06*T**3+95982*T**(-1);
       700.00  Y  -14701.965+147.957496*T-32.1951269*T*LN(T)
       +4.44753E-04*T**2-3.96694E-07*T**3+1091664*T**(-1);
      1600.00  Y  -8669.227+97.98144*T-25.1816969*T*LN(T)-0.003384563*T**2;
      1818.00  Y  +727125.608-4147.40063*T+534.082763*T*LN(T)
       -0.19093039*T**2+1.1689185E-05*T**3-1.8038222E+08*T**(-1);
      2300.00  N !
 FUNCTION GLIQTM    298.15  +13199.249-6.557671*T+GHSERTM;
       600.00  Y  +22640.028-126.738485*T+6.8744933*T*LN(T)
       -0.025487085*T**2+2.288172E-06*T**3-1585412*T**(-1);
      1818.00  Y  -10090.305+214.184413*T-41.37976*T*LN(T);
      2300.00  N !
$ ------------------------------------------------------------------------------
$ Binary system
$
$ S.L. Wang, Z.B. Hu, F. Gao, C.P. Wang, X.J. Liu, Calphad, 35, 473-78(2011).
$
$ Checked against paper and author's tdb. Checked at 6000 K.
$
 PAR  L(LIQUID,SB,TM;0),,               -219000-32.067*T;,,           N 11Wan !
 PAR  L(LIQUID,SB,TM;1),,               -33941+49.848*T;,,            N 11Wan !
 PAR  L(LIQUID,SB,TM;2),,               +94097-12.3*T;,,              N 11Wan !
 PAR  L(LIQUID,SB,TM;3),,               -39081;,,                     N 11Wan !
$
 PAR  L(HCP_A3,SB,TM:VA;0),,            -185000;,,                    N 11Wan !
$
 PAR  G(SB2TM,SB:TM),,                  +2*GHSERSB+GHSERTM
             -228416.4+10.374*T;,,                                    N 11Wan !
 PAR  G(SBTM_B1,SB:TM),,                +GHSERSB+GHSERTM
             -225980+8.008*T;,,                                       N 11Wan !
 PAR  G(SBTM_BETA,SB:TM),,              +GHSERSB+GHSERTM
             -224000+7.044*T;,,                                       N 11Wan !
 PAR  G(SB3TM5_ALPHA,SB:TM),,           +3*GHSERSB+5*GHSERTM
             -668152-20.968*T;,,                                      N 11Wan !
 PAR  G(SB3TM5_BETA,SB:TM),,            +3*GHSERSB+5*GHSERTM
             -662592-23.904*T;,,                                      N 11Wan !
$
$ Metastable
$
 PAR  L(FCC_A1,SB,TM:VA;0),,            -185000;,,                    N Same !
 PAR  L(BCC_A2,SB,TM:VA;0),,            -185000;,,                    N Same !
$ ------------------------------------------------------------------------------
$
$
 LIST-OF-REFERENCE
 NUMBER  SOURCE
  Null   'Unknown source'
  Same   'Same or similar interaction as in the corresponding stable phase'
  COST   'COST 507 database'
  91Din  'A.T. Dinsdale, Calphad, 15, 317-425(1991).'
  96SGUN 'SGTE unary database V.3.0, 1996.'
  04Du3  'Z. Du, H. Liu, G. Ling,
          J. Alloys Compd., 373, 151-55(2004); Tm'
  09Wan  'C.P. Wang, S.H. Guo, A.T. Tang, F.S. Pan, X.J. Liu, K. Ishida,
          J. Alloys Compd., 482, 67-72(2009); Tm'
  10Wan  'C.P. Wang, H.L. Zhang, A.T. Tang, F.S. Pan, X.J. Liu,
          J. Alloys Compd., 502, 43-48(2010); Tm'
  11Wan  'S.L. Wang, Z.B. Hu, F. Gao, C.P. Wang, X.J. Liu,
          Calphad, 35, 473-78(2011); Sb-Tm'
  12Don  'H.Q. Dong, X.M. Tao, T. Laurila, M. Paulastro-Krockel,
          Calphad, 37, 87-93(2012); Ho, Tm'
!
