$
$ Database for Ge-Zr from C. Sha et al. 2011.
$
$ C. Sha, L. Zhou, S. Liu, Y. Du, T. Gang, H. Xu,
$ J. Mater. Sci., 46, 1405-13(2011).
$
$ Dataset created 2018.08.05 by Bengt Hallstedt.
$ 2021.01.03: Modified for use with GES6.
$
$ ------------------------------------------------------------------------------
 TEMP-LIM 298.15 6000.00 !
$
$ELEMENT NAME  REF. STATE               ATOMIC MASS H298-H0    S298    !
$
 ELEMENT VA   VACUUM                      0.0          0.0      0.0    ! 
 ELEMENT GE   DIAMOND_A4                 72.59      4636.0     31.09   ! 
 ELEMENT ZR   HCP_A3                     91.22      5566.27    39.1809 ! 
$ ------------------------------------------------------------------------------
$ Phase definitions
$
 PHASE LIQUID:L % 1 1 !
 CONST LIQUID:L : GE ZR : !
$
$ Fcc (cF4, Fm-3m) and MeX (cF8, Fm-3m)
$
 PHASE FCC_A1 %A 2 1 1 !
 CONST FCC_A1 : GE ZR : VA : !
$
$ Bcc (cI2, Im-3m)
$
 PHASE BCC_A2 %B 2 1 3 !
 CONST BCC_A2 : GE ZR% : VA : !
$
$ Hcp (hP2, P6_3/mmc) and Me2X (NiAs-type, hP4, P6_3/mmc, B8_1)
$
 PHASE HCP_A3 % 2 1 0.5 !
 CONST HCP_A3 : GE ZR% : VA : !
$
$ Prototype C (cF8, Fd-3m)
$
 PHASE DIAMOND_A4 % 1 1 !
 CONST DIAMOND_A4 : GE : !
$
$ Prototype Si2Zr (oC12, Cmcm)
$
 PHASE GE2ZR_C49 % 2 2 1 !
 CONST GE2ZR_C49 : GE : ZR : !
$
$ Prototype FeB (oP8, Pnma)
$
 PHASE GEZR_B27 % 2 1 1 !
 CONST GEZR_B27 : GE : ZR : !
$
$ Prototype Si4Zr5 (tP36, P4_12_12)
$
 PHASE GE4ZR5 % 2 4 5 !
 CONST GE4ZR5 : GE : ZR : !
$
$ Prototype Mn5Si3 (hP16, P6_3/mcm)
$
 PHASE GE3ZR5_D88 % 2 3 5 !
 CONST GE3ZR5_D88 : GE : ZR : !
$
$ Prototype Ti3P (tP32, P4_2/n)
$
 PHASE GEZR3 % 2 1 3 !
 CONST GEZR3 : GE : ZR : !
$ ------------------------------------------------------------------------------
$ Defaults
$
 DEFINE-SYSTEM-DEFAULT ELEMENT 2 !
 DEFAULT-COM DEFINE_SYSTEM_ELEMENT VA !
 TYPE-DEF % SEQ * !
 TYPE-DEF A GES AMEND_PHASE_DESCRIPTION @ MAGNETIC -3 0.28 !
 TYPE-DEF B GES AMEND_PHASE_DESCRIPTION @ MAGNETIC -1 0.4 !
 FUNCTION ZERO      298.15  0;                                         6000 N !
 FUNCTION UN_ASS    298.15  0;                                         6000 N !
 FUNCTION R         298.15  +8.31451;                                  6000 N !
$ ------------------------------------------------------------------------------
$ Element data
$ ------------------------------------------------------------------------------
$ Ge
$
$ BCT_A5 and RHOMBOHEDRAL_A7 added in unary 4.1
$
 PAR  G(DIAMOND_A4,GE),,                +GHSERGE;                3200 N 91Din !
 PAR  G(FCC_A1,GE:VA),,                 +GHSERGE+36000-22.3*T;   3200 N 91Din !
 PAR  G(BCC_A2,GE:VA),,                 +GHSERGE+34100-23.5*T;   3200 N 91Din !
 PAR  G(HCP_A3,GE:VA),,                 +GHSERGE+35000-21.5*T;   3200 N 91Din !
$PAR  G(BCT_A5,GE),,                    +GHSERGE+28800-16.5*T;   3600 N 99SGUN !
$PAR  G(RHOMBOHEDRAL_A7,GE),,           +GHSERGE+29800-16.5*T;   3600 N 99SGUN !
 PAR  G(LIQUID,GE),,                    +GLIQGE;                 3200 N 91Din !
$
 FUNCTION GHSERGE   298.15  -9486.153+165.635573*T-29.5337682*T*LN(T)
       +0.005568297*T**2-1.513694E-06*T**3+163298*T**(-1);
       900.00  Y  -5689.239+102.86087*T-19.8536239*T*LN(T)-0.003672527*T**2;
      1211.40  Y  -9548.204+156.708024*T-27.6144*T*LN(T)-8.59809E+28*T**(-9);
      3200.00  N !
 FUNCTION GLIQGE    298.15  +37141.489-30.687043*T+GHSERGE+8.56632E-21*T**7;
      1211.40  Y  +27243.473+126.324186*T-27.6144*T*LN(T);
      3200.00  N !
$ ------------------------------------------------------------------------------
$ Zr
$
$ CUB_A13, CBCC_A12, ORTHORHOMBIC_A20 and TETRAGONAL_U added in unary 4.1
$
 PAR  G(HCP_A3,ZR:VA)           130.00  +GHSERZR;,,                   N 91Din !
 PAR  G(BCC_A2,ZR:VA)           130.00  +GBCCZR;,,                    N 91Din !
$PAR  G(OMEGA,ZR)               130.00  +GOMEZR;,,                    N 91Din !
 PAR  G(FCC_A1,ZR:VA)           130.00  +GHSERZR+7600-0.9*T;,,        N 91Din !
$PAR  G(CBCC_A12,ZR:VA)         130.00  +GHSERZR+4602.2;,,            N 99SGUN !
$PAR  G(CUB_A13,ZR:VA)          130.00  +GHSERZR+7531.2;,,            N 99SGUN !
$PAR  G(ORTHORHOMBIC_A20,ZR)    130.00  +GBCCZR+5000;,,               N 99SGUN !
$PAR  G(TETRAGONAL_U,ZR)        130.00  +GBCCZR+5000;,,               N 99SGUN !
 PAR  G(LIQUID,ZR)              130.00  +GLIQZR;,,                    N 91Din !
$
 FUNCTION GHSERZR   130.00  -7827.595+125.64905*T-24.1618*T*LN(T)
       -0.00437791*T**2+34971*T**(-1);
      2128.00  Y  -26085.921+262.724183*T-42.144*T*LN(T)-1.342896E+31*T**(-9);
      6000.00  N !
 FUNCTION GBCCZR    130.00  -525.539+124.9457*T-25.607406*T*LN(T)
       -3.40084E-04*T**2-9.729E-09*T**3+25233*T**(-1)-7.6143E-11*T**4;
      2128.00  Y  -4620.034+1.55998*T+GHSERZR+1.4103476E+32*T**(-9);
      6000.00  N !
 FUNCTION GOMEZR    130.00  -8878.082+144.432234*T-26.8556*T*LN(T)
       -0.002799446*T**2+38376*T**(-1);
      2128.00  Y  -3414.603+2.566675*T+GHSERZR+8.517346E+31*T**(-9);
      6000.00  N !
 FUNCTION GLIQZR    130.00  +18147.69-9.080812*T+GHSERZR+1.6275E-22*T**7;
      2128.00  Y  -8281.26+253.812609*T-42.144*T*LN(T);
      6000.00  N !
$ ------------------------------------------------------------------------------
$ Binary system
$
$ C. Sha, L. Zhou, S. Liu, Y. Du, T. Gang, H. Xu,
$ J. Mater. Sci., 46, 1405-13(2011).
$
$ Checked against paper. Checked at 6000 K.
$
 PAR  L(LIQUID,GE,ZR;0),,               -215873.63+28.39385*T;,,      N 11Sha !
 PAR  L(LIQUID,GE,ZR;1),,               +38747.4-15.70641*T;,,        N 11Sha !
 PAR  L(LIQUID,GE,ZR;2),,               +17000;,,                     N 11Sha !
$
 PAR  L(BCC_A2,GE,ZR:VA;0),,            -129330.87+12.03498*T;,,      N 11Sha !
 PAR  L(HCP_A3,GE,ZR:VA;0),,            -185318.75+17.16534*T;,,      N 11Sha !
$
 PAR  G(GE2ZR_C49,GE:ZR),,              +2*GHSERGE+GHSERZR
             -186782.4+5.36796*T;,,                                   N 11Sha !
 PAR  G(GEZR_B27,GE:ZR),,               +GHSERGE+GHSERZR
             -168854.36+9.60222*T;,,                                  N 11Sha !
 PAR  G(GE4ZR5,GE:ZR),,                 +4*GHSERGE+5*GHSERZR
             -769819.05+53.20134*T;,,                                 N 11Sha !
 PAR  G(GE3ZR5_D88,GE:ZR),,             +3*GHSERGE+5*GHSERZR
             -590193.92+22*T;,,                                       N 11Sha !
 PAR  G(GEZR3,GE:ZR),,                  +GHSERGE+3*GHSERZR
             -216623.6+15.9392*T;,,                                   N 11Sha !
$
$ Metastable
$
 PAR  L(FCC_A1,GE,ZR:VA;0),,            -185318.75+17.16534*T;,,      N Same !
$ ------------------------------------------------------------------------------
$
$
 LIST-OF-REFERENCE
 NUMBER  SOURCE
  Null   'Unknown source'
  Same   'Same or similar interaction as in the corresponding stable phase'
  91Din  'A.T. Dinsdale, Calphad, 15, 317-425(1991).'
  99SGUN 'SGTE unary database V.4.1, 1999.'
  11Sha  'C. Sha, L. Zhou, S. Liu, Y. Du, T. Gang, H. Xu,
          J. Mater. Sci., 46, 1405-13(2011); Ge-Zr'
!
