$
$ Database for Re-Y from C. Zacherl et al. 2010.
$
$ C. Zacherl, J. Saal, Y. Wang, Z.-K. Liu, Intermetallics, 18, 2412-18(2010).
$
$ Dataset created 2018.12.28 by Bengt Hallstedt.
$ 2021.02.05: Modified for use with GES6.
$
$ ------------------------------------------------------------------------------
 TEMP-LIM 298.15 6000.00 !
$
$ELEMENT NAME  REF. STATE               ATOMIC MASS H298-H0    S298    !
$
 ELEMENT VA   VACUUM                      0.0          0.0      0.0    ! 
 ELEMENT RE   HCP_A3                    186.207     5333.      36.4820 ! 
 ELEMENT Y    HCP_A3                     88.9059    5983.457   44.7875 ! 
$ ------------------------------------------------------------------------------
$ Phase definitions
$
 PHASE LIQUID:L % 1 1 !
 CONST LIQUID:L : RE Y : !
$
$ Fcc (cF4, Fm-3m) and MeX (cF8, Fm-3m)
$
 PHASE FCC_A1 %A 2 1 1 !
 CONST FCC_A1 : RE Y : VA : !
$
$ Bcc (cI2, Im-3m)
$
 PHASE BCC_A2 %B 2 1 3 !
 CONST BCC_A2 : RE Y% : VA : !
$
$ Hcp (hP2, P6_3/mmc) and Me2X (NiAs-type, hP4, P6_3/mmc, B8_1)
$
 PHASE HCP_A3 %A 2 1 0.5 !
 CONST HCP_A3 : RE% Y% : VA : !
$
$ Prototype MgZn2 (hP12, P6_3/mmc)
$
 PHASE RE2Y_C14 % 2 2 1 !
 CONST RE2Y_C14 : RE : Y : !
$ ------------------------------------------------------------------------------
$ Defaults
$
 DEFINE-SYSTEM-DEFAULT ELEMENT 2 !
 DEFAULT-COM DEFINE_SYSTEM_ELEMENT VA !
 TYPE-DEF % SEQ * !
 TYPE-DEF A GES AMEND_PHASE_DESCRIPTION @ MAGNETIC -3 0.28 !
 TYPE-DEF B GES AMEND_PHASE_DESCRIPTION @ MAGNETIC -1 0.4 !
 FUNCTION ZERO      298.15  0;                                         6000 N !
 FUNCTION UN_ASS    298.15  0;                                         6000 N !
 FUNCTION R         298.15  +8.31451;                                  6000 N !
$ ------------------------------------------------------------------------------
$ Element data
$ ------------------------------------------------------------------------------
$ Re
$
$ HCP_A3 and LIQUID revised in unary 3.0
$ BCC_A2 revised in unary 4.4
$
 PAR  G(HCP_A3,RE:VA),,                 +GHSERRE;,,                   N 96Arb !
 PAR  G(FCC_A1,RE:VA),,                 +GHSERRE+11000-1.5*T;,,       N 91Din !
 PAR  G(BCC_A2,RE:VA),,                 +GHSERRE+17000-3.7*T;,,       N 01SGUN !
 PAR  G(LIQUID,RE),,                    +GLIQRE;,,                    N 96Arb !
$
 FUNCTION GHSERRE   298.15  -7695.279+128.421589*T-24.348*T*LN(T)
       -0.00253505*T**2+1.92818E-07*T**3+32915*T**(-1);
      1200.00  Y  -15775.998+194.667426*T-33.586*T*LN(T)
       +0.00224565*T**2-2.81835E-07*T**3+1376270*T**(-1);
      2400.00  Y  -70882.739+462.110749*T-67.956*T*LN(T)
       +0.01184945*T**2-7.88955E-07*T**3+18075200*T**(-1);
      3458.00  Y  +346325.888-1211.37186*T+140.831655*T*LN(T)
       -0.033764567*T**2+1.053726E-06*T**3-1.34548866E+08*T**(-1);
      5000.00  Y  -78564.296+346.997842*T-49.519*T*LN(T);
      6000.00  N !
 FUNCTION GLIQRE    298.15  +23820.883-6.34538*T+GHSERRE;
      2000.00  Y  +568842.665-2527.83846*T+314.178898*T*LN(T)
       -0.08939817*T**2+3.92854E-06*T**3-1.63100987E+08*T**(-1);
      3458.00  Y  -39044.888+335.723691*T-49.519*T*LN(T);
      5000.00  Y  +39519.408-11.274151*T+GHSERRE;
      6000.00  N !
$ ------------------------------------------------------------------------------
$ Y
$
$ HCP_A3, BCC_A2 and LIQUID revised in unary 3.0
$ FCC_A1 added in unary 4.1
$
 PAR  G(HCP_A3,Y:VA)            100.00  +GHSERYY;                3700 N 95She3 !
 PAR  G(BCC_A2,Y:VA)            100.00  +GBCCYY;                 3700 N 95She3 !
 PAR  G(FCC_A1,Y:VA)            100.00  +GHSERYY+6000;           3700 N Frie2 !
 PAR  G(LIQUID,Y)               100.00  +GLIQYY;                 3700 N 95She3 !
$
 FUNCTION GHSERYY   100.00  -8011.09379+128.572856*T-25.6656992*T*LN(T)
       -0.00175716414*T**2-4.17561786E-07*T**3+26911.509*T**(-1);
      1000.00  Y  -7179.74574+114.497104*T-23.4941827*T*LN(T)
       -0.0038211802*T**2-8.2534534E-08*T**3;
      1795.15  Y  -67480.7761+382.124727*T-56.9527111*T*LN(T)
       +0.00231774379*T**2-7.22513088E-08*T**3+18077162.6*T**(-1);
      3700.00  N !
 FUNCTION GBCCYY    100.00  -833.658863+123.667346*T-25.5832578*T*LN(T)
       -0.00237175965*T**2+9.10372497E-09*T**3+27340.0687*T**(-1);
      1000.00  Y  -1297.79829+134.528352*T-27.3038477*T*LN(T)
       -5.41757644E-04*T**2-3.05012175E-07*T**3;
      1795.15  Y  +15389.4975+0.981325399*T-8.88296647*T*LN(T)
       -0.00904576576*T**2+4.02944768E-07*T**3-2542575.96*T**(-1);
      3700.00  N !
 FUNCTION GLIQYY    100.00  +2098.50738+119.41873*T-24.6467508*T*LN(T)
       -0.00347023463*T**2-8.12981167E-07*T**3+23713.7332*T**(-1);
      1000.00  Y  +7386.44846+19.4520171*T-9.0681627*T*LN(T)
       -0.0189533369*T**2+1.7595327E-06*T**3;
      1795.15  Y  -12976.5957+257.400783*T-43.0952*T*LN(T);
      3700.00  N !
$ ------------------------------------------------------------------------------
$ Binary system
$
$ C. Zacherl, J. Saal, Y. Wang, Z.-K. Liu, Intermetallics, 18, 2412-18(2010).
$
$ Checked against paper and author's tdb. Checked at 6000 K.
$
 PAR  L(LIQUID,RE,Y;0),,                +125800-50.105*T;,,           N 10Zac !
 PAR  L(LIQUID,RE,Y;1),,                +32923;,,                     N 10Zac !
$
 PAR  L(BCC_A2,RE,Y:VA;0),,             +170000;,,                    N 10Zac !
 PAR  L(HCP_A3,RE,Y:VA;0),,             +320000;,,                    N 10Zac !
$
 PAR  G(RE2Y_C14,RE:Y),,                -81382+365.48*T
             -70.982*T*LN(T)-0.00763*T**2-3598.4*T**(-1);,,           N 10Zac !
$
$ Metastable
$
 PAR  L(FCC_A1,RE,Y:VA;0),,             +320000;,,                    N Same !
$ ------------------------------------------------------------------------------
$
$
 LIST-OF-REFERENCE
 NUMBER  SOURCE
  Null   'Unknown source'
  Same   'Same or similar interaction as in the corresponding stable phase'
  REFLAV 'Laves phase convention: G(LAVES,X:X)=+3*GHSERXX+15000'
  Frie2  'Suzana Fries and Leo Lukas, unpublished,
          SGTE unary database V.4.1, 1999; Y'
  91Din  'A.T. Dinsdale, Calphad, 15, 317-425(1991).'
  95She3 'H. Shen, W. Zhang, G. Liu, R. Wang, Z. Du, Report F-95-03,
          University of Science and Technology, Beijing, May 1995,
          SGTE unary database V.3.0, 1996; Y'
  96Arb  'J.W. Arblaster, Calphad, 20, 343-52(1996),
          SGTE unary database V.3.0, 1996; Re'
  01SGUN 'SGTE unary database V.4.4, 2001.'
  10Zac  'C. Zacherl, J. Saal, Y. Wang, Z.-K. Liu,
          Intermetallics, 18, 2412-18(2010); Re-Y'
!
