$
$ Database for Au-Zn from H.S. Liu et al. 2003
$
$ H.S. Liu, K. Ishida, Z.P. Jin, Y. Du, Intermetallics, 11, 987-94(2003).
$
$ Dataset created 2017.09.24 by Bengt Hallstedt.
$ 2020.12.22: Modified for use with GES6.
$
$ Invariant equilibria differ by up to 4 K.
$
$ Parameters for AUZN_B2 and AUZN4 misprinted in the paper.
$
$ The original AUZN_B2 parameters from 03Liu cause a narrow miscibility gap
$ at x(Zn)=0.5. Parameters were modified in SGSOL.
$
$ Parameters for AU5ZN3, AU3ZN17 and HCP_IM_A3 were modified according to
$ SGSOL. The original parameters do not quite reproduce the phase diagram
$ (or invariant equilibria) in 03Liu.
$
$ ------------------------------------------------------------------------------
 TEMP-LIM 298.15 6000.00 !
$
$ELEMENT NAME  REF. STATE               ATOMIC MASS H298-H0    S298    !
$
 ELEMENT VA   VACUUM                      0.0          0.0      0.0    ! 
 ELEMENT AU   FCC_A1                    196.9665    6016.592   47.4884 ! 
 ELEMENT ZN   HCP_A3                     65.38      5657.0     41.63   ! 
$ ------------------------------------------------------------------------------
$ Phase definitions
$
 PHASE LIQUID:L % 1 1 !
 CONST LIQUID:L : AU ZN : !
$
$ Fcc (cF4, Fm-3m) and MeX (cF8, Fm-3m)
$
 PHASE FCC_A1 %A 2 1 1 !
 CONST FCC_A1 : AU% ZN : VA : !
$
$ Bcc (cI2, Im-3m)
$
 PHASE BCC_A2 %B 2 1 3 !
 CONST BCC_A2 : AU ZN : VA : !
$
$ Hcp (hP2, P6_3/mmc) and Me2X (NiAs-type, hP4, P6_3/mmc, B8_1)
$
 PHASE HCP_A3 %A 2 1 0.5 !
 CONST HCP_A3 : AU ZN% : VA : !
$
$ Prototype Cu3Pd (oP320, Pnnm) alpha-3 (2D-LPS)
$
 PHASE AU4ZN % 3 18 7 3 !
 CONST AU4ZN : AU : AU ZN : ZN : !
$
$ Prototype Au3Zn (tI64, I4_1/acd) and Au3Zn (oC32, Cmce) alpha-2
$
 PHASE AU3ZN_LT % 2 3 1 !
 CONST AU3ZN_LT : AU : ZN : !
$
$ Prototype Pb3Sr (tP4, P4/mmm) alpha-1
$
 PHASE AU3ZN_HT % 3 3 1 1 !
 CONST AU3ZN_HT : AU : AU ZN : ZN : !
$
$ Prototype Au5Zn3 (oI128, Ibam)
$
 PHASE AU5ZN3 % 2 5 3 !
 CONST AU5ZN3 : AU : ZN : !
$
$ Prototype CsCl (cP2, Pm-3m) beta-prime
$
 PHASE AUZN_B2 % 2 1 1 !
 CONST AUZN_B2 : AU% ZN : AU ZN% : !
$
$ Unknown structure, delta
$
 PHASE AU44ZN56 % 2 0.44 0.56 !
 CONST AU44ZN56 : AU : ZN : !
$
$ Prototype Cu5Zn8 (cI52, I-43m) gamma
$
 PHASE AU4ZN9_D82 % 4 2 2 3 6 !
 CONST AU4ZN9_D82 : AU ZN : AU : AU ZN : ZN : !
$
$ Prototype UH3 (cP32, Pm-3n) gamma-2
$
 PHASE AUZN3 % 2 1 3 !
 CONST AUZN3 : AU : ZN : !
$
$ Pearson h**, gamma-3
$
 PHASE AUZN4 % 3 3 4 18 !
 CONST AUZN4 : AU : AU ZN : ZN : !
$
$ Pearson o**, epsilon-prime
$
 PHASE AU3ZN17 % 2 3 17 !
 CONST AU3ZN17 : AU : ZN : !
$
$ Prototype Mg (hP2, P6_3/mmc) epsilon
$
 PHASE HCP_IM_A3 % 1 1 !
 CONST HCP_IM_A3 : AU ZN : !
$ ------------------------------------------------------------------------------
$ Defaults
$
 DEFINE-SYSTEM-DEFAULT ELEMENT 2 !
 DEFAULT-COM DEFINE_SYSTEM_ELEMENT VA !
 TYPE-DEF % SEQ * !
 TYPE-DEF A GES AMEND_PHASE_DESCRIPTION @ MAGNETIC -3 0.28 !
 TYPE-DEF B GES AMEND_PHASE_DESCRIPTION @ MAGNETIC -1 0.4 !
 FUNCTION ZERO      298.15  0;                                         6000 N !
 FUNCTION UN_ASS    298.15  0;                                         6000 N !
 FUNCTION R         298.15  +8.31451;                                  6000 N !
$ ------------------------------------------------------------------------------
$ Element data
$ ------------------------------------------------------------------------------
$ Au
$
$ DHCP added in unary 5.0
$
$ DHCP replaced by the value from 92Ans in SGSOL 5.0
$
$ The DHCP phase is labelled D0_24 in 03Liu and alpha-prime in 92Ans. The
$ phase is present between the fcc and hcp phases in the Au-Sn and Au-In
$ systems. The value for DHCP from 92Ans was used to model these systems,
$ thus this value must be included in the unary database and not the 04Du
$ value.
$
 PAR  G(FCC_A1,AU:VA),,                 +GHSERAU;                3200 N 91Din !
 PAR  G(HCP_A3,AU:VA),,                 +GHSERAU+240.75+1.6*T;   3200 N 91Din !
 PAR  G(BCC_A2,AU:VA),,                 +GHSERAU+4250-1.1*T;     3200 N 91Din !
$PAR  G(DHCP,AU),,                      +GHSERAU+125+0.79*T;     3200 N 92Ans !
$PAR  G(DHCP,AU),,                      +GHSERAU+5000;           3200 N 04Du1 !
 PAR  G(LIQUID,AU),,                    +GHSERAU
             +12552-9.385866*T;                                  3200 N 91Din !
$
 PAR  G(HCP_IM_A3,AU),,                 +GHCPAU;,,                    N 03Liu !
 PAR  G(AUZN_B2,AU:AU),,                +2*GBCCAU;,,                  N 03Liu !
$
 FUNCTION GHSERAU   298.15  -6938.856+106.830098*T-22.75455*T*LN(T)
       -0.00385924*T**2+3.79625E-07*T**3-25097*T**(-1);
       929.40  Y  -93586.481+1021.69543*T-155.706745*T*LN(T)
       +0.08756015*T**2-1.1518713E-05*T**3+10637210*T**(-1);
      1337.33  Y  +314067.829-2016.37825*T+263.252259*T*LN(T)
       -0.118216828*T**2+8.923844E-06*T**3-67999832*T**(-1);
      1735.80  Y  -12133.783+165.272524*T-30.9616*T*LN(T);
      3200.00  N !
 FUNCTION GBCCAU    298.15  +GHSERAU+4250-1.1*T;                       3200 N !
 FUNCTION GHCPAU    298.15  +GHSERAU+240.75+1.6*T;                     3200 N !
$ ------------------------------------------------------------------------------
$ Zn
$
$ BCT_A5 and DIAMOND_A4 added in unary 3.0
$ HCP_A3 revised in unary 4.1 (due to introduction of HCP_ZN)
$ RHOMBOHEDRAL_A7 and TETRAGONAL_A6 added in unary 4.1
$ TETRAGONAL_A6 revised in unary 4.4
$ CBCC_A12 and CUB_A13 added in unary 4.4
$ HCP_A3 and LIQUID modified in unary 5.0 (melting T and coefficients adjusted)
$ RHOMBO_A10 added in unary 5.0
$
$ Pure Zn restored as HCP_A3
$
 PAR  G(HCP_A3,ZN:VA),,                 +GHSERZN;                1700 N 91Din !
$PAR  G(HCP_A3,ZN:VA),,                 +GHSERZN
$            +2969.82-1.56968*T;                                 1700 N 93Kow !
 PAR  G(FCC_A1,ZN:VA),,                 +GHSERZN
             +2969.82-1.56968*T;                                 1700 N 91Din !
 PAR  G(BCC_A2,ZN:VA),,                 +GHSERZN
             +2886.96-2.5104*T;                                  1700 N 91Din !
$PAR  G(DIAMOND_A4,ZN),,                +GHSERZN+30*T;           1700 N SGCOST !
$PAR  G(BCT_A5,ZN),,                    +GHSERZN
$            +2886.96-2.5104*T;                                  1700 N SGCOST !
$PAR  G(TETRAGONAL_A6,ZN),,             +GHSERZN+4184;           1700 N 96Lee !
$PAR  G(TETRAGONAL_A6,ZN),,             +GHSERZN
$            +2886.96-2.5104*T;                                  1700 N 99SGUN !
$PAR  G(RHOMBOHEDRAL_A7,ZN),,           +GHSERZN+2300+11.5*T;    1700 N 99SGUN !
$PAR  G(RHOMBO_A10,ZN),,                +GLIQZN-2000+10*T;       1700 N 98Han !
$PAR  G(CBCC_A12,ZN:VA),,               +GHSERZN+2000;           1700 N 01Mie !
$PAR  G(CUB_A13,ZN:VA),,                +GHSERZN+2000;           1700 N 01Mie !
 PAR  G(LIQUID,ZN),,                    +GLIQZN;                 1700 N 91Din !
$
 PAR  G(HCP_IM_A3,ZN),,                 +GHSERZN+2969.82-1.56968*T;,, N 93Kow !
 PAR  G(AUZN_B2,ZN:ZN),,                +2*GBCCZN;,,                  N 03Liu !
$
 FUNCTION GHSERZN   298.15  -7285.787+118.470069*T-23.701314*T*LN(T)
       -0.001712034*T**2-1.264963E-06*T**3;
       692.677 Y  -11070.546+172.345644*T-31.38*T*LN(T)+4.7047E+26*T**(-9);
      1700.00  N !
 FUNCTION GLIQZN    298.15  +7157.222-10.29305*T+GHSERZN-3.58949E-19*T**7;
       692.677 Y  -3620.385+161.60854*T-31.38*T*LN(T);
      1700.00  N !
 FUNCTION GBCCZN    298.15  +GHSERZN+2886.96-2.5104*T;                 6000 N !
$ ------------------------------------------------------------------------------
$ Binary system
$
$ H.S. Liu, K. Ishida, Z.P. Jin, Y. Du, Intermetallics, 11, 987-94(2003).
$
$ Checked against paper. Checked at 6000 K.
$
$ Invariant equilibria differ by up to 4 K.
$
$ Parameters for AUZN_B2 and AUZN4 misprinted in the paper.
$
$ The original AUZN_B2 parameters from 03Liu cause a narrow miscibility gap
$ at x(Zn)=0.5. Parameters were modified in SGSOL.
$
$ Parameters for AU5ZN3, AU3ZN17 and HCP_IM_A3 were modified according to
$ SGSOL. The original parameters do not quite reproduce the phase diagram
$ (or invariant equilibria) in 03Liu.
$
 PAR  L(LIQUID,AU,ZN;0),,               -96492.26+42.71334*T
             -3.041479*T*LN(T);,,                                     N 03Liu !
 PAR  L(LIQUID,AU,ZN;1),,               -5576.71+0.0152769*T;,,       N 03Liu !
$
 PAR  L(FCC_A1,AU,ZN:VA;0),,            -95112.59+101.68716*T
             -11.896693*T*LN(T);,,                                    N 03Liu !
 PAR  L(FCC_A1,AU,ZN:VA;1),,            +452.29+7.53974*T;,,          N 03Liu !
$
 PAR  L(HCP_A3,AU,ZN:VA;0),,            -49193.15+11.77016*T
             -3.351968*T*LN(T);,,                                     N 03Liu !
 PAR  L(HCP_A3,AU,ZN:VA;1),,            +21680.4;,,                   N 03Liu !
$
 PAR  G(AU4ZN,AU:AU:ZN),,               +25*GHSERAU+3*GHSERZN
             -260713.32+72.18792*T;,,                                 N 03Liu !
 PAR  G(AU4ZN,AU:ZN:ZN),,               +18*GHSERAU+10*GHSERZN
             -624105.44+152.29312*T;,,                                N 03Liu !
 PAR  L(AU4ZN,AU:AU,ZN:ZN;0),,          -202141.24+16.49396*T;,,      N 03Liu !
$
 PAR  G(AU3ZN_LT,AU:ZN),,               +3*GHSERAU+GHSERZN
             -76036+12.29752*T;,,                                     N 03Liu !
$
 PAR  G(AU3ZN_HT,AU:AU:ZN),,            +4*GHSERAU+GHSERZN
             -78040.1+11.23605*T;,,                                   N 03Liu !
 PAR  G(AU3ZN_HT,AU:ZN:ZN),,            +3*GHSERAU+2*GHSERZN
             -120613.65+31.26385*T;,,                                 N 03Liu !
 PAR  L(AU3ZN_HT,AU:AU,ZN:ZN;0),,       -31715.85+16.23895*T;,,       N 03Liu !
$
$ Original parameter from 03Liu below
$PAR  G(AU5ZN3,AU:ZN),,                 +5*GHSERAU+3*GHSERZN
$            -192392.72+32.15416*T;,,                                 N 03Liu !
 PAR  G(AU5ZN3,AU:ZN),,                 +5*GHSERAU+3*GHSERZN
             -193298.32+32.15416*T;,,                                 N SGSOL !
$
 PAR  G(AUZN_B2,AU:ZN),,                +GHSERAU+GHSERZN
             -52549.74+3.97228*T;,,                                   N 03Liu !
 PAR  G(AUZN_B2,ZN:AU),,                +GHSERAU+GHSERZN
             -52549.74+3.97228*T;,,                                   N 03Liu !
$ Original parameters from 03Liu below
$PAR  L(AUZN_B2,AU,ZN:AU;0),,           -24617.68+0.002942*T;,,       N 03Liu !
$PAR  L(AUZN_B2,AU,ZN:ZN;0),,           -24617.68+0.002942*T;,,       N 03Liu !
$PAR  L(AUZN_B2,AU:AU,ZN;0),,           -30841.18+7.25434*T;,,        N 03Liu !
$PAR  L(AUZN_B2,ZN:AU,ZN;0),,           -30841.18+7.25434*T;,,        N 03Liu !
 PAR  L(AUZN_B2,AU,ZN:AU;0),,           -29688.316+5.312*T;,,         N SGSOL !
 PAR  L(AUZN_B2,AU:AU,ZN;0),,           -29688.316+5.312*T;,,         N SGSOL !
 PAR  L(AUZN_B2,AU,ZN:ZN;0),,           -30841.18+7.25434*T;,,        N SGSOL !
 PAR  L(AUZN_B2,ZN:AU,ZN;0),,           -30841.18+7.25434*T;,,        N SGSOL !
$
 PAR  G(AU44ZN56,AU:ZN),,               +0.44*GHSERAU+0.56*GHSERZN
             -24752.6+1.03656*T;,,                                    N 03Liu !
$
 PAR  G(AU4ZN9_D82,AU:AU:AU:ZN),,       +7*GHSERAU+6*GHSERZN
             -255281.91+13.404742*T;,,                                N 03Liu !
 PAR  G(AU4ZN9_D82,AU:AU:ZN:ZN),,       +4*GHSERAU+9*GHSERZN
             -273238.55+6.56617*T;,,                                  N 03Liu !
 PAR  G(AU4ZN9_D82,ZN:AU:AU:ZN),,       +5*GHSERAU+8*GHSERZN
             -149825.91+2.31764*T;,,                                  N 03Liu !
 PAR  G(AU4ZN9_D82,ZN:AU:ZN:ZN),,       +2*GHSERAU+11*GHSERZN
             -154064.95+20.82964*T;,,                                 N 03Liu !
 PAR  L(AU4ZN9_D82,AU,ZN:AU:AU:ZN;0),,  -58164.6;,,                   N 03Liu !
 PAR  L(AU4ZN9_D82,AU,ZN:AU:ZN:ZN;0),,  -58164.6;,,                   N 03Liu !
 PAR  L(AU4ZN9_D82,AU:AU:AU,ZN:ZN;0),,  -107389.23;,,                 N 03Liu !
 PAR  L(AU4ZN9_D82,ZN:AU:AU,ZN:ZN;0),,  -107389.23;,,                 N 03Liu !
$
 PAR  G(AUZN3,AU:ZN),,                  +GHSERAU+3*GHSERZN
             -78726.24+5.31432*T;,,                                   N 03Liu !
$
 PAR  G(AUZN4,AU:AU:ZN),,               +7*GHSERAU+18*GHSERZN
             -492039+33.2145*T;,,                                     N 03Liu !
 PAR  G(AUZN4,AU:ZN:ZN),,               +3*GHSERAU+22*GHSERZN
             -252500;,,                                               N 03Liu !
 PAR  L(AUZN4,AU:AU,ZN:ZN;0),,          -86147.75;,,                  N 03Liu !
$
$ Original parameter from 03Liu below
$PAR  G(AU3ZN17,AU:ZN),,                +3*GHSERAU+17*GHSERZN
$            -252400+3.32*T;,,                                        N 03Liu !
 PAR  G(AU3ZN17,AU:ZN),,                +3*GHSERAU+17*GHSERZN
             -253710+3.32*T;,,                                        N 03Liu !
$
$ Original parameters from 03Liu below
$PAR  L(HCP_IM_A3,AU,ZN;0),,            -82852.97+26.40577*T;,,       N 03Liu !
$PAR  L(HCP_IM_A3,AU,ZN;1),,            +58047.97-20.17125*T;,,       N 03Liu !
 PAR  L(HCP_IM_A3,AU,ZN;0),,            -60587+3.18803*T;,,           N SGSOL !
 PAR  L(HCP_IM_A3,AU,ZN;1),,            +82405.7-46.5767*T;,,         N SGSOL !
$
$ Metastable
$
 PAR  L(BCC_A2,AU,ZN:VA;0),,            -95112.59+101.68716*T
             -11.896693*T*LN(T);,,                                    N Same !
 PAR  L(BCC_A2,AU,ZN:VA;1),,            +452.29+7.53974*T;,,          N Same !
$ ------------------------------------------------------------------------------
$
$
 LIST-OF-REFERENCE
 NUMBER  SOURCE
  Null   'Unknown source'
  Same   'Same or similar interaction as in the corresponding stable phase'
  REFLAV 'Laves phase convention: G(LAVES,X:X)=+3*GHSERXX+15000'
  COST   'COST 507 database'
  SGSOL  'SGTE solution database Dec. 2016c; Au-Zn'
  SGCOST 'COST 507 database, SGTE unary database V.3.0, 1996; Al, B, Nd, Ti, Zn'
  91Din  'A.T. Dinsdale, Calphad, 15, 317-425(1991).'
  93Kow  'M. Kowalski, P.J. Spencer, J. Phase Equilib., 14, 432-38 (1993),
          SGTE unary database V.4.1, 1999; Zn'
  96Lee  'B.-J. Lee, Calphad, 20, 471-80(1996)
          SGTE unary database V.4.4, 2001; Zn'
  98Han  'S.C. Hansen, Calphad, 22, 359-73(1998),
          SGTE unary database V.5.0, 2009; Zn'
  99SGUN 'SGTE unary database V.4.1, 1999.'
  01Mie  'J. Miettinen, Calphad, 25, 43-58(2001),
          SGTE unary database V.4.4, 2001; Sn, Zn'
  03Liu  'H.S. Liu, K. Ishida, Z.P. Jin, Y. Du,
          Intermetallics, 11, 987-94(2003); Au-Zn'
  04Du1  'Z. Du, C. Guo, D. Lu, J. Alloys Compd., 364, 117-20(2004),
          SGTE unary database V.5.0, 2009; Au'
!
