$
$ Database for Ca-I from L.-I. Staffansson and D. Sichen 1992.
$
$ L.-I. Staffansson, D. Sichen, Scand. J. Metall., 21, 165-71(1992).
$
$ Dataset created 2018.05.03 by Bengt Hallstedt.
$ 2020.12.25: Modified for use with GES6.
$
$ In the paper data for pure Ca were taken from the SGTE substance database,
$ not from the unary database. Here data for Ca are taken from the unary
$ database. No data for I are included in the paper. There are no data for I
$ in the unary database. Data for I are taken from SGSUB.
$
$ Liquid I2 behaves badly at high T. It was not included in in the paper anyway.
$
$ ------------------------------------------------------------------------------
 TEMP-LIM 298.15 6000.00 !
$
$ELEMENT NAME  REF. STATE               ATOMIC MASS H298-H0    S298    !
$
 ELEMENT /-   ELECTRON_GAS                0.0          0.0      0.0    ! 
 ELEMENT VA   VACUUM                      0.0          0.0      0.0    ! 
 ELEMENT I    ORTHORHOMBIC_I            126.90      6598.0    116.14   ! 
 ELEMENT CA   FCC_A1                     40.08      5736.0     41.588  ! 
$ ------------------------------------------------------------------------------
$ Species
$
 SPECIE  CA+2                               CA1/+2 !
 SPECIE  CA2                                CA2 !
 SPECIE  CAI                                CA1I1 !
 SPECIE  CAI2                               CA1I2 !
 SPECIE  I-1                                I1/-1 !
 SPECIE  I2                                 I2 !
$ ------------------------------------------------------------------------------
$ Phase definitions
$
 PHASE ION:Y % 2 1 1 !
 CONST ION:Y : CA+2 : I-1 VA I2 : !
$
 PHASE LIQUID:L % 1 1 !
 CONST LIQUID:L : CA I2 : !
$
$ Fcc (cF4, Fm-3m) and MeX (cF8, Fm-3m)
$
 PHASE FCC_A1 %A 2 1 1 !
 CONST FCC_A1 : CA : VA : !
$
$ Bcc (cI2, Im-3m)
$
 PHASE BCC_A2 %B 2 1 3 !
 CONST BCC_A2 : CA : VA : !
$
$ Hcp (hP2, P6_3/mmc) and Me2X (NiAs-type, hP4, P6_3/mmc, B8_1)
$
 PHASE HCP_A3 %A 2 1 0.5 !
 CONST HCP_A3 : CA : VA : !
$
$ Prototype I2 (oC8, Cmce, A14)
$
 PHASE ORTHORHOMBIC_I % 1 1 !
 CONST ORTHORHOMBIC_I : I2 : !
$
$ Prototype CdI2 (hP3, P-3m1)
$
 PHASE CAI2_C6:I % 2 1 2 !
 CONST CAI2_C6:I : CA+2 : I-1 : !
$
 PHASE GAS:G % 1 1 !
 CONST GAS:G : CA CA2 CAI CAI2 I I2 : !
$ ------------------------------------------------------------------------------
$ Defaults
$
 DEFINE-SYSTEM-DEFAULT ELEMENT 2 !
 DEFAULT-COM DEFINE_SYSTEM_ELEMENT VA /- !
 TYPE-DEF % SEQ * !
 TYPE-DEF A GES AMEND_PHASE_DESCRIPTION @ MAGNETIC -3 0.28 !
 TYPE-DEF B GES AMEND_PHASE_DESCRIPTION @ MAGNETIC -1 0.4 !
 DEFAULT-COM REJECT_PHASE LIQUID !
 FUNCTION ZERO      298.15  0;                                         6000 N !
 FUNCTION UN_ASS    298.15  0;                                         6000 N !
 FUNCTION R         298.15  +8.31451;                                  6000 N !
 FUNCTION RTLNP     298.15  +8.31451*T*LN(1E-05*P);                    6000 N !
$ ------------------------------------------------------------------------------
$ Element data
$ ------------------------------------------------------------------------------
$ Ca
$
$ FCC_A1, BCC_A2, HCP_A3 and LIQUID modified in unary 5.0
$ (upper T interval added + trailing decimals added)
$
 PAR  G(FCC_A1,CA:VA),,                 +GHSERCA;                3001 N 91Din !
 PAR  G(BCC_A2,CA:VA),,                 +GBCCCA;                 3001 N 91Din !
 PAR  G(HCP_A3,CA:VA),,                 +GHSERCA+500+0.7*T;      3001 N 91Din !
 PAR  G(LIQUID,CA),,                    +GLIQCA;                 3001 N 91Din !
$ 
 PAR  G(ION,CA+2:VA),,                  +GLIQCA;                 3000 N 91Din !
$
 PAR  G(GAS,CA;0),,                     +F2131T+RTLNP;,,              N 92SUB !
 PAR  G(GAS,CA2;0),,                    +F2293T+RTLNP;,,              N 92SUB !
$
 FUNCTION GHSERCA   298.15  -4955.062+72.794266*T-16.3138*T*LN(T)
       -0.01110455*T**2-133574*T**(-1);
      1115.00  Y  -107304.428+799.982066*T-114.2922467*T*LN(T)
       +0.023733814*T**2-1.2438E-06*T**3+18245540*T**(-1);
      3000.00  Y  -3703.12+192.63995*T-35.0*T*LN(T);
      3001.00  N !
 FUNCTION GBCCCA    298.15  -7020.852+142.970155*T-28.2541*T*LN(T)
       +0.0072326*T**2-4.500217E-06*T**3+60578*T**(-1);
       716.00  Y  +1640.475+1.999694*T-6.276*T*LN(T)
       -0.0161921*T**2-523000*T**(-1);
      1115.00  Y  -142331.096+1023.549046*T-143.8726979*T*LN(T)
       +0.032543127*T**2-1.704079E-06*T**3+25353771*T**(-1);
      3000.00  Y  +321.63+189.433057*T-35*T*LN(T);
      3001.00  N !
 FUNCTION GLIQCA    298.15  +10799.908-10.310466*T+GHSERCA;
       500.00  Y  +7838.856+18.2979*T-8.9874787*T*LN(T)
       -0.02266537*T**2+3.338303E-06*T**3-230193*T**(-1);
      1115.00  Y  -2654.938+188.9223*T-35*T*LN(T);
      3001.00  N !
$ Ca(g) :
 FUNCTION F2131T    298.15  +173087.021-15.5575325*T-20.786112*T*LN(T);
      1300.00  Y  +172997.956+5588.5688*T**(-1)-13.9593335*T
       -21.0345161*T*LN(T)+2.38213948E-04*T**2-3.64413151E-08*T**3;
      2000.00  Y  +134081.53+9296659.72*T**(-1)+218.694199*T
       -51.8849472*T*LN(T)+0.0111923674*T**2-7.70260453E-07*T**3;
      3600.00  Y  +672690.384-2.35270504E+08*T**(-1)-1610.06137*T
       +171.348607*T*LN(T)-0.0300833784*T**2+6.66115115E-07*T**3;
      4800.00  Y  +672623.642-2.1604084E+08*T**(-1)-1685.46289*T
       +181.445018*T*LN(T)-0.032908206*T**2+7.77184973E-07*T**3;
      6000.00  N !
$ Ca2(g) :
 FUNCTION F2293T    298.15  +331036.623+118736.69*T**(-1)+92.462223*T
       -54.080292*T*LN(T)+0.0271296836*T**2-5.73392096E-06*T**3;
       600.00  Y  +340712.213-633424.128*T**(-1)-59.9992293*T
       -30.2654661*T*LN(T)+5.18998004E-04*T**2-4.10068261E-08*T**3;
      2200.00  Y  +343774.134-1755137.79*T**(-1)-73.0668827*T
       -28.6059243*T*LN(T)+6.54369232E-05*T**2-1.34699696E-08*T**3;
      6000.00  N !
$ ------------------------------------------------------------------------------
$ I
$
$ Liquid I2 behaves badly at high T.
$
 PAR  G(ORTHORHOMBIC_I,I2),,            +F11442T;,,                   N 97SUB !
 PAR  G(LIQUID,I2),,                    +F11442T
             +15517.2-40.12723041*T;,,                                N 97SUB !
$ 
 PAR  G(ION,I2),,                       +F11442T
             +15517.2-40.12723041*T;,,                                N 97SUB !
$
 PAR  G(GAS,I;0),,                      +F11300T+RTLNP;,,             N 97SUB !
 PAR  G(GAS,I2;0),,                     +F11445T+RTLNP;,,             N 97SUB !
$
$ I2(s)
 FUNCTION F11442T   298.15  +13508.6788-397.468311*T+50.64648*T*LN(T)
       -0.1234531*T**2-1398711*T**(-1);
       386.70  Y  -26045.3572+430.07251*T-80.6717*T*LN(T);
      6000.00  N !
$ I(g)
 FUNCTION F11300T   298.15  +100565.721-41.5660179*T-20.78611*T*LN(T);
       900.00  Y  +100490.766-40.0891221*T-21.02293*T*LN(T)
       +2.8892195E-04*T**2-5.92257E-08*T**3+4271.7805*T**(-1);
      2400.00  Y  +96391.6885-37.6805368*T-21.00083*T*LN(T)
       -4.330963E-04*T**2+1.5565595E-08*T**3+2477618.5*T**(-1);
      6000.00  N !
$ I2(g)
 FUNCTION F11445T   298.15  +50783.8023-4.98552858*T-38.14594*T*LN(T)
       +5.89305E-04*T**2-1.96143167E-07*T**3+45464.01*T**(-1);
      2000.00  Y  +31804.691+32.3495768*T-41.67339*T*LN(T)
       -0.001681544*T**2+1.53575317E-07*T**3+8481775*T**(-1);
      4000.00  Y  -34016.1054+280.938546*T-72.42007*T*LN(T)
       +0.004574158*T**2-8.10419167E-08*T**3+34270380*T**(-1);
      6000.00  N !
$ ------------------------------------------------------------------------------
$ Binary system
$
$ L.-I. Staffansson, D. Sichen, Scand. J. Metall., 21, 165-71(1992).
$
$ Checked against paper.
$
$ In the paper data for pure Ca were taken from the SGTE substance database,
$ not from the unary database. Here data for Ca are taken from the unary
$ database. No data for I are included in the paper. There are no data for I
$ in the unary database. Data for I are taken from SGSUB.
$
$ Liquid I2 behaves badly at high T. It was not included in in the paper anyway.
$
 PAR  G(ION,CA+2:I-1),,                 +F5484T
             +41800-39.58333333*T;,,                                  N 97SUB !
 PAR  L(ION,CA+2:I-1,VA;0),,            +233255-109.63*T;,,           N 92Sta !
 PAR  L(ION,CA+2:I-1,VA;1),,            -85984.9+47.143*T;,,          N 92Sta !
$
 PAR  G(CAI2_C6,CA+2:I-1),,             +F5484T;,,                    N 97SUB !
$
 PAR  G(GAS,CAI),,                      +F5479T+RTLNP;,,              N 97SUB !
 PAR  G(GAS,CAI2),,                     +F5488T+RTLNP;,,              N 97SUB !
$
$ CaI2(s)
 FUNCTION F5484T    298.15  -558880.273+342.535831*T-71.94548*T*LN(T)
       -0.00949668*T**2-3.28427333E-11*T**3+27658.46*T**(-1);
      1056.00  Y  -581031.295+569.71758*T-103*T*LN(T)
       +4.0127185E-17*T**2-1.50931167E-21*T**3+3.256311E-08*T**(-1);
      4500.00  N !
$ CaI(g)
 FUNCTION F5479T    298.15  -16534.6824-9.08906638*T-37.58646*T*LN(T)
       +1.268643E-05*T**2-2.30827833E-08*T**3+42081.415*T**(-1);
      2400.00  Y  -10892.6334-18.935261*T-36.66581*T*LN(T)
       +5.22366E-04*T**2-9.16616833E-08*T**3-2829283.5*T**(-1);
      4200.00  Y  +106154.644-376.763227*T+6.394533*T*LN(T)
       -0.00656298*T**2+1.28171967E-07*T**3-62900350*T**(-1);
      6000.00  N !
$ CaI2(g)
 FUNCTION F5488T    298.15  -277239.876+90.70968*T-62.32403*T*LN(T)
       -7.465805E-06*T**2+2.56161833E-10*T**3+75210.75*T**(-1);
      6000.00  N !
$ ------------------------------------------------------------------------------
$
$
 LIST-OF-REFERENCE
 NUMBER  SOURCE
  Null   'Unknown source'
  Same   'Same or similar interaction as in the corresponding stable phase'
  REFLAV 'Laves phase convention: G(LAVES,X:X)=+3*GHSERXX+15000'
  91Din  'A.T. Dinsdale, Calphad, 15, 317-425(1991).'
  92Sta  'L.-I. Staffansson, D. Sichen,
          Scand. J. Metall., 21, 165-71(1992); Ca-I'
  92SUB  'SGTE substance database, version 1992'
  97SUB  'SGTE substance database, version 1997'
  00SUB  'SGTE substance database, version 2000'
!
