$
$ Database for Ce-Pr from K. Yang et al. 2019.
$
$ K. Yang, J. Wang, Q. Yao, Z. Lu, M. Rong, H. Zhou, G. Rao,
$ J. Rare Earths, 37, 1040-46(2019).
$
$ Dataset created 2021.09.18 by Bengt Hallstedt.
$
$ 19Yan used the old dhcp-Ce lattice stability. There is no obvious difference.
$
$ ------------------------------------------------------------------------------
 TEMP-LIM 298.15 6000.00 !
$
$ELEMENT NAME  REF. STATE               ATOMIC MASS H298-H0    S298    !
$
 ELEMENT VA   VACUUM                      0.0          0.0      0.0    ! 
 ELEMENT CE   FCC_A1                    140.12      7280.16    69.454  ! 
 ELEMENT PR   DHCP                      140.9077    7418.232   73.9313 ! 
$ ------------------------------------------------------------------------------
$ Phase definitions
$
 PHASE LIQUID:L % 1 1 !
 CONST LIQUID:L : CE PR : !
$
$ Fcc (cF4, Fm-3m) and MeX (cF8, Fm-3m)
$
 PHASE FCC_A1 %A 2 1 1 !
 CONST FCC_A1 : CE% PR : VA% : !
$
$ Bcc (cI2, Im-3m)
$
 PHASE BCC_A2 %B 2 1 3 !
 CONST BCC_A2 : CE% PR% : VA% : !
$
$ Hcp (hP2, P6_3/mmc) and Me2X (NiAs-type, hP4, P6_3/mmc, B8_1)
$
 PHASE HCP_A3 %A 2 1 0.5 !
 CONST HCP_A3 : CE : VA% : !
$
$ Prototype alpha-La (SB A3', hP4, P6_3/mmc)
$
 PHASE DHCP %A 1 1 !
 CONST DHCP : CE% PR% : !
$ ------------------------------------------------------------------------------
$ Defaults
$
 DEFINE-SYSTEM-DEFAULT ELEMENT 2 !
 DEFAULT-COM DEFINE_SYSTEM_ELEMENT VA !
 TYPE-DEF % SEQ * !
 TYPE-DEF A GES AMEND_PHASE_DESCRIPTION @ MAGNETIC -3 0.28 !
 TYPE-DEF B GES AMEND_PHASE_DESCRIPTION @ MAGNETIC -1 0.4 !
 FUNCTION ZERO      298.15  0;                                         6000 N !
 FUNCTION UN_ASS    298.15  0;                                         6000 N !
 FUNCTION R         298.15  +8.31451;                                  6000 N !
$ ------------------------------------------------------------------------------
$ Element data
$ ------------------------------------------------------------------------------
$ Ce
$
$ HCP_A3 and DHCP added in unary 3.0
$ HCP_A3 and DHCP revised in unary 4.4
$
 PAR  G(FCC_A1,CE:VA),,                 +GHSERCE;                4000 N 91Din !
 PAR  G(BCC_A2,CE:VA),,                 +GBCCCE;                 4000 N 91Din !
 PAR  G(HCP_A3,CE:VA),,                 +GHSERCE+300;            4000 N Frank !
$PAR  G(HCP_A3,CE:VA),,                 +GHSERCE+50000;          4000 N 96SGUN !
 PAR  G(DHCP,CE),,                      +GHSERCE
             -122.539+0.433*T;                                   4000 N 99Gsc !
$PAR  G(DHCP,CE),,                      +GHSERCE-190+0.56886*T;  4000 N 96SGUN !
 PAR  G(LIQUID,CE),,                    +GLIQCE;                 4000 N 91Din !
$
 FUNCTION GHSERCE   298.15  -7160.519+84.23022*T-22.3664*T*LN(T)
       -0.0067103*T**2-3.20773E-07*T**3-18117*T**(-1);
      1000.00  Y  -79678.506+659.4604*T-101.32248*T*LN(T)
       +0.026046487*T**2-1.930297E-06*T**3+11531707*T**(-1);
      2000.00  Y  -14198.639+190.370192*T-37.6978*T*LN(T);
      4000.00  N !
 FUNCTION GBCCCE    298.15  -1354.69-5.21501*T-7.7305867*T*LN(T)
       -0.029098402*T**2+4.784299E-06*T**3-196303*T**(-1);
      1000.00  Y  -12101.106+187.449688*T-37.6142*T*LN(T);
      1072.00  Y  -11950.375+186.333811*T-37.4627992*T*LN(T)
       -5.7145E-05*T**2+2.348E-09*T**3-25897*T**(-1);
      4000.00  N !
 FUNCTION GLIQCE    298.15  +4117.865-11.423898*T-7.5383948*T*LN(T)
       -0.02936407*T**2+4.827734E-06*T**3-198834*T**(-1);
      1000.00  Y  -6730.605+183.023193*T-37.6978*T*LN(T);
      4000.00  N !
$ ------------------------------------------------------------------------------
$ Pr
$
$ FCC_A1 from 11Jin not included in unary (value seems very reasonable).
$
 PAR  G(DHCP,PR),,                      +GHSERPR;                3800 N 91Din !
 PAR  G(FCC_A1,PR:VA),,                 +GHSERPR+900-0.5439*T;   3800 N 11Jin !
 PAR  G(BCC_A2,PR:VA),,                 +GBCCPR;                 3800 N 91Din !
 PAR  G(LIQUID,PR),,                    +GLIQPR;                 3800 N 91Din !
$
 FUNCTION GHSERPR   298.15  -18803.379+356.587384*T-68.9176*T*LN(T)
       +0.072929*T**2-2.5184333E-05*T**3+507385*T**(-1);
       500.00  Y  -7246.848+82.427384*T-22.8909*T*LN(T)
       -0.00497126*T**2-1.22951E-06*T**3;
       800.00  Y  +95411.023-1073.55111*T+146.764*T*LN(T)
       -0.1288205*T**2+1.5592233E-05*T**3-11588800*T**(-1);
      1068.00  Y  -481663.131+4234.33311*T-606.120311*T*LN(T)
       +0.305181506*T**2-3.0994702E-05*T**3+70926840*T**(-1);
      1204.00  Y  -20014.678+227.685155*T-42.9697*T*LN(T);
      3800.00  N !
 FUNCTION GBCCPR    298.15  -2863.651+28.274853*T-13.7470527*T*LN(T)
       -0.02284377*T**2+3.542468E-06*T**3-87486*T**(-1);
      1068.00  Y  -11985.919+188.657121*T-38.451*T*LN(T);
      1204.00  Y  +953.224+100.826281*T-26.6824313*T*LN(T)
       -0.004106833*T**2+1.76214E-07*T**3-2473024*T**(-1);
      3800.00  N !
 FUNCTION GLIQPR    298.15  +3848.961-29.099465*T-4.7344931*T*LN(T)
       -0.035119723*T**2+5.427467E-06*T**3-207406*T**(-1);
      1068.00  Y  -10539.574+219.508805*T-42.9697*T*LN(T);
      3800.00  N !
$ ------------------------------------------------------------------------------
$ Binary system
$
$ K. Yang, J. Wang, Q. Yao, Z. Lu, M. Rong, H. Zhou, G. Rao,
$ J. Rare Earths, 37, 1040-46(2019).
$
$ Checked against paper and tdb from 21Su. Checked at 6000 K.
$
$ 19Yan used the old dhcp-Ce lattice stability. There is no obvious difference.
$
 PAR  L(LIQUID,CE,PR;0),,               +ZERO;,,                      N 19Yan !
$
 PAR  L(FCC_A1,CE,PR:VA;0),,            -250-0.62*T;,,                N 19Yan !
 PAR  L(BCC_A2,CE,PR:VA;0),,            -300;,,                       N 19Yan !
 PAR  L(DHCP,CE,PR;0),,                 -120+0.357*T;,,               N 19Yan !
$ ------------------------------------------------------------------------------
$
$
 LIST-OF-REFERENCE
 NUMBER  SOURCE
  Null   'Unknown source'
  COST   'COST 507 database'
  Frank  'Peter Franke, unpublished, SGTE unary database V.4.4, 2001; Ce'
  91Din  'A.T. Dinsdale, Calphad, 15, 317-425(1991).'
  96SGUN 'SGTE unary database V.3.0, 1996.'
  99Gsc  'K.A. Gschneidner, Jr., V.K. Pecharsky, J. Phase Equilib.,
          20, 612-14(1999), SGTE unary database V.4.4, 2001; Ce'
  11Jin  'L. Jin, Y.-B. Kang, P. Chartrand, C.D. Fuerst,
          Calphad, 35, 30-41(2011); La, Nd, Pr, Sm'
  19Yan  'K. Yang, J. Wang, Q. Yao, Z. Lu, M. Rong, H. Zhou, G. Rao,
          J. Rare Earths, 37, 1040-46(2019); Ce-Pr'
  21Su   'D. Su, M.H. Rong, K.C. Yang, Q.R. Yao, J. Wang, G.H. Rao, H.Y. Zhou,
          Calphad, 74, 102285(2021)'
!
