$
$ Database for Dy-Ho from S. Norgren 2000 (included in LB Vol. 3)
$
$ S. Norgren, J. Phase Equilib., 21, 148-56(2000).
$
$ Dataset created 2015.05.24 by Bengt Hallstedt.
$ 2020.12.26: Modified for use with GES6.
$
$ ------------------------------------------------------------------------------
 TEMP-LIM 298.15 6000.00 !
$
$ELEMENT NAME  REF. STATE               ATOMIC MASS H298-H0    S298    !
$
 ELEMENT VA   VACUUM                      0.0          0.0      0.0    ! 
 ELEMENT DY   HCP_A3                    162.50      8865.896   74.9559 ! 
 ELEMENT HO   HCP_A3                    164.9304    7995.624   75.0191 ! 
$ ------------------------------------------------------------------------------
$ Phase definitions
$
 PHASE LIQUID:L % 1 1 !
 CONST LIQUID:L : DY HO : !
$
$ Fcc (cF4, Fm-3m) and MeX (cF8, Fm-3m)
$
 PHASE FCC_A1 %A 2 1 1 !
 CONST FCC_A1 : DY HO : VA : !
$
$ Bcc (cI2, Im-3m)
$
 PHASE BCC_A2 %B 2 1 3 !
 CONST BCC_A2 : DY HO : VA : !
$
$ Hcp (hP2, P6_3/mmc) and Me2X (NiAs-type, hP4, P6_3/mmc, B8_1)
$
 PHASE HCP_A3 %A 2 1 0.5 !
 CONST HCP_A3 : DY HO : VA : !
$ ------------------------------------------------------------------------------
$ Defaults
$
 DEFINE-SYSTEM-DEFAULT ELEMENT 2 !
 DEFAULT-COM DEFINE_SYSTEM_ELEMENT VA !
 TYPE-DEF % SEQ * !
 TYPE-DEF A GES AMEND_PHASE_DESCRIPTION @ MAGNETIC -3 0.28 !
 TYPE-DEF B GES AMEND_PHASE_DESCRIPTION @ MAGNETIC -1 0.4 !
 FUNCTION ZERO      298.15  0;                                         6000 N !
 FUNCTION UN_ASS    298.15  0;                                         6000 N !
 FUNCTION R         298.15  +8.31451;                                  6000 N !
$ ------------------------------------------------------------------------------
$ Element data
$ ------------------------------------------------------------------------------
$ Dy
$
$ HCP_A3, BCC_A2 and LIQUID revised in unary 3.0
$
$ FCC_A1 from 03Cac not included in unary (but it should be)
$
 PAR  G(HCP_A3,DY:VA)           100.00  +GHSERDY;                3000 N 95She1 !
 PAR  TC(HCP_A3,DY:VA)          100.00    179;                   3000 N 95She1 !
 PAR  BMAGN(HCP_A3,DY:VA)       100.00      3.0;                 3000 N 95She1 !
 PAR  G(BCC_A2,DY:VA)           100.00  +GBCCDY;                 3000 N 95She1 !
 PAR  G(FCC_A1,DY:VA)           100.00  +GHSERDY
             +1300-0.6651608*T;                                  3000 N 03Cac !
 PAR  G(LIQUID,DY)              100.00  +GLIQDY;                 3000 N 95She1 !
$
 FUNCTION GHSERDY   100.00  -7937.16586+102.307412*T-26.3917167*T*LN(T)
       -7.61683657E-04*T**2-5.86914125E-07*T**3+4010.90565*T**(-1);
      1000.00  Y  -13733.328+214.012934*T-43.8283359*T*LN(T)
       +0.0166909801*T**2-3.49702836E-06*T**3+0.0173619874*T**(-1);
      1654.15  Y  -404681.371+2032.1415*T-272.123952*T*LN(T)
       +0.0578301681*T**2-2.76169148E-06*T**3+1.09616238E+08*T**(-1);
      3000.00  N !
 FUNCTION GBCCDY    100.00  +1508.1802-0.566616181*T+GHSERDY;
      1000.00  Y  +327500.062-2868.04585*T+391.515418*T*LN(T)
       -0.224042148*T**2+2.04076075E-05*T**3-48652656.5*T**(-1);
      1654.15  Y  -33708.7949+291.409631*T-50.208*T*LN(T);
      1685.15  Y  -40775.4966+330.318068*T-55.2811171*T*LN(T)
       +0.0015254673*T**2-7.7437116E-08*T**3+1776589.32*T**(-1);
      3000.00  N !
 FUNCTION GLIQDY    100.00  +13196.6185-7.5443643*T+GHSERDY;
      1000.00  Y  +300126.971-2519.78614*T+341.302578*T*LN(T)
       -0.196153225*T**2+1.76197799E-05*T**3-43071677.5*T**(-1);
      1685.15  Y  -21864.7344+282.205014*T-49.9151*T*LN(T);
      3000.00  N !
$ ------------------------------------------------------------------------------
$ Ho
$
$ BCC_A2 and LIQUID revised in unary 4.4
$ HCP_A3 modified in unary 5.0
$ (upper T interval added + trailing decimals added)
$
$ FCC_A1 from 03Cac and 09Wan not included in unary; 03Cac to be preferred
$
 PAR  G(HCP_A3,HO:VA),,                 +GHSERHO;                3001 N 91Din !
 PAR  G(BCC_A2,HO:VA),,                 +GHSERHO
             +4380-2.494353*T;                                   3001 N 00Nor1 !
$PAR  G(FCC_A1,HO:VA),,                 +GHSERHO+5000;           3001 N 09Wan !
 PAR  G(FCC_A1,HO:VA),,                 +GHSERHO
             +2000-0.831451*T;                                   3001 N 03Cac !
 PAR  G(LIQUID,HO),,                    +GLIQHO;                 3001 N 00Nor1 !
$
 FUNCTION GHSERHO   298.15  -7612.429+86.593171*T-23.4879*T*LN(T)
       -0.00827315*T**2+2.375467E-06*T**3;
       600.00  Y  -10917.688+182.475691*T-39.6932*T*LN(T)
       +0.01820065*T**2-4.829733E-06*T**3;
       900.00  Y  +46646.188-421.474473*T+48.0595*T*LN(T)
       -0.0424634*T**2+3.233133E-06*T**3-7185900*T**(-1);
      1200.00  Y  +27786.061-156.162846*T+8.28608*T*LN(T)
       -0.01082725*T**2-1.112352E-06*T**3-6183850*T**(-1);
      1703.00  Y  -825364.662+4248.379056*T-558.9506818*T*LN(T)
       +0.139111904*T**2-6.824652E-06*T**3+2.19952973E+08*T**(-1);
      3000.00  Y  -17149.229+235.898104*T-43.932*T*LN(T);
      3001.00  N !
 FUNCTION GLIQHO    298.15  +17383.4216-9.992194*T+GHSERHO;
      1000.00  Y  +124827.5326-994.683024*T+127.9577778*T*LN(T)
       -0.088196514*T**2+8.008222E-6*T**3-15727191*T**(-1);  
      1703.00  Y  -9688.5314+230.793918*T-43.932*T*LN(T);  
      3001.00  N !
$ ------------------------------------------------------------------------------
$ Binary system
$
$ From S. Norgren 2000 (included in LB Vol. 3)
$
$ S. Norgren, J. Phase Equilib., 21, 148-56(2000).
$
$ Checked against LB and paper. Checked at 6000 K.
$
 PAR  L(LIQUID,DY,HO;0),,               +ZERO;,,                      N 00Nor1 !
$
 PAR  L(BCC_A2,DY,HO:VA;0),,            +ZERO;,,                      N 00Nor1 !
 PAR  L(HCP_A3,DY,HO:VA;0),,            +ZERO;,,                      N 00Nor1 !
$ ------------------------------------------------------------------------------
$
 ASSESSED_SYSTEM
  DY-HO(TDB -* +LIQUID +BCC_A2 +HCP_A3 ;P3 TMM:300/3000 STP:.99/1730) !
$
$
 LIST-OF-REFERENCE
 NUMBER  SOURCE
  Null   'Unknown source'
  COST   'COST 507 database'
  91Din  'A.T. Dinsdale, Calphad, 15, 317-425(1991).'
  95She1 'H. Shen, W. Zhang, G. Liu, R. Wang, Z. Du, Report F-95-01,
          University of Science and Technology, Beijing, May 1995,
          SGTE unary database V.3.0, 1996; Dy'
  00Nor1 'S. Norgren, J. Phase Equilib., 21, 148-56(2000),
          SGTE unary database V.4.4, 2001; Er, Ho, Dy-Ho'
  03Cac  'G. Cacciamani, S. De Negri, A. Saccone, R. Ferro,
          Intermetallics, 11, 1135-51(2003); Dy, Ho'
  09Wan  'C.P. Wang, H.L. Zhang, S.L. Wang, Z. Lin, X.J. Liu, A.T. Tang,
          F.S. Pan, J. Alloys Compd., 481, 291-95(2009); Ho'
!
