$
$ Database for Ho-V from C.P. Wang et al. 2009
$
$ C.P. Wang, S.H. Guo, X.J. Liu, A.T. Tang, F.S. Pan,
$ J. Alloys Compd., 487, 173-78(2009).
$
$ Dataset created 2013.05.30 by Bengt Hallstedt.
$ 2021.01.17: Modified for use with GES6.
$
$ Old data used for bcc and liquid Ho (91Din). Invariants ok.
$
$ Using SGTE unary ver. 4.4:
$ The calculated eutectic reaction is 11 K higher than in the paper.
$ The monotectic reaction is ok.
$
$ ------------------------------------------------------------------------------
 TEMP-LIM 298.15 6000.00 !
$
$ELEMENT NAME  REF. STATE               ATOMIC MASS H298-H0    S298    !
$
 ELEMENT VA   VACUUM                      0.0          0.0      0.0    ! 
 ELEMENT HO   HCP_A3                    164.9304    7995.624   75.0191 ! 
 ELEMENT V    BCC_A2                     50.9415    4507.0     30.89   ! 
$ ------------------------------------------------------------------------------
$ Phase definitions
$
 PHASE LIQUID:L % 1 1 !
 CONST LIQUID:L : HO V : !
$
$ Fcc (cF4, Fm-3m) and MeX (cF8, Fm-3m)
$
 PHASE FCC_A1 %A 2 1 1 !
 CONST FCC_A1 : HO V : VA : !
$
$ Bcc (cI2, Im-3m)
$
 PHASE BCC_A2 %B 2 1 3 !
 CONST BCC_A2 : HO V% : VA : !
$
$ Hcp (hP2, P6_3/mmc) and Me2X (NiAs-type, hP4, P6_3/mmc, B8_1)
$
 PHASE HCP_A3 %A 2 1 0.5 !
 CONST HCP_A3 : HO% V : VA : !
$ ------------------------------------------------------------------------------
$ Defaults
$
 DEFINE-SYSTEM-DEFAULT ELEMENT 2 !
 DEFAULT-COM DEFINE_SYSTEM_ELEMENT VA !
 TYPE-DEF % SEQ * !
 TYPE-DEF A GES AMEND_PHASE_DESCRIPTION @ MAGNETIC -3 0.28 !
 TYPE-DEF B GES AMEND_PHASE_DESCRIPTION @ MAGNETIC -1 0.4 !
 FUNCTION ZERO      298.15  0;                                         6000 N !
 FUNCTION UN_ASS    298.15  0;                                         6000 N !
 FUNCTION R         298.15  +8.31451;                                  6000 N !
$ ------------------------------------------------------------------------------
$ Element data
$ ------------------------------------------------------------------------------
$ Ho
$
$ BCC_A2 and LIQUID revised in unary 4.4
$ HCP_A3 modified in unary 5.0
$ (upper T interval added + trailing decimals added)
$
$ FCC_A1 from 03Cac and 09Wan not included in unary; 03Cac to be preferred
$
 PAR  G(HCP_A3,HO:VA),,                 +GHSERHO;                3000 N 91Din !
 PAR  G(FCC_A1,HO:VA),,                 +GHSERHO+5000;           3000 N 09Wan1 !
$PAR  G(FCC_A1,HO:VA),,                 +GHSERHO
$            +2000-0.831451*T;                                   3001 N 03Cac !
 PAR  G(BCC_A2,HO:VA),,                 +GHSERHO
             +4380-2.494353*T;                                   3001 N 00Nor1 !
 PAR  G(LIQUID,HO),,                    +GLIQHO;                 3000 N 00Nor1 !
$
 FUNCTION GHSERHO   298.15  -7612.429+86.593171*T-23.4879*T*LN(T)
       -0.00827315*T**2+2.375467E-06*T**3;
       600.00  Y  -10917.688+182.475691*T-39.6932*T*LN(T)
       +0.01820065*T**2-4.829733E-06*T**3;
       900.00  Y  +46646.188-421.474473*T+48.0595*T*LN(T)
       -0.0424634*T**2+3.233133E-06*T**3-7185900*T**(-1);
      1200.00  Y  +27786.061-156.162846*T+8.28608*T*LN(T)
       -0.01082725*T**2-1.112352E-06*T**3-6183850*T**(-1);
      1703.00  Y  -825364.662+4248.379056*T-558.9506818*T*LN(T)
       +0.139111904*T**2-6.824652E-06*T**3+2.19952973E+08*T**(-1);
      3000.00  Y  -17149.229+235.898104*T-43.932*T*LN(T);
      3001.00  N !
 FUNCTION GLIQHO    298.15  +17383.4216-9.992194*T+GHSERHO;
      1000.00  Y  +124827.5326-994.683024*T+127.9577778*T*LN(T)
       -0.088196514*T**2+8.008222E-6*T**3-15727191*T**(-1);  
      1703.00  Y  -9688.5314+230.793918*T-43.932*T*LN(T);  
      3001.00  N !
$ ------------------------------------------------------------------------------
$ V
$
 PAR  G(BCC_A2,V:VA),,                  +GHSERVV;                4000 N 91Din !
 PAR  G(FCC_A1,V:VA),,                  +GHSERVV+7500+1.7*T;     4000 N 91Din !
 PAR  G(HCP_A3,V:VA),,                  +GHSERVV+4000+2.4*T;     4000 N 91Din !
$PAR  G(CBCC_A12,V:VA),,                +GHSERVV+9000;           4000 N 91Din !
$PAR  G(CUB_A13,V:VA),,                 +GHSERVV+10000;          4000 N 91Din !
 PAR  G(LIQUID,V),,                     +GLIQVV;                 4000 N 91Din !
$
 FUNCTION GHSERVV   298.15  -7930.43+133.346053*T-24.134*T*LN(T)
       -0.003098*T**2+1.2175E-07*T**3+69460*T**(-1);
       790.00  Y  -7967.842+143.291093*T-25.9*T*LN(T)
       +6.25E-05*T**2-6.8E-07*T**3;
      2183.00  Y  -41689.864+321.140783*T-47.43*T*LN(T)+6.44389E+31*T**(-9);
      4000.00  N !
 FUNCTION GLIQVV    298.15  +20764.117-9.455552*T+GHSERVV-5.19136E-22*T**7;
      2183.00  Y  -19617.51+311.055983*T-47.43*T*LN(T);
      4000.00  N !
$ ------------------------------------------------------------------------------
$ Binary system
$
$ C.P. Wang, S.H. Guo, X.J. Liu, A.T. Tang, F.S. Pan,
$ J. Alloys Compd., 487, 173-78(2009).
$
$ Checked against paper. Checked at 6000 K.
$
$ Old data used for bcc and liquid Ho (91Din). Invariants ok.
$
$ Using SGTE unary ver. 4.4:
$ The calculated eutectic reaction is 11 K higher than in the paper.
$ The monotectic reaction is ok.
$
 PAR  L(LIQUID,HO,V;0),,                +58686;,,                     N 09Wan2 !
 PAR  L(LIQUID,HO,V;1),,                -10686;,,                     N 09Wan2 !
$
 PAR  L(BCC_A2,HO,V:VA;0),,             +98686;,,                     N 09Wan2 !
 PAR  L(HCP_A3,HO,V:VA;0),,             +66262;,,                     N 09Wan2 !
$
$ Metastable
$
 PAR  L(FCC_A1,HO,V:VA;0),,             +66262;,,                     N Same !
$ ------------------------------------------------------------------------------
$
$
 LIST-OF-REFERENCE
 NUMBER  SOURCE
  Null   'Unknown source'
  Same   'Same or similar interaction as in the corresponding stable phase'
  REFLAV 'Laves phase convention: G(LAVES,X:X)=+3*GHSERXX+15000'
  COST   'COST 507 database'
  91Din  'A.T. Dinsdale, Calphad, 15, 317-425(1991).'
  00Nor1 'S. Norgren, J. Phase Equilib., 21, 148-56(2000),
          SGTE unary database V.4.4, 2001; Er, Ho'
  03Cac  'G. Cacciamani, S. De Negri, A. Saccone, R. Ferro,
          Intermetallics, 11, 1135-51(2003); Dy, Gd, Ho'
  09Wan1 'C.P. Wang, H.L. Zhang, S.L. Wang, Z. Lin, X.J. Liu, A.T. Tang,
          F.S. Pan, J. Alloys Compd., 481, 291-95(2009); Ho, Ho-Mn'
  09Wan2 'C.P. Wang, S.H. Guo, X.J. Liu, A.T. Tang, F.S. Pan,
          J. Alloys Compd., 487, 173-78(2009); Ho-V'
!
