$
$ Database for Sb-Te from M. Peters 2018.
$
$ M. Peters, unpublished, 2018.
$
$ Dataset created 2024.10.10 by Bengt Hallstedt.
$
$ A tdb and a pop-file are available in the NIST repository
$ (https://materialsdata.nist.gov/handle/11256/974), but no other documentation.
$
$ No ions or associates are used.
$
$ The phase diagram is very different from that of 14Guo and 89Gho. Delta and
$ gamma are modelled as stoichiometric phases and Sb2Te3 as a solid solution,
$ completely contrary to the other two.
$
$ There is an inverse miscibility gap with a minimum at 1948 K and x(Te)=0.62.
$
$ ------------------------------------------------------------------------------
 TEMP-LIM 298.15 6000.00 !
$
$ELEMENT NAME  REF. STATE               ATOMIC MASS H298-H0    S298    !
$
 ELEMENT VA   VACUUM                      0.0          0.0      0.0    ! 
 ELEMENT SB   RHOMBOHEDRAL_A7           121.75      5870.152   45.5219 ! 
 ELEMENT TE   HEXAGONAL_A8              127.60      6080.      49.221  ! 
$ ------------------------------------------------------------------------------
$ Phase definitions
$
 PHASE LIQUID:L % 1 1 !
 CONST LIQUID:L : SB TE : !
$
$ Fcc (cF4, Fm-3m) and MeX (cF8, Fm-3m)
$
 PHASE FCC_A1 % 2 1 1 !
 CONST FCC_A1 : SB : VA : !
$
$ Bcc (cI2, Im-3m)
$
 PHASE BCC_A2 % 2 1 3 !
 CONST BCC_A2 : SB : VA : !
$
$ Hcp (hP2, P6_3/mmc) and Me2X (NiAs-type, hP4, P6_3/mmc, B8_1)
$
 PHASE HCP_A3 % 2 1 0.5 !
 CONST HCP_A3 : SB : VA: !
$
$ Prototype alpha-As (hR2, R-3m)
$
 PHASE RHOMBOHEDRAL_A7 % 1 1 !
 CONST RHOMBOHEDRAL_A7 : SB% TE : !
$
$ Prototype gamma-Se (hP3, P3_121)
$ The phase is named HEXAGONAL_A8 in the SGTE unary database and
$ TRIGONAL_A8 in LB.
$
 PHASE HEXAGONAL_A8 % 1 1 !
 CONST HEXAGONAL_A8 : TE : !
$
$ Prototype Sb2Te (hP9, P-3m1), delta
$
 PHASE SB7TE3 % 2 7 3 !
 CONST SB7TE3 : SB : TE : !
$
$ Prototype BiSe (hP12, P-3m1), gamma
$
 PHASE SB4TE5 % 2 4 5 !
 CONST SB4TE5 : SB : TE : !
$
$ Prototype Bi2Te3 (hR5, R-3m)
$
 PHASE SB2TE3_C33 % 3 2 1 2 !
 CONST SB2TE3_C33 : SB VA : SB TE : TE : !
$ ------------------------------------------------------------------------------
$ Defaults
$
 DEFINE-SYSTEM-DEFAULT ELEMENT 2 !
 DEFAULT-COM DEFINE_SYSTEM_ELEMENT VA !
 TYPE-DEF % SEQ * !
 FUNCTION ZERO      298.15  0;                                         6000 N !
 FUNCTION UN_ASS    298.15  0;                                         6000 N !
 FUNCTION R         298.15  +8.31451;                                  6000 N !
$ ------------------------------------------------------------------------------
$ Element data
$ ------------------------------------------------------------------------------
$ Sb
$
$ BCT_A5 revised in unary 3.0
$
 PAR  G(RHOMBOHEDRAL_A7,SB),,           +GHSERSB;                2000 N 91Din !
 PAR  G(FCC_A1,SB:VA),,                 +GHSERSB+19874-13.7*T;   2000 N 91Din !
 PAR  G(BCC_A2,SB:VA),,                 +GHSERSB+19874-15.1*T;   2000 N 91Din !
 PAR  G(HCP_A3,SB:VA),,                 +GHSERSB+19874-13*T;     2000 N 91Din !
$PAR  G(BCT_A5,SB),,                    +GHSERSB+13000-8*T;      2000 N 96SGUN !
$PAR  G(BCT_A5,SB),,                    +GHSERSB+1000;           2000 N 91Din !
 PAR  G(LIQUID,SB),,                    +GLIQSB;                 2000 N 91Din !
$
 FUNCTION GHSERSB   298.15  -9242.858+156.154689*T-30.5130752*T*LN(T)
       +0.007748768*T**2-3.003415E-06*T**3+100625*T**(-1);
       903.78  Y  -11738.83+169.485872*T-31.38*T*LN(T)+1.616849E+27*T**(-9);
      2000.00  N !
 FUNCTION GLIQSB    298.15  +19822.328-21.923164*T+GHSERSB-1.74847E-20*T**7;
       903.78  Y  +8175.359+147.455986*T-31.38*T*LN(T);
      2000.00  N !
$ ------------------------------------------------------------------------------
$ Te
$
$ HEXAGONAL_A8 and LIQUID revised in unary 3.0
$
$ RHOMBOHEDRAL_A7 from 89Gho, 14Guo and 18Pet not included in unary
$
 PAR  G(HEXAGONAL_A8,TE),,              +GHSERTE;                1600 N 95Dav !
$PAR  G(RHOMBOHEDRAL_A7,TE),,           +GHSERTE+15*T;           1600 N 89Gho !
$PAR  G(RHOMBOHEDRAL_A7,TE),,           +GHSERTE+5000;           1600 N 14Guo !
 PAR  G(RHOMBOHEDRAL_A7,TE),,           +GHSERTE+4073.34018;     1600 N 18Pet !
 PAR  G(LIQUID,TE),,                    +GLIQTE;                 1600 N 95Dav !
$
 PAR  G(SB2TE3_C33,VA:TE:TE),,          +3*GHSERTE+38.2467*T;,,       N 18Pet !
$
 FUNCTION GHSERTE   298.15  -10544.679+183.372894*T-35.6687*T*LN(T)
       +0.01583435*T**2-5.240417E-06*T**3+155015*T**(-1);
       722.66  Y  +9160.595-129.265373*T+13.004*T*LN(T)
       -0.0362361*T**2+5.006367E-06*T**3-1286810*T**(-1);
      1150.00  Y  -12781.349+174.901226*T-32.5596*T*LN(T);
      1600.00  N !
 FUNCTION GLIQTE    298.15  -17554.731+685.877639*T-126.318*T*LN(T)
       +0.2219435*T**2-9.42075E-05*T**3+827930*T**(-1);
       626.49  Y  -3165763.48+46756.357*T-7196.41*T*LN(T)
       +7.09775*T**2-0.00130692833*T**3+2.58051E+08*T**(-1);
       722.66  Y  +180326.959-1500.57909*T+202.743*T*LN(T)
       -0.142016*T**2+1.6129733E-05*T**3-24238450*T**(-1);
      1150.00  Y  +19110.036-26.1929273*T+GHSERTE;
      1600.00  N !
$ ------------------------------------------------------------------------------
$ Binary system
$
$ M. Peters, unpublished, 2018.
$
$ Checked against author's tdb. Checked at 6000 K.
$
$ A tdb and a pop-file are available in the NIST repository
$ (https://materialsdata.nist.gov/handle/11256/974), but no other documentation.
$
$ No ions or associates are used.
$
$ The phase diagram is very different from that of 14Guo and 89Gho. Delta and
$ gamma are modelled as stoichiometric phases and Sb2Te3 as a solid solution,
$ completely contrary to the other two.
$
$ There is an inverse miscibility gap with a minimum at 1948 K and x(Te)=0.62.
$
 PAR  L(LIQUID,SB,TE;0),,               -38309+22.6068*T;,,           N 18Pet !
 PAR  L(LIQUID,SB,TE;1),,               +20580-15.5185*T;,,           N 18Pet !
 PAR  L(LIQUID,SB,TE;2),,               +17284-16.1013*T;,,           N 18Pet !
 PAR  L(LIQUID,SB,TE;3),,               -18182+20.3338*T;,,           N 18Pet !
$
 PAR  L(RHOMBOHEDRAL_A7,SB,TE;0),,      +2682;,,                      N 18Pet !
$
 PAR  G(SB7TE3,SB:TE),,                 +GSB2TE3+5*GHSERSB
             -11.5556*T;,,                                            N 18Pet !
 PAR  G(SB4TE5,SB:TE),,                 +1.666667*GSB2TE3
             +0.666667*GHSERSB-2.9143*T;,,                            N 18Pet !
$
 PAR  G(SB2TE3_C33,SB:SB:TE),,          +3*GHSERSB+2*GHSERTE+1185;,,  N 18Pet !
 PAR  G(SB2TE3_C33,SB:TE:TE),,          +GSB2TE3;,,                   N 18Pet !
 PAR  G(SB2TE3_C33,VA:SB:TE),,          +GHSERSB+2*GHSERTE
             +1185+38.2467*T;,,                                       N 18Pet !
 PAR  L(SB2TE3_C33,SB,VA:TE:TE;0),,     +64287;,,                     N 18Pet !
 PAR  L(SB2TE3_C33,SB:SB,TE:TE;0),,     -26629;,,                     N 18Pet !
$
 FUNCTION GSB2TE3   298.15  -94087.678+529.10642*T-112.8765*T*LN(T)
       -0.024363247*T**2+1.81228E-06*T**3+64655.547*T**(-1);
      3000.00  N !
$ ------------------------------------------------------------------------------
$
$
 LIST-OF-REFERENCE
 NUMBER  SOURCE
  Null   'Unknown source'
  Same   'Same or similar interaction as in the corresponding stable phase'
  COST   'COST 507 database'
  89Gho  'G. Ghosh, H.L. Lukas, L. Delaey,
          Z. Metallkd., 80, 731-36 (1989); Te'
  91Din  'A.T. Dinsdale, Calphad, 15, 317-425(1991).'
  95Dav  'A.V. Davydov, M.H. Rand, B.B. Argent, Calphad, 19, 375-87(1995),
          SGTE unary database V.3.0, 1996; Te'
  96SGUN 'SGTE unary database V.3.0, 1996.'
  14Guo  'C. Guo, C. Li, Z. Du,
          J. Electron. Mater., 43, 4082-89(2014); Te'
  18Pet  'M. Peters, unpublished, 2018; Te, Sb-Te'
!
