$
$ Database for Cu-Pt from T. Abe et al. 2006.
$
$ T. Abe, B. Sundman, H. Onodera, J. Phase Equilib. Diffus., 27, 5-13(2006).
$
$ Dataset created 2018.02.24 by Bengt Hallstedt.
$ 2020.12.26: Modified for use with GES6.
$
$ To my understanding option F cannot be used for the fcc ordering here since
$ there are two different regular interactions for the ordered state.
$
$ The fcc model generates a stable field for CuPt3, which is apparently not
$ in the experimentally determined phase diagram. This is shown in Fig. 3 in
$ the paper, but not included in the phase diagram in Fig. 1.
$
$ The fcc ordering diagram is strange. There are Cu3Pt and CuPt3, but there
$ is no CuPt-L10.
$
$ The parameters for CuPt-L11 are misprinted in the paper. The parameters here
$ are taken from a tdb file form K. Hashimoto and T. Abe.
$
$ ------------------------------------------------------------------------------
 TEMP-LIM 298.15 6000.00 !
$
$ELEMENT NAME  REF. STATE               ATOMIC MASS H298-H0    S298    !
$
 ELEMENT VA   VACUUM                      0.0          0.0      0.0    ! 
 ELEMENT CU   FCC_A1                     63.546     5004.      33.15   !
 ELEMENT PT   FCC_A1                    195.08      5723.712   41.6308 !
$ ------------------------------------------------------------------------------
$ Phase definitions
$
 PHASE LIQUID:L % 1 1 !
 CONST LIQUID:L : CU PT : !
$
$ Fcc (cF4, Fm-3m) and MeX (cF8, Fm-3m)
$
 PHASE FCC_A1 %A 2 1 1 !
 CONST FCC_A1 : CU PT : VA : !
$
$ Disordered part of FCC_4SL, identical to FCC_A1
$
 PHASE A1_FCC %A 2 1 1 !
 CONST A1_FCC : CU PT : VA : !
$
$ Prototype AuCu (L1_0, tP2, P4/mmm) and AuCu3 (L1_2, cP4, Pm-3m)
$
 PHASE FCC_4SL %AY 5 0.25 0.25 0.25 0.25 1 !
 CONST FCC_4SL : CU% PT : CU PT% : CU PT% : CU PT% : VA :  !
$
$ Bcc (cI2, Im-3m)
$
 PHASE BCC_A2 %B 2 1 3 !
 CONST BCC_A2 : CU PT : VA : !
$
$ Hcp (hP2, P6_3/mmc) and Me2X (NiAs-type, hP4, P6_3/mmc, B8_1)
$
 PHASE HCP_A3 %A 2 1 0.5 !
 CONST HCP_A3 : CU PT : VA : !
$
$ Prototype CuPt (hR2, R-3m, 166)
$
 PHASE CUPT_L11 % 2 0.5 0.5 !
 CONST CUPT_L11 : CU% PT : CU PT% : !
$ ------------------------------------------------------------------------------
$ Defaults
$
 DEFINE-SYSTEM-DEFAULT ELEMENT 2 !
 DEFAULT-COM DEFINE_SYSTEM_ELEMENT VA !
 DEFAULT-COM REJECT_PHASE FCC_A1 !
 TYPE-DEF % SEQ * !
 TYPE-DEF A GES AMEND_PHASE_DESCRIPTION @ MAGNETIC -3 0.28 !
 TYPE-DEF B GES AMEND_PHASE_DESCRIPTION @ MAGNETIC -1 0.4 !
 TYPE-DEF Y GES AMEND_PHASE_DESCRIPTION FCC_4SL DIS_PART A1_FCC !
 FUNCTION ZERO      298.15  0;                                         6000 N !
 FUNCTION UN_ASS    298.15  0;                                         6000 N !
 FUNCTION R         298.15  +8.31451;                                  6000 N !
$ ------------------------------------------------------------------------------
$ Element data
$ ------------------------------------------------------------------------------
$ Cu
$
 PAR  G(FCC_A1,CU:VA),,                 +GHSERCU;                3200 N 91Din !
 PAR  G(A1_FCC,CU:VA),,                 +GHSERCU;                3200 N 91Din !
 PAR  G(BCC_A2,CU:VA),,                 +GHSERCU+4017-1.255*T;   3200 N 91Din !
 PAR  G(HCP_A3,CU:VA),,                 +GHSERCU+600+0.2*T;      3200 N 91Din !
 PAR  G(LIQUID,CU),,                    +GLIQCU;                 3200 N 91Din !
$
 PAR  G(CUPT_L11,CU:CU),,               +GHSERCU+10;,,                N 06Abe !
$
 FUNCTION GHSERCU   298.15  -7770.458+130.485235*T-24.112392*T*LN(T)
       -0.00265684*T**2+1.29223E-07*T**3+52478*T**(-1);
      1357.77  Y  -13542.026+183.803828*T-31.38*T*LN(T)+3.64167E+29*T**(-9);
      3200.00  N !
 FUNCTION GLIQCU    298.15  +12964.735-9.511904*T+GHSERCU-5.8489E-21*T**7;
      1357.77  Y  -46.545+173.881484*T-31.38*T*LN(T);
      3200.00  N !
$ ------------------------------------------------------------------------------
$ Pt
$
 PAR  G(FCC_A1,PT:VA),,                 +GHSERPT;                4000 N 91Din !
 PAR  G(A1_FCC,PT:VA),,                 +GHSERPT;                4000 N 91Din !
 PAR  G(BCC_A2,PT:VA),,                 +GHSERPT+15000-2.4*T;    4000 N 91Din !
 PAR  G(HCP_A3,PT:VA),,                 +GHSERPT+2500+0.1*T;     4000 N 91Din !
 PAR  G(LIQUID,PT),,                    +GLIQPT;                 4000 N 91Din !
$
 PAR  G(CUPT_L11,PT:PT),,               +GHSERPT+10;,,                N 06Abe !
$
 FUNCTION GHSERPT   298.15  -7595.631+124.388275*T-24.5526*T*LN(T)
       -0.00248297*T**2-2.0138E-08*T**3+7974*T**(-1);
      1300.00  Y  -9253.174+161.529615*T-30.2527*T*LN(T)
       +0.002321665*T**2-6.56946E-07*T**3-272106*T**(-1);
      2041.50  Y  -222048.216+1019.35892*T-136.192996*T*LN(T)
       +0.020454938*T**2-7.59259E-07*T**3+71539020*T**(-1);
      4000.00  N !
 FUNCTION GLIQPT    298.15  +20114.016-9.275183*T+GHSERPT;
       600.00  Y  +19023.491+32.94182*T-12.3403769*T*LN(T)
       -0.011551507*T**2+9.31516E-07*T**3-601426*T**(-1);
      2041.50  Y  +1404.468+205.858962*T-36.5*T*LN(T);
      4000.00  N !
 FUNCTION GBCCPT    298.15  +GHSERPT+15000-2.4*T;                      6000 N !
$ ------------------------------------------------------------------------------
$ Binary system
$
$ T. Abe, B. Sundman, H. Onodera, J. Phase Equilib. Diffus., 27, 5-13(2006).
$
$ Checked against paper. Checked at 6000 K.
$
$ To my understanding option F cannot be used for the fcc ordering here since
$ there are two different regular interactions for the ordered state.
$
$ The fcc model generates a stable field for CuPt3, which is apparently not
$ in the experimentally determined phase diagram. This is shown in Fig. 3 in
$ the paper, but not included in the phase diagram in Fig. 1.
$
$ The fcc ordering diagram is strange. There are Cu3Pt and CuPt3, but there
$ is no CuPt-L10.
$
$ The parameters for CuPt-L11 are misprinted in the paper. The parameters here
$ are taken from a tdb file form K. Hashimoto and T. Abe.
$
 PAR  L(LIQUID,CU,PT;0),,               -24900-3.3*T;,,               N 06Abe !
 PAR  L(LIQUID,CU,PT;1),,               -34400+9.1*T;,,               N 06Abe !
 PAR  L(LIQUID,CU,PT;2),,               +14500-12.1*T;,,              N 06Abe !
$
 PAR  L(FCC_A1,CU,PT:VA;0),,            +LD0FCUPT+250900-107.8*T;,,   N 06Abe !
 PAR  L(FCC_A1,CU,PT:VA;1),,            +LD1FCUPT-5200-1.24*T;,,      N 06Abe !
 PAR  L(FCC_A1,CU,PT:VA;2),,            +LD2FCUPT+75070-22.3*T;,,     N 06Abe !
$
 PAR  L(A1_FCC,CU,PT:VA;0),,            +LD0FCUPT+250900-107.8*T;,,   N 06Abe !
 PAR  L(A1_FCC,CU,PT:VA;1),,            +LD1FCUPT-5200-1.24*T;,,      N 06Abe !
 PAR  L(A1_FCC,CU,PT:VA;2),,            +LD2FCUPT+75070-22.3*T;,,     N 06Abe !
$
 PAR  G(FCC_4SL,CU:CU:CU:PT:VA),,       +GFCU3PT;,,                   N 06Abe !
 PAR  G(FCC_4SL,CU:CU:PT:CU:VA),,       +GFCU3PT;,,                   N 06Abe !
 PAR  G(FCC_4SL,CU:PT:CU:CU:VA),,       +GFCU3PT;,,                   N 06Abe !
 PAR  G(FCC_4SL,PT:CU:CU:CU:VA),,       +GFCU3PT;,,                   N 06Abe !
 PAR  G(FCC_4SL,CU:CU:PT:PT:VA),,       +GFCU2PT2;,,                  N 06Abe !
 PAR  G(FCC_4SL,CU:PT:CU:PT:VA),,       +GFCU2PT2;,,                  N 06Abe !
 PAR  G(FCC_4SL,CU:PT:PT:CU:VA),,       +GFCU2PT2;,,                  N 06Abe !
 PAR  G(FCC_4SL,PT:CU:CU:PT:VA),,       +GFCU2PT2;,,                  N 06Abe !
 PAR  G(FCC_4SL,PT:CU:PT:CU:VA),,       +GFCU2PT2;,,                  N 06Abe !
 PAR  G(FCC_4SL,PT:PT:CU:CU:VA),,       +GFCU2PT2;,,                  N 06Abe !
 PAR  G(FCC_4SL,CU:PT:PT:PT:VA),,       +GFCUPT3;,,                   N 06Abe !
 PAR  G(FCC_4SL,PT:CU:PT:PT:VA),,       +GFCUPT3;,,                   N 06Abe !
 PAR  G(FCC_4SL,PT:PT:CU:PT:VA),,       +GFCUPT3;,,                   N 06Abe !
 PAR  G(FCC_4SL,PT:PT:PT:CU:VA),,       +GFCUPT3;,,                   N 06Abe !
 PAR  L(FCC_4SL,CU,PT:CU:CU:CU:VA;0),,  +1.5*L0FCUPT;,,               N 06Abe !
 PAR  L(FCC_4SL,CU:CU,PT:CU:CU:VA;0),,  +1.5*L0FCUPT;,,               N 06Abe !
 PAR  L(FCC_4SL,CU:CU:CU,PT:CU:VA;0),,  +1.5*L0FCUPT;,,               N 06Abe !
 PAR  L(FCC_4SL,CU:CU:CU:CU,PT:VA;0),,  +1.5*L0FCUPT;,,               N 06Abe !
 PAR  L(FCC_4SL,CU,PT:CU:CU:PT:VA;0),,  +1.5*L0FCUPT+1.5*B0FCUPT;,,   N 06Abe !
 PAR  L(FCC_4SL,CU,PT:CU:PT:CU:VA;0),,  +1.5*L0FCUPT+1.5*B0FCUPT;,,   N 06Abe !
 PAR  L(FCC_4SL,CU,PT:PT:CU:CU:VA;0),,  +1.5*L0FCUPT+1.5*B0FCUPT;,,   N 06Abe !
 PAR  L(FCC_4SL,CU:CU,PT:CU:PT:VA;0),,  +1.5*L0FCUPT+1.5*B0FCUPT;,,   N 06Abe !
 PAR  L(FCC_4SL,CU:CU,PT:PT:CU:VA;0),,  +1.5*L0FCUPT+1.5*B0FCUPT;,,   N 06Abe !
 PAR  L(FCC_4SL,PT:CU,PT:CU:CU:VA;0),,  +1.5*L0FCUPT+1.5*B0FCUPT;,,   N 06Abe !
 PAR  L(FCC_4SL,CU:CU:CU,PT:PT:VA;0),,  +1.5*L0FCUPT+1.5*B0FCUPT;,,   N 06Abe !
 PAR  L(FCC_4SL,CU:PT:CU,PT:CU:VA;0),,  +1.5*L0FCUPT+1.5*B0FCUPT;,,   N 06Abe !
 PAR  L(FCC_4SL,PT:CU:CU,PT:CU:VA;0),,  +1.5*L0FCUPT+1.5*B0FCUPT;,,   N 06Abe !
 PAR  L(FCC_4SL,CU:CU:PT:CU,PT:VA;0),,  +1.5*L0FCUPT+1.5*B0FCUPT;,,   N 06Abe !
 PAR  L(FCC_4SL,CU:PT:CU:CU,PT:VA;0),,  +1.5*L0FCUPT+1.5*B0FCUPT;,,   N 06Abe !
 PAR  L(FCC_4SL,PT:CU:CU:CU,PT:VA;0),,  +1.5*L0FCUPT+1.5*B0FCUPT;,,   N 06Abe !
 PAR  L(FCC_4SL,CU,PT:CU:PT:PT:VA;0),,  +1.5*L0FCUPT+1.5*B0FCUPT;,,   N 06Abe !
 PAR  L(FCC_4SL,CU,PT:PT:CU:PT:VA;0),,  +1.5*L0FCUPT+1.5*B0FCUPT;,,   N 06Abe !
 PAR  L(FCC_4SL,CU,PT:PT:PT:CU:VA;0),,  +1.5*L0FCUPT+1.5*B0FCUPT;,,   N 06Abe !
 PAR  L(FCC_4SL,CU:CU,PT:PT:PT:VA;0),,  +1.5*L0FCUPT+1.5*B0FCUPT;,,   N 06Abe !
 PAR  L(FCC_4SL,PT:CU,PT:CU:PT:VA;0),,  +1.5*L0FCUPT+1.5*B0FCUPT;,,   N 06Abe !
 PAR  L(FCC_4SL,PT:CU,PT:PT:CU:VA;0),,  +1.5*L0FCUPT+1.5*B0FCUPT;,,   N 06Abe !
 PAR  L(FCC_4SL,CU:PT:CU,PT:PT:VA;0),,  +1.5*L0FCUPT+1.5*B0FCUPT;,,   N 06Abe !
 PAR  L(FCC_4SL,PT:CU:CU,PT:PT:VA;0),,  +1.5*L0FCUPT+1.5*B0FCUPT;,,   N 06Abe !
 PAR  L(FCC_4SL,PT:PT:CU,PT:CU:VA;0),,  +1.5*L0FCUPT+1.5*B0FCUPT;,,   N 06Abe !
 PAR  L(FCC_4SL,CU:PT:PT:CU,PT:VA;0),,  +1.5*L0FCUPT+1.5*B0FCUPT;,,   N 06Abe !
 PAR  L(FCC_4SL,PT:CU:PT:CU,PT:VA;0),,  +1.5*L0FCUPT+1.5*B0FCUPT;,,   N 06Abe !
 PAR  L(FCC_4SL,PT:PT:CU:CU,PT:VA;0),,  +1.5*L0FCUPT+1.5*B0FCUPT;,,   N 06Abe !
 PAR  L(FCC_4SL,CU,PT:PT:PT:PT:VA;0),,  +1.5*L0FCUPT;,,               N 06Abe !
 PAR  L(FCC_4SL,PT:CU,PT:PT:PT:VA;0),,  +1.5*L0FCUPT;,,               N 06Abe !
 PAR  L(FCC_4SL,PT:PT:CU,PT:PT:VA;0),,  +1.5*L0FCUPT;,,               N 06Abe !
 PAR  L(FCC_4SL,PT:PT:PT:CU,PT:VA;0),,  +1.5*L0FCUPT;,,               N 06Abe !
 PAR  L(FCC_4SL,CU,PT:CU,PT:*:*:VA;0),, +SFCUPT;,,                    N 06Abe !
 PAR  L(FCC_4SL,CU,PT:*:CU,PT:*:VA;0),, +SFCUPT;,,                    N 06Abe !
 PAR  L(FCC_4SL,CU,PT:*:*:CU,PT:VA;0),, +SFCUPT;,,                    N 06Abe !
 PAR  L(FCC_4SL,*:CU,PT:CU,PT:*:VA;0),, +SFCUPT;,,                    N 06Abe !
 PAR  L(FCC_4SL,*:CU,PT:*:CU,PT:VA;0),, +SFCUPT;,,                    N 06Abe !
 PAR  L(FCC_4SL,*:*:CU,PT:CU,PT:VA;0),, +SFCUPT;,,                    N 06Abe !
$
 PAR  G(CUPT_L11,CU:PT),,               +0.5*GHSERCU+0.5*GHSERPT
             -15840+1.06*T;,,                                         N 06Abe !
 PAR  G(CUPT_L11,PT:CU),,               +0.5*GHSERCU+0.5*GHSERPT
             -15840+1.06*T;,,                                         N 06Abe !
 PAR  L(CUPT_L11,CU,PT:CU;0),,          -6120+0.1*T;,,                N 06Abe !
 PAR  L(CUPT_L11,CU:CU,PT;0),,          -6120+0.1*T;,,                N 06Abe !
 PAR  L(CUPT_L11,CU,PT:PT;0),,          +560+0.1*T;,,                 N 06Abe !
 PAR  L(CUPT_L11,PT:CU,PT;0),,          +560+0.1*T;,,                 N 06Abe !
 PAR  L(CUPT_L11,CU,PT:CU;1),,          -1490+0.95*T;,,               N 06Abe !
 PAR  L(CUPT_L11,CU:CU,PT;1),,          -1490+0.95*T;,,               N 06Abe !
 PAR  L(CUPT_L11,CU,PT:PT;1),,          -1490+0.95*T;,,               N 06Abe !
 PAR  L(CUPT_L11,PT:CU,PT;1),,          -1490+0.95*T;,,               N 06Abe !
 PAR  L(CUPT_L11,CU,PT:CU,PT;0),,       -25440+18.6*T;,,              N 06Abe !
$
$ Metastable
$
 PAR  L(BCC_A2,CU,PT:VA;0),,            +LD0FCUPT+250900-107.8*T;,,   N Same !
 PAR  L(BCC_A2,CU,PT:VA;1),,            +LD1FCUPT-5200-1.24*T;,,      N Same !
 PAR  L(BCC_A2,CU,PT:VA;2),,            +LD2FCUPT+75070-22.3*T;,,     N Same !
$
 PAR  L(HCP_A3,CU,PT:VA;0),,            +LD0FCUPT+250900-107.8*T;,,   N Same !
 PAR  L(HCP_A3,CU,PT:VA;1),,            +LD1FCUPT-5200-1.24*T;,,      N Same !
 PAR  L(HCP_A3,CU,PT:VA;2),,            +LD2FCUPT+75070-22.3*T;,,     N Same !
$
 FUNCTION UFCUPT    298.15  -18090+6.9*T;                              6000 N !
 FUNCTION L0FCUPT   298.15  -20400+7.53*T;                             6000 N !
 FUNCTION B0FCUPT   298.15  +12740;                                    6000 N !
 FUNCTION GFCU3PT   298.15  +3*UFCUPT-6810;                            6000 N !
 FUNCTION GFCU2PT2  298.15  +4*UFCUPT;                                 6000 N !
 FUNCTION GFCUPT3   298.15  +3*UFCUPT-4860;                            6000 N !
 FUNCTION SFCUPT    298.15  +UFCUPT+17300-16*T;                        6000 N !
 FUNCTION LD0FCUPT  298.15  +GFCU3PT+1.5*GFCU2PT2+GFCUPT3+1.5*SFCUPT
       +6*L0FCUPT+4.5*B0FCUPT;
      6000.00  N !
 FUNCTION LD1FCUPT  298.15  +2*GFCU3PT-2*GFCUPT3;                      6000 N !
 FUNCTION LD2FCUPT  298.15  +GFCU3PT-1.5*GFCU2PT2+GFCUPT3-1.5*SFCUPT
       -4.5*B0FCUPT;
      6000.00  N !
$ ------------------------------------------------------------------------------
$
$
 LIST-OF-REFERENCE
 NUMBER  SOURCE
  Null   'Unknown source'
  Same   'Same or similar interaction as in the corresponding stable phase'
  COST   'COST 507 database'
  91Din  'A.T. Dinsdale, Calphad, 15, 317-425(1991).'
  06Abe  'T. Abe, B. Sundman, H. Onodera,
          J. Phase Equilib. Diffus., 27, 5-13(2006); Cu-Pt'
!
