$
$ Database for Co-Er from C.P. Wang et al. 2009
$
$ C.P. Wang, A.Q. Zheng, X.J. Liu, K. Ishida,
$ J. Alloys Compd., 478, 197-201(2009).
$
$ Dataset created 2016.10.09 by Bengt Hallstedt.
$ 2020.12.25: Modified for use with GES6.
$
$ There is an inverse miscibility gap with a minimum at 3532 K and x(Er)=0.81.
$
$ ------------------------------------------------------------------------------
 TEMP-LIM 298.15 6000.00 !
$
$ELEMENT NAME  REF. STATE               ATOMIC MASS H298-H0    S298    !
$
 ELEMENT VA   VACUUM                      0.0          0.0      0.0    ! 
 ELEMENT CO   HCP_A3                     58.9332    4765.567   30.0400 ! 
 ELEMENT ER   HCP_A3                    167.26      7392.2912  73.17816! 
$ ------------------------------------------------------------------------------
$ Phase definitions
$
 PHASE LIQUID:L % 1 1 !
 CONST LIQUID:L : CO ER : !
$
$ Fcc (cF4, Fm-3m) and MeX (cF8, Fm-3m)
$
 PHASE FCC_A1 %A 2 1 1 !
 CONST FCC_A1 : CO% ER : VA : !
$
$ Bcc (cI2, Im-3m)
$
 PHASE BCC_A2 %B 2 1 3 !
 CONST BCC_A2 : CO ER : VA : !
$
$ Hcp (hP2, P6_3/mmc) and Me2X (NiAs-type, hP4, P6_3/mmc, B8_1)
$
 PHASE HCP_A3 %A 2 1 0.5 !
 CONST HCP_A3 : CO% ER% : VA : !
$
$ Prototype Ni17Th2 (hP38, P6_3/mmc)
$
 PHASE CO17ER2 %A 2 17 2 !
 CONST CO17ER2 : CO : ER : !
$
$ Prototype CaCu5 (hP6, P6/mmm)
$
 PHASE CO5ER_D2D %A 2 5 1 !
 CONST CO5ER_D2D : CO : ER : !
$
$ Prototype Co7Gd2 (hR18, R-3m)
$
 PHASE CO7ER2 %A 2 7 2 !
 CONST CO7ER2 : CO : ER : !
$
$ Prototype Ni3Pu (hR12, R-3m)
$
 PHASE CO3ER %A 2 3 1 !
 CONST CO3ER : CO : ER : !
$
$ Prototype Cu2Mg (cF24, Fd-3m)
$
 PHASE CO2ER_C15 %A 2 2 1 !
 CONST CO2ER_C15 : CO : ER : !
$
$ Prototype Co7Ho12 (mP38, P2_1/c)
$
 PHASE CO7ER12 %A 2 7 12 !
 CONST CO7ER12 : CO : ER : !
$
$ Prototype Fe3C (oP16, Pnma)
$
 PHASE COER3_D011 %A 2 1 3 !
 CONST COER3_D011 : CO : ER : !
$ ------------------------------------------------------------------------------
$ Defaults
$
 DEFINE-SYSTEM-DEFAULT ELEMENT 2 !
 DEFAULT-COM DEFINE_SYSTEM_ELEMENT VA !
 TYPE-DEF % SEQ * !
 TYPE-DEF A GES AMEND_PHASE_DESCRIPTION @ MAGNETIC -3 0.28 !
 TYPE-DEF B GES AMEND_PHASE_DESCRIPTION @ MAGNETIC -1 0.4 !
 FUNCTION ZERO      298.15  0;                                         6000 N !
 FUNCTION UN_ASS    298.15  0;                                         6000 N !
 FUNCTION R         298.15  +8.31451;                                  6000 N !
$ ------------------------------------------------------------------------------
$ Element data
$ ------------------------------------------------------------------------------
$ Co
$
 PAR  G(HCP_A3,CO:VA),,                 +GHSERCO;,,                   N 91Din !
 PAR  TC(HCP_A3,CO:VA),,                 1396.00;,,                   N 91Din !
 PAR  BM(HCP_A3,CO:VA),,                    1.35;,,                   N 91Din !
 PAR  G(FCC_A1,CO:VA),,                 +GHSERCO
             +427.591-0.615248*T;,,                                   N 91Din !
 PAR  TC(FCC_A1,CO:VA),,                 1396.00;,,                   N 91Din !
 PAR  BM(FCC_A1,CO:VA),,                    1.35;,,                   N 91Din !
 PAR  G(BCC_A2,CO:VA),,                 +GHSERCO+2938-0.7138*T;,,     N 91Din !
 PAR  TC(BCC_A2,CO:VA),,                 1450.00;,,                   N 91Din !
 PAR  BM(BCC_A2,CO:VA),,                    1.35;,,                   N 91Din !
$PAR  G(CBCC_A12,CO:VA),,               +GHSERCO+4155;,,              N 91Din !
$PAR  G(CUB_A13,CO:VA),,                +GHSERCO+3155;,,              N 91Din !
 PAR  G(LIQUID,CO),,                    +GLIQCO;,,                    N 91Din !
$
 FUNCTION GHSERCO   298.15  +310.241+133.36601*T-25.0861*T*LN(T)
       -0.002654739*T**2-1.7348E-07*T**3+72527*T**(-1);
      1768.00  Y  -17197.666+253.28374*T-40.5*T*LN(T)+9.3488E+30*T**(-9);
      6000.00  N !
 FUNCTION GLIQCO    298.15  +15085.037-8.931932*T+GHSERCO-2.19801E-21*T**7;
      1768.00  Y  -846.61+243.599944*T-40.5*T*LN(T);
      6000.00  N !
$ ------------------------------------------------------------------------------
$ Er
$
$ BCC_A2 added in unary 4.4
$
$ FCC_A1 from 02Cac not included in unary (but it should be)
$
 PAR  G(HCP_A3,ER:VA),,                 +GHSERER;                3200 N 91Din !
 PAR  G(FCC_A1,ER:VA),,                 +GHSERER
             +1950-0.831451*T;                                   3200 N 02Cac !
 PAR  G(BCC_A2,ER:VA),,                 +GHSERER
             +4600-2.494353*T;                                   3200 N 00Nor1 !
 PAR  G(LIQUID,ER),,                    +GLIQER;                 3200 N 91Din !
$
 FUNCTION GHSERER   298.15  -8489.136+116.698964*T-28.3846744*T*LN(T)
       +9.95792E-04*T**2-9.52557E-07*T**3+9581*T**(-1);
      1802.00  Y  -445688.206+2233.10212*T-298.135131*T*LN(T)
       +0.065950553*T**2-3.041405E-06*T**3+1.23973199E+08*T**(-1);
      3200.00  N !
 FUNCTION GLIQER    298.15  +19382.102-10.241846*T+GHSERER;
       500.00  Y  +17912.678+0.355564*T-12.0761776*T*LN(T)
       -0.014414687*T**2+1.316517E-06*T**3-528122*T**(-1);
      1802.00  Y  +747.131+187.623024*T-38.702*T*LN(T);
      3200.00  N !
$ ------------------------------------------------------------------------------
$ Binary system
$
$ C.P. Wang, A.Q. Zheng, X.J. Liu, K. Ishida,
$ J. Alloys Compd., 478, 197-201(2009).
$
$ Checked against paper. Checked at 6000 K.
$
$ There is an inverse miscibility gap with a minimum at 3532 K and x(Er)=0.81.
$
 PAR  L(LIQUID,CO,ER;0),,               -103916+29.404*T;,,           N 09Wan !
 PAR  L(LIQUID,CO,ER;1),,               +10100-15.57*T;,,             N 09Wan !
 PAR  L(LIQUID,CO,ER;2),,               -11500+5.84*T;,,              N 09Wan !
$
 PAR  L(HCP_A3,CO,ER:VA;0),,            +20000;,,                     N 09Wan !
 PAR  L(FCC_A1,CO,ER:VA;0),,            +28000;,,                     N 09Wan !
$
 PAR  G(CO17ER2,CO:ER),,                +17*GHSERCO+2*GHSERER
             -251095+29.91*T;,,                                       N 09Wan !
 PAR  TC(CO17ER2,CO:ER),,                1184.00;,,                   N 09Wan !
 PAR  BM(CO17ER2,CO:ER),,                  10.00;,,                   N 09Wan !
$
 PAR  G(CO5ER_D2D,CO:ER),,              +5*GHSERCO+GHSERER
             -99101+7.53*T;,,                                         N 09Wan !
 PAR  TC(CO5ER_D2D,CO:ER),,              1053.00;,,                   N 09Wan !
 PAR  BM(CO5ER_D2D,CO:ER),,                 1.28;,,                   N 09Wan !
$
 PAR  G(CO7ER2,CO:ER),,                 +7*GHSERCO+2*GHSERER
            -193942+20.854*T;,,                                       N 09Wan !
 PAR  TC(CO7ER2,CO:ER),,                  646.00;,,                   N 09Wan !
 PAR  BM(CO7ER2,CO:ER),,                    7.50;,,                   N 09Wan !
$
 PAR  G(CO3ER,CO:ER),,                  +3*GHSERCO+GHSERER
             -90885+8.36*T;,,                                         N 09Wan !
 PAR  TC(CO3ER,CO:ER),,                   395.00;,,                   N 09Wan !
 PAR  BM(CO3ER,CO:ER),,                     4.20;,,                   N 09Wan !
$
 PAR  G(CO2ER_C15,CO:ER),,              +2*GHSERCO+GHSERER
             -65972+1.63*T;,,                                         N 09Wan !
 PAR  TC(CO2ER_C15,CO:ER),,                38.30;,,                   N 09Wan !
 PAR  BM(CO2ER_C15,CO:ER),,                 6.02;,,                   N 09Wan !
$
 PAR  G(CO7ER12,CO:ER),,                +7*GHSERCO+12*GHSERER
             -296500+4.5*T;,,                                         N 09Wan !
 PAR  TC(CO7ER12,CO:ER),,                  25.00;,,                   N 09Wan !
 PAR  BM(CO7ER12,CO:ER),,                   5.80;,,                   N 09Wan !
$
 PAR  G(COER3_D011,CO:ER),,             +GHSERCO+3*GHSERER
             -41807+1.231*T-0.7*T*LN(T);,,                            N 09Wan !
 PAR  TC(COER3_D011,CO:ER),,                7.00;,,                   N 09Wan !
 PAR  BM(COER3_D011,CO:ER),,                6.90;,,                   N 09Wan !
$
$ Metastable
$
 PAR  L(BCC_A2,CO,ER:VA;0),,            +28000;,,                     N Same !
$ ------------------------------------------------------------------------------
$
$
 LIST-OF-REFERENCE
 NUMBER  SOURCE
  Null   'Unknown source'
  Same   'Same or similar interaction as in the corresponding stable phase'
  REFLAV 'Laves phase convention: G(LAVES,X:X)=+3*GHSERXX+15000'
  91Din  'A.T. Dinsdale, Calphad, 15, 317-425(1991).'
  00Nor1 'S. Norgren, J. Phase Equilib., 21, 148-56(2000),
          SGTE unary database V.4.4, 2001; Er, Ho'
  02Cac  'G. Cacciamani, A. Saccone, S. De Negri, R. Ferro,
          J. Phase Equilib., 23, 38-50(2002); Er, Al-Er'
  09Wan  'C.P. Wang, A.Q. Zheng, X.J. Liu, K. Ishida,
          J. Alloys Compd., 478, 197-201(2009); Co-Er'
!
