$
$ Database for Pd-Yb from S. Kardellass et al. 2020.
$
$ S. Kardellass, C. Servant, I. Drouelle, F.Z. Chrifi-Alaoui, M. Idbenali,
$ A. Abahazem, A. Hidoussi, A. Bendarma, N. Selhaoui,
$ Mater. Today Proc., 24, 140-50(2020).
$
$ Dataset created 2024.04.05 by Bengt Hallstedt.
$
$ In the paper there is also a version using the Kaptay model. All parameters
$ are different, not only the liquid interaction.
$
$ The Pd3Yb phase is much too stable with the parameters in the paper. The
$ interaction was adjusted to give something reasonable.
$
$ There are several inaccuracies in the parameter table. Several invariant
$ equilibria are inaccurately reproduced.
$
$ ------------------------------------------------------------------------------
 TEMP-LIM 298.15 6000.00 !
$
$ELEMENT NAME  REF. STATE               ATOMIC MASS H298-H0    S298    !
$
 ELEMENT VA   VACUUM                      0.0          0.0      0.0    ! 
 ELEMENT PD   FCC_A1                    106.42      5468.488   37.8234 ! 
 ELEMENT YB   FCC_A1                    173.04      6711.136   59.8312 ! 
$ ------------------------------------------------------------------------------
$ Phase definitions
$
 PHASE LIQUID:L % 1 1 !
 CONST LIQUID:L : PD YB : !
$
$ Fcc (cF4, Fm-3m) and MeX (cF8, Fm-3m)
$
 PHASE FCC_A1 %A 2 1 1 !
 CONST FCC_A1 : PD% YB% : VA : !
$
$ Bcc (cI2, Im-3m)
$
 PHASE BCC_A2 %B 2 1 3 !
 CONST BCC_A2 : PD YB% : VA : !
$
$ Hcp (hP2, P6_3/mmc) and Me2X (NiAs-type, hP4, P6_3/mmc, B8_1)
$
 PHASE HCP_A3 %A 2 1 0.5 !
 CONST HCP_A3 : PD YB : VA : !
$
$ unknown structure
$
 PHASE PD7YB % 2 7 1 !
 CONST PD7YB : PD : YB : !
$
$ Prototype AuCu3 (cP4, Pm-3m)
$
 PHASE PD3YB_L12 % 2 3 1 !
 CONST PD3YB_L12 : PD : PD YB% : !
$
$ Prototype Pd21Sm10 (mC124, C2/m, 12)
$
 PHASE PD21YB10_LT % 2 21 10 !
 CONST PD21YB10_LT : PD : YB : !
$
$ unknown structure
$
 PHASE PD21YB10_HT % 2 21 10 !
 CONST PD21YB10_HT : PD : YB : !
$
$ Unknown structure
$
 PHASE PD2YB % 2 2 1 !
 CONST PD2YB : PD : YB : !
$
$ Prototype Pd5Pu3 (oC32, Cmcm)
$
 PHASE PD5YB3_LT % 2 5 3 !
 CONST PD5YB3_LT : PD% YB : YB : !
$
$ unknown structure
$
 PHASE PD5YB3_HT % 2 5 3 !
 CONST PD5YB3_HT : PD% YB : YB : !
$
$ Prototype Pd4Pu3 (hR14, R-3)
$
 PHASE PD4YB3 % 2 4 3 !
 CONST PD4YB3 : PD : YB : !
$
$ Prototype FeB (oP8, Pnma), low T
$
 PHASE PDYB_B27 % 2 1 1 !
 CONST PDYB_B27 : PD : PD YB% : !
$
$ Prototype CsCl (cP2, Pm-3m), high T
$
 PHASE PDYB_B2 % 2 1 1 !
 CONST PDYB_B2 : PD : PD YB% : !
$
$ Prototype Mn5C2 (mC28, C2/c)
$
 PHASE PD2YB5_LT % 2 2 5 !
 CONST PD2YB5_LT : PD : YB : !
$
$ unknown structure
$
 PHASE PD2YB5_HT % 2 2 5 !
 CONST PD2YB5_HT : PD : YB : !
$
$ Prototype Fe3C (oP16, Pnma)
$
 PHASE PDYB3_D011 % 2 1 3 !
 CONST PDYB3_D011 : PD : YB : !
$ ------------------------------------------------------------------------------
$ Defaults
$
 DEFINE-SYSTEM-DEFAULT ELEMENT 2 !
 DEFAULT-COM DEFINE_SYSTEM_ELEMENT VA !
 TYPE-DEF % SEQ * !
 TYPE-DEF A GES AMEND_PHASE_DESCRIPTION @ MAGNETIC -3 0.28 !
 TYPE-DEF B GES AMEND_PHASE_DESCRIPTION @ MAGNETIC -1 0.4 !
 FUNCTION ZERO      298.15  0;                                         6000 N !
 FUNCTION UN_ASS    298.15  0;                                         6000 N !
 FUNCTION R         298.15  +8.31451;                                  6000 N !
$ ------------------------------------------------------------------------------
$ Element data
$ ------------------------------------------------------------------------------
$ Pd
$
$ RHOMBOHEDRAL_A7 added in unary 5.0
$
 PAR  G(FCC_A1,PD:VA),,                 +GHSERPD;                4000 N 91Din !
 PAR  G(BCC_A2,PD:VA),,                 +GHSERPD+10500-1.8*T;    4000 N 91Din !
 PAR  G(HCP_A3,PD:VA),,                 +GHSERPD+2000+0.1*T;     4000 N 91Din !
$PAR  G(RHOMBOHEDRAL_A7,PD),,           +GHSERPD+4000;           4000 N 06Vre !
 PAR  G(LIQUID,PD),,                    +GLIQPD;                 4000 N 91Din !
$
 PAR  G(PD3YB_L12,PD:PD),,              +4*GHSERPD+10404.02;,,        N 20Kar !
 PAR  G(PDYB_B27,PD:PD),,               +2*GHSERPD+366509.714;,,      N 20Kar !
 PAR  G(PDYB_B2,PD:PD),,                +2*GHSERPD
             +258993.284-9.978*T;,,                                   N 20Kar !
$
 FUNCTION GHSERPD   298.15  -10204.027+176.076315*T-32.211*T*LN(T)
       +0.007120975*T**2-1.919875E-06*T**3+168687*T**(-1);
       900.00  Y  +917.062+49.659892*T-13.5708*T*LN(T)
       -0.00717522*T**2+1.91115E-07*T**3-1112465*T**(-1);
      1828.00  Y  -67161.018+370.102147*T-54.2067086*T*LN(T)
       +0.002091396*T**2-6.2811E-08*T**3+18683526*T**(-1);
      4000.00  N !
 FUNCTION GLIQPD    298.15  +11506.758-5.112162*T+GHSERPD;
       600.00  Y  +23405.778-116.918419*T+10.8922031*T*LN(T)
       -0.027266568*T**2+2.430675E-06*T**3-1853674*T**(-1);
      1828.00  Y  -12373.637+251.416903*T-41.17*T*LN(T);
      4000.00  N !
$ ------------------------------------------------------------------------------
$ Yb
$
$ HCP_A3 added in unary 5.0
$
 PAR  G(FCC_A1,YB:VA),,                 +GHSERYB;                2000 N 91Din !
 PAR  G(BCC_A2,YB:VA),,                 +GBCCYB;                 2000 N 91Din !
 PAR  G(HCP_A3,YB:VA),,                 +GHSERYB+5000;           2000 N 06Guo !
 PAR  G(LIQUID,YB),,                    +GLIQYB;                 2000 N 91Din !
$
 PAR  G(PD5YB3_LT,YB:YB),,              +8*GHSERYB
             +1317156.568-16.352*T;,,                                 N 20Kar !
 PAR  G(PD5YB3_HT,YB:YB),,              +8*GHSERYB
             +1078601.816-24.04*T;,,                                  N 20Kar !
$
 FUNCTION GHSERYB   298.15  -9370.941+189.327664*T-40.0791*T*LN(T)
       +0.04227115*T**2-2.2242E-05*T**3;
       553.00  Y  -8192.154+121.065655*T-26.7591*T*LN(T)-0.00256065*T**2;
      1033.00  Y  +16034.89-89.478241*T+2.7623966*T*LN(T)
       -0.017961331*T**2+1.421719E-06*T**3-3631462*T**(-1);
      2000.00  N !
 FUNCTION GBCCYB    298.15  -965.99-21.293677*T-3.8534432*T*LN(T)
       -0.030009694*T**2+4.743871E-06*T**3-334650*T**(-1);
      1033.00  Y  -13368.113+188.313864*T-36.1079*T*LN(T);
      1097.00  Y  -3911.847+113.174165*T-25.7402233*T*LN(T)
       -0.004743348*T**2+3.63044E-07*T**3-1553668*T**(-1);
      2000.00  N !
 FUNCTION GLIQYB    298.15  +7030.788-40.615571*T-1.8061816*T*LN(T)
       -0.03250938*T**2+5.136665E-06*T**3-370554*T**(-1);
      1033.00  Y  -6445.835+186.690398*T-36.7774*T*LN(T);
      2000.00  N !
 FUNCTION GHCPYB    298.15  +GHSERYB+5000;                             2000 N !
$ ------------------------------------------------------------------------------
$ Binary system
$
$ S. Kardellass, C. Servant, I. Drouelle, F.Z. Chrifi-Alaoui, M. Idbenali,
$ A. Abahazem, A. Hidoussi, A. Bendarma, N. Selhaoui,
$ Mater. Today Proc., 24, 140-50(2020).
$
$ Checked against paper. Checked at 6000 K.
$
$ In the paper there is also a version using the Kaptay model. All parameters
$ are different, not only the liquid interaction.
$
$ The Pd3Yb phase is much too stable with the parameters in the paper. The
$ interaction was adjusted to give something reasonable.
$
$ There are several inaccuracies in the parameter table. Several invariant
$ equilibria are inaccurately reproduced.
$
 PAR  L(LIQUID,PD,YB;0),,               -269657.509+7.929*T;,,        N 20Kar !
 PAR  L(LIQUID,PD,YB;1),,               -92217.234+16.714*T;,,        N 20Kar !
 PAR  L(LIQUID,PD,YB;2),,               +46141.615-21.085*T;,,        N 20Kar !
$
 PAR  L(FCC_A1,PD,YB:VA;0),,            -228337.332-1.315*T;,,        N 20Kar !
 PAR  L(FCC_A1,PD,YB:VA;1),,            -95731.401+8.478*T;,,         N 20Kar !
$
 PAR  L(BCC_A2,PD,YB:VA;0),,            +5010;,,                      N 20Kar !
$
 PAR  G(PD7YB,PD:YB),,                  +7*GHSERPD+GHSERYB
             -321435.92+60.144*T;,,                                   N 20Kar !
$
 PAR  G(PD3YB_L12,PD:YB),,              +3*GHSERPD+GHSERYB
             -242870.08-9.344*T;,,                                    N 20Kar !
$PAR  L(PD3YB_L12,PD:PD,YB;0),,         -628347.624;,,                N 20Kar !
$ Corrected interaction below
 PAR  L(PD3YB_L12,PD:PD,YB;0),,         -30000;,,                     N 20Kar !
$
 PAR  G(PD21YB10_LT,PD:YB),,            +21*GHSERPD+10*GHSERYB
             -2214766.79+27.745*T;,,                                  N 20Kar !
 PAR  G(PD21YB10_HT,PD:YB),,            +21*GHSERPD+10*GHSERYB
             -2209801.21+24.397*T;,,                                  N 20Kar !
$PAR  G(PD2YB,PD:YB),,                  +2*GHSERPD+GHSERYB
$            -216143.667+2.418*T;,,                                   N 20Kar !
$ Adjusted value below
 PAR  G(PD2YB,PD:YB),,                  +2*GHSERPD+GHSERYB
             -216053+2.418*T;,,                                       N 20Kar !
$
 PAR  G(PD5YB3_LT,PD:YB),,              +5*GHSERPD+3*GHSERYB
             -595358.888+5.2*T;,,                                     N 20Kar !
 PAR  L(PD5YB3_LT,PD,YB:YB;0),,         -1759803.768;,,               N 20Kar !
$
 PAR  G(PD5YB3_HT,PD:YB),,              +5*GHSERPD+3*GHSERYB
             -582157.576-4.168*T;,,                                   N 20Kar !
 PAR  L(PD5YB3_HT,PD,YB:YB;0),,         -1629951.616;,,               N 20Kar !
$
 PAR  G(PD4YB3,PD:YB),,                 +4*GHSERPD+3*GHSERYB
             -540602.286+4.55*T;,,                                    N 20Kar !
$
 PAR  G(PDYB_B27,PD:YB),,               +GHSERPD+GHSERYB
             -161664.534+5.12742*T;,,                                 N 20Kar !
 PAR  L(PDYB_B27,PD:PD,YB;0),,          -438756.466;,,                N 20Kar !
$
 PAR  G(PDYB_B2,PD:YB),,                +GHSERPD+GHSERYB
             -161663.926+5.12706*T;,,                                 N 20Kar !
 PAR  L(PDYB_B2,PD:PD,YB;0),,           -314173.812;,,                N 20Kar !
$
 PAR  G(PD2YB5_LT,PD:YB),,              +2*GHSERPD+5*GHSERYB
             -337750.322+0.3507*T;,,                                  N 20Kar !
 PAR  G(PD2YB5_HT,PD:YB),,              +2*GHSERPD+5*GHSERYB
             -397061.021+62.013*T;,,                                  N 20Kar !
 PAR  G(PDYB3_D011,PD:YB),,             +GHSERPD+3*GHSERYB
             -210872.796+43.372*T;,,                                  N 20Kar !
$
$ Metastable
$
 PAR  L(HCP_A3,PD,YB:VA;0),,            -228337.332-1.315*T;,,        N Same !
 PAR  L(HCP_A3,PD,YB:VA;1),,            -95731.401+8.478*T;,,         N Same !
$ ------------------------------------------------------------------------------
$
$
 LIST-OF-REFERENCE
 NUMBER  SOURCE
  Null   'Unknown source'
  Same   'Same or similar interaction as in the corresponding stable phase'
  COST   'COST 507 database'
  91Din  'A.T. Dinsdale, Calphad, 15, 317-425(1991).'
  06Guo  'C. Guo, Z. Du, J. Alloys Compd., 422, 102-8(2006),
          SGTE unary database V.5.0, 2009; Yb'
  06Vre  'J. Vrestal, J. Pinkas, A. Watson, A. Scott, J. Houserova, A. Kroupa,
          Calphad, 30, 14-17(2006), SGTE unary database V.5.0, 2009; Pd'
  20Kar  'S. Kardellass, C. Servant, I. Drouelle, F.Z. Chrifi-Alaoui,
          M. Idbenali, A. Abahazem, A. Hidoussi, A. Bendarma, N. Selhaoui,
          Mater. Today Proc., 24, 140-50(2020); Pd-Yb'
!
