$
$ Database for Ag-Sm from J. Zhou et al. 2020.
$
$ J. Zhou, B. Hu, Y. Jiang, C. Qiu, Y. Du, H. Yin,
$ J. Phase Equilib. Diffus., 41, 257-68(2020).
$
$ Dataset created 2021.03.05 by Bengt Hallstedt.
$
$ The parameter table contains several misprints. Several parameters had to
$ to be readjusted to reproduce the phase diagram.
$
$ The table of invariants indicates that Ag solubility in epsilon (bcc),
$ delta (fcc), gamma and beta Pu has been included, but there are no
$ parameters in the paper.
$
$ Considering the asymmetry of the liquid interaction, an associate
$ model is probably needed for this system.
$
$ The L + Ag2Pu + bcc equilibrium is 22 K too low. This is because bcc-Pu in
$ the paper has a higher Ag solubility than here. This can be fixed by adjusting
$ the bcc interaction (not given in the paper), but not done here. Other
$ equilibria involving the lquid differ by up to 3 K.
$
$ ------------------------------------------------------------------------------
 TEMP-LIM 298.15 6000.00 !
$
$ELEMENT NAME  REF. STATE               ATOMIC MASS H298-H0    S298    !
$
 ELEMENT VA   VACUUM                      0.0          0.0      0.0    ! 
 ELEMENT AG   FCC_A1                    107.8682    5745.      42.55   ! 
 ELEMENT SM   RHOMB_C19                 150.36      7573.04    69.4962 ! 
$ ------------------------------------------------------------------------------
$ Phase definitions
$
 PHASE LIQUID:L % 1 1 !
 CONST LIQUID:L : AG SM : !
$
$ Fcc (cF4, Fm-3m) and MeX (cF8, Fm-3m)
$
 PHASE FCC_A1 %A 2 1 1 !
 CONST FCC_A1 : AG : VA : !
$
$ Bcc (cI2, Im-3m)
$
 PHASE BCC_A2 %B 2 1 3 !
 CONST BCC_A2 : AG SM% : VA : !
$
$ Hcp (hP2, P6_3/mmc) and Me2X (NiAs-type, hP4, P6_3/mmc, B8_1)
$
 PHASE HCP_A3 %A 2 1 0.5 !
 CONST HCP_A3 : AG SM% : VA : !
$
$ Prototype alpha-Sm (hR9, R-3m)
$
 PHASE RHOMB_C19 % 1 1 !
 CONST RHOMB_C19 : SM : !
$
$ Prototype Ag51Gd14 (hP68, P6/m)
$
 PHASE AG51SM14 % 2 51 14 !
 CONST AG51SM14 : AG : SM : !
$
$ unknown structure
$
 PHASE AG2SM_ALPHA % 2 2 1 !
 CONST AG2SM_ALPHA : AG : SM : !
$
$ unknown structure
$
 PHASE AG2SM_BETA % 2 2 1 !
 CONST AG2SM_BETA : AG : SM : !
$
$ Prototype CsCl (cP2, Pm-3m)
$
 PHASE AGSM_B2 % 2 1 1 !
 CONST AGSM_B2 : AG : SM : !
$ ------------------------------------------------------------------------------
$ Defaults
$
 DEFINE-SYSTEM-DEFAULT ELEMENT 2 !
 DEFAULT-COM DEFINE_SYSTEM_ELEMENT VA !
 TYPE-DEF % SEQ * !
 TYPE-DEF A GES AMEND_PHASE_DESCRIPTION @ MAGNETIC -3 0.28 !
 TYPE-DEF B GES AMEND_PHASE_DESCRIPTION @ MAGNETIC -1 0.4 !
 FUNCTION ZERO      298.15  0;                                         6000 N !
 FUNCTION UN_ASS    298.15  0;                                         6000 N !
 FUNCTION R         298.15  +8.31451;                                  6000 N !
$ ------------------------------------------------------------------------------
$ Element data
$ ------------------------------------------------------------------------------
$ Ag
$
$ CUB_A13 added in unary 3.0
$ CUB_A13 revised in unary 4.1
$ BCT_A5 added in unary 4.1
$
 PAR  G(FCC_A1,AG:VA),,                 +GHSERAG;                3000 N 91Din !
 PAR  G(HCP_A3,AG:VA),,                 +GHSERAG+300+0.3*T;      3000 N 91Din !
 PAR  G(BCC_A2,AG:VA),,                 +GHSERAG+3400-1.05*T;    3000 N 91Din !
$PAR  G(CUB_A13,AG:VA),,                +GHSERAG+3400-1.05*T;    3000 N 95Lim !
$PAR  G(CUB_A13,AG:VA),,                +GHSERAG
$            +3765.6-1.8826*T;                                   3000 N 96SGUN !
$PAR  G(BCT_A5,AG),,                    +GHSERAG+4184.1;         3000 N 96Oh !
 PAR  G(LIQUID,AG),,                    +GLIQAG;                 3000 N 91Din !
$
 FUNCTION GHSERAG   298.15  -7209.512+118.202013*T-23.8463314*T*LN(T)
       -0.001790585*T**2-3.98587E-07*T**3-12011*T**(-1);
      1234.93  Y  -15095.252+190.266404*T-33.472*T*LN(T)+1.411773E+29*T**(-9);
      3000.00  N !
 FUNCTION GLIQAG    298.15  +11025.076-8.89102*T+GHSERAG-1.033905E-20*T**7;
      1234.93  Y  -3587.111+180.964656*T-33.472*T*LN(T);
      3000.00  N !
$ ------------------------------------------------------------------------------
$ Sm
$
$ HCP_A3 added in unary 4.4
$ HCP_A3 modified in unary 5.0
$
$ FCC_A1 from 00Du (used in SGSOL 5.0; this value is absurd)
$ not included in unary
$ FCC_A1 from 02Zin and 08Zho not included in unary
$ FCC_A1, CBCC_A12, CUB_A13 from 09Wan1 not included in unary
$
 PAR  G(RHOMB_C19,SM),,                 +GHSERSM;                2100 N 91Din !
 PAR  G(BCC_A2,SM:VA),,                 +GBCCSM;                 2100 N 91Din !
$PAR  G(FCC_A1,SM:VA),,                 +GHSERSM+180946;         2100 N 00Du1 !
$PAR  G(FCC_A1,SM:VA),,                 +GHSERSM+5000;           2100 N 98Su1 !
$PAR  G(FCC_A1,SM:VA),,                 +GHSERSM+890;            2100 N 08Zho !
$PAR  G(FCC_A1,SM:VA),,                 +GHSERSM+1000;           2100 N 09Wan1 !
 PAR  G(HCP_A3,SM:VA),,                 +GHSERSM
             +69.977-0.069491*T;                                 2100 N 98Su2 !
$PAR  G(CBCC_A12,SM:VA),,               +GHSERSM+1000;           2100 N 09Wan1 !
$PAR  G(CUB_A13,SM:VA),,                +GHSERSM+5000;           2100 N 09Wan1 !
 PAR  G(LIQUID,SM),,                    +GLIQSM;                 2100 N 91Din !
$
 FUNCTION GHSERSM   298.15  -3872.013-32.10748*T-1.6485*T*LN(T)
       -0.050254*T**2+1.010345E-05*T**3-82168*T**(-1);
       700.00  Y  -50078.215+627.869894*T-102.665*T*LN(T)
       +0.0474522*T**2-7.538383E-06*T**3+3861770*T**(-1);
      1190.00  Y  +289719.819-2744.50976*T+381.41982*T*LN(T)
       -0.254986338*T**2+2.7512152E-05*T**3-40102102*T**(-1);
      1345.00  Y  -23056.079+282.194375*T-50.208*T*LN(T);
      2100.00  N !
 FUNCTION GBCCSM    298.15  -4368.72+55.972523*T-16.9298494*T*LN(T)
       -0.025446016*T**2+3.579527E-06*T**3+94209*T**(-1);
      1190.00  Y  -15957.862+253.121044*T-46.9445*T*LN(T);
      1345.00  Y  +111191.653-624.680805*T+71.6856914*T*LN(T)
       -0.047314968*T**2+3.329865E-06*T**3-24870276*T**(-1);
      2100.00  N !
 FUNCTION GLIQSM    298.15  +3468.783+20.117456*T-11.6968284*T*LN(T)
       -0.032418177*T**2+4.544272E-06*T**3+23528*T**(-1);
      1190.00  Y  -11728.229+273.487076*T-50.208*T*LN(T);
      2100.00  N !
$ ------------------------------------------------------------------------------
$ Binary system
$
$ J. Zhou, B. Hu, Y. Jiang, C. Qiu, Y. Du, H. Yin,
$ J. Phase Equilib. Diffus., 41, 257-68(2020).
$
$ Checked against paper. Checked at 6000 K.
$
$ The parameter table contains several misprints. Several parameters had to
$ to be readjusted to reproduce the phase diagram.
$
$ The table of invariants indicates that Ag solubility in epsilon (bcc),
$ delta (fcc), gamma and beta Pu has been included, but there are no
$ parameters in the paper.
$
$ Considering the asymmetry of the liquid interaction, an associate
$ model is probably needed for this system.
$
$ The L + Ag2Pu + bcc equilibrium is 22 K too low. This is because bcc-Pu in
$ the paper has a higher Ag solubility than here. This can be fixed by adjusting
$ the bcc interaction (not given in the paper), but not done here. Other
$ equilibria involving the lquid differ by up to 3 K.
$
 PAR  L(LIQUID,AG,SM;0),,               -80722-3.179*T;,,             N 20Zho !
 PAR  L(LIQUID,AG,SM;1),,               -33247+2.47*T;,,              N 20Zho !
 PAR  L(LIQUID,AG,SM;2),,               +7544+3.981*T;,,              N 20Zho !
$
 PAR  L(BCC_A2,AG,SM:VA;0),,            +UN_ASS;,,                    N !
 PAR  L(HCP_A3,AG,SM:VA;0),,            +UN_ASS;,,                    N !
$
$PAR  G(AG51SM14,AG:SM),,               +51*GHSERAG+14*GHSERSM
$            -1424995-23.855*T;,,                                     N 20Zho !
 PAR  G(AG51SM14,AG:SM),,               +51*GHSERAG+14*GHSERSM
             -1424995+23.855*T;,,                                     N 20Zho !
 PAR  G(AG2SM_ALPHA,AG:SM),,            +2*GHSERAG+GHSERSM
             -76842+4.413*T;,,                                        N 20Zho !
 PAR  G(AG2SM_BETA,AG:SM),,             +2*GHSERAG+GHSERSM
             -61323-11.637*T;,,                                       N 20Zho !
 PAR  G(AGSM_B2,AG:SM),,                +GHSERAG+GHSERSM
             -55568-0.13*T;,,                                         N 20Zho !
$ ------------------------------------------------------------------------------
$
$
 LIST-OF-REFERENCE
 NUMBER  SOURCE
  Null   'Unknown source'
  Same   'Same or similar interaction as in the corresponding stable phase'
  COST   'COST 507 database'
  91Din  'A.T. Dinsdale, Calphad, 15, 317-425(1991).'
  95Lim  'S.S. Lim, P.L. Rossiter, J.W. Tibballs, Calphad, 19, 131-41(1995),
          SGTE unary database V.4.1, 1999; Ag'
  96Oh   'C.-S. Oh, J.-H. Shim, B.-J. Lee, D.N. Lee,
          J. Alloys Compounds, 238, 155-66(1996),
          SGTE unary database V.4.1, 1999; Ag'
  96SGUN 'SGTE unary database V.3.0, 1996.'
  98Su1  'X. Su, W. Zhang, G. Liu, Z. Du,
          J. Alloys Compd., 267, 149-53(1998); Sm'
  98Su2  'X. Su, W. Zhang, Z. Du, J. Alloys Compd., 278, 182-84(1998)
          SGTE unary database V.4.4, 2001; Sm'
  08Zho  'S.H. Zhou, R.E. Napolitano,
          Metall. Mater. Trans. A, 39A, 502-12(2008); Al, Sm'
  20Zho  'J. Zhou, B. Hu, Y. Jiang, C. Qiu, Y. Du, H. Yin,
          J. Phase Equilib. Diffus., 41, 257-68(2020); Ag-Sm'
!
