$
$ Database for Dy-Ru from S. Kardellass et al. 2023.
$
$ S. Kardellass, V.P. Vassiliev, K. Mahdouk, N. Laaroussi, N. Selhaoui,
$ J. Phase Equilib. Diffus., 44, 43-75(2023).
$
$ Dataset created 2024.02.28 by Bengt Hallstedt.
$
$ The paper includes quadratic, exponential (Kaptay) and combined expressions
$ for the temperature dependence of the interaction parameters. This dataset
$ contains the exponential expressions. For the other two the results
$ are not acceptable.
$
$ The intermetallic phases modelled do not seem to match those found
$ experimentally. Dy5Ru2 and Dy44Ru25 have been found experimentally, but
$ Dy73Ru27 and Dy2Ru are modelled instead. The composition of Dy73Ru27 roughly
$ matches Dy5Ru2, so that crystal structure is assigned. Nothing matches Dy2Ru.
$
$ Invariant equilibria differ by up to 30 K. All attemps to fix made it worse
$ (old Dy, changed sign of L1 for liquid and changed exponent for L0).
$ The L1 liquid interaction should probably be refitted.
$
$ ------------------------------------------------------------------------------
 TEMP-LIM 298.15 6000.00 !
$
$ELEMENT NAME  REF. STATE               ATOMIC MASS H298-H0    S298    !
$
 ELEMENT VA   VACUUM                      0.0          0.0      0.0    ! 
 ELEMENT DY   HCP_A3                    162.50      8865.896   74.9559 ! 
 ELEMENT RU   HCP_A3                    101.07      4602.4     28.6144 ! 
$ ------------------------------------------------------------------------------
$ Phase definitions
$
 PHASE LIQUID:L % 1 1 !
 CONST LIQUID:L : DY RU : !
$
$ Fcc (cF4, Fm-3m) and MeX (cF8, Fm-3m)
$
 PHASE FCC_A1 %A 2 1 1 !
 CONST FCC_A1 : RU : VA : !
$
$ Bcc (cI2, Im-3m)
$
 PHASE BCC_A2 %B 2 1 3 !
 CONST BCC_A2 : DY% RU : VA : !
$
$ Hcp (hP2, P6_3/mmc) and Me2X (NiAs-type, hP4, P6_3/mmc, B8_1)
$
 PHASE HCP_A3 %A 2 1 0.5 !
 CONST HCP_A3 : DY% RU% : VA : !
$
$ Prototype Fe3C (oP16, Pnma)
$
 PHASE DY3RU_D011 % 2 3 1 !
 CONST DY3RU_D011 : DY : RU : !
$
$ Prototype Mn5C2 (mC28, C2/c)
$
 PHASE DY73RU27 % 2 0.73 0.27 !
 CONST DY73RU27 : DY : RU : !
$
$ unknown structure
$
 PHASE DY2RU % 2 2 1 !
 CONST DY2RU : DY : RU : !
$
$ Prototype Cu2Mg (cF24, Fd-3m)
$
 PHASE DYRU2_C15 % 2 1 2 !
 CONST DYRU2_C15 : DY : RU : !
$ ------------------------------------------------------------------------------
$ Defaults
$
 DEFINE-SYSTEM-DEFAULT ELEMENT 2 !
 DEFAULT-COM DEFINE_SYSTEM_ELEMENT VA !
 TYPE-DEF % SEQ * !
 TYPE-DEF A GES AMEND_PHASE_DESCRIPTION @ MAGNETIC -3 0.28 !
 TYPE-DEF B GES AMEND_PHASE_DESCRIPTION @ MAGNETIC -1 0.4 !
 FUNCTION ZERO      298.15  0;                                         6000 N !
 FUNCTION UN_ASS    298.15  0;                                         6000 N !
 FUNCTION R         298.15  +8.31451;                                  6000 N !
$ ------------------------------------------------------------------------------
$ Element data
$ ------------------------------------------------------------------------------
$ Dy
$
$ HCP_A3, BCC_A2 and LIQUID revised in unary 3.0
$
$ FCC_A1 from 03Cac not included in unary (but it should be)
$ FCC_A1, CBCC_A12 and CUB_A13 from 09Wan4 not included in unary.
$
 PAR  G(HCP_A3,DY:VA)           100.00  +GHSERDY;                3000 N 95She1 !
 PAR  TC(HCP_A3,DY:VA)          100.00    179;                   3000 N 95She1 !
 PAR  BM(HCP_A3,DY:VA)          100.00      3.0;                 3000 N 95She1 !
 PAR  G(BCC_A2,DY:VA)           100.00  +GBCCDY;                 3000 N 95She1 !
$PAR  G(FCC_A1,DY:VA)           100.00  +GHSERDY
$            +1300-0.6651608*T;                                  3000 N 03Cac !
$PAR  G(FCC_A1,DY:VA)           298.15  +GHSERDY+5000;           3000 N 09Wan4 !
$PAR  G(CBCC_A12,DY:VA)         298.15  +GHSERDY+10000;          3000 N 09Wan4 !
$PAR  G(CUB_A13,DY:VA)          298.15  +GHSERDY+10000;          3000 N 09Wan4 !
 PAR  G(LIQUID,DY)              100.00  +GLIQDY;                 3000 N 95She1 !
$
 FUNCTION GHSERDY   100.00  -7937.16586+102.307412*T-26.3917167*T*LN(T)
       -7.61683657E-04*T**2-5.86914125E-07*T**3+4010.90565*T**(-1);
      1000.00  Y  -13733.328+214.012934*T-43.8283359*T*LN(T)
       +0.0166909801*T**2-3.49702836E-06*T**3+0.0173619874*T**(-1);
      1654.15  Y  -404681.371+2032.1415*T-272.123952*T*LN(T)
       +0.0578301681*T**2-2.76169148E-06*T**3+1.09616238E+08*T**(-1);
      3000.00  N !
 FUNCTION GBCCDY    100.00  +1508.1802-0.566616181*T+GHSERDY;
      1000.00  Y  +327500.062-2868.04585*T+391.515418*T*LN(T)
       -0.224042148*T**2+2.04076075E-05*T**3-48652656.5*T**(-1);
      1654.15  Y  -33708.7949+291.409631*T-50.208*T*LN(T);
      1685.15  Y  -40775.4966+330.318068*T-55.2811171*T*LN(T)
       +0.0015254673*T**2-7.7437116E-08*T**3+1776589.32*T**(-1);
      3000.00  N !
 FUNCTION GLIQDY    100.00  +13196.6185-7.5443643*T+GHSERDY;
      1000.00  Y  +300126.971-2519.78614*T+341.302578*T*LN(T)
       -0.196153225*T**2+1.76197799E-05*T**3-43071677.5*T**(-1);
      1685.15  Y  -21864.7344+282.205014*T-49.9151*T*LN(T);
      3000.00  N !
$ ------------------------------------------------------------------------------
$ Ru
$
$ BCC_A2 revised in unary 4.4
$
 PAR  G(HCP_A3,RU:VA),,                 +GHSERRU;                4500 N 91Din !
 PAR  G(FCC_A1,RU:VA),,                 +GHSERRU+12500-2.4*T;    4500 N 91Din !
 PAR  G(BCC_A2,RU:VA),,                 +GHSERRU+21500-5.05*T;   4500 N 01SGUN !
$PAR  G(BCC_A2,RU:VA),,                 +GHSERRU+26500-6.2*T;    4500 N 91Din !
 PAR  G(LIQUID,RU),,                    +GLIQRU;                 4500 N 91Din !
$
 FUNCTION GHSERRU   298.15  -7561.873+127.866233*T-22.9143287*T*LN(T)
       -0.004062566*T**2+1.7641E-07*T**3+56377*T**(-1);
      1500.00  Y  -59448.103+489.516214*T-72.3241219*T*LN(T)
       +0.018726245*T**2-1.952433E-06*T**3+11063885*T**(-1);
      2607.00  Y  -38588773+168610.517*T-21329.705*T*LN(T)
       +5.221639*T**2-2.40245985E-04*T**3+1.30829926E+10*T**(-1);
      2740.00  Y  -55768.304+364.482314*T-51.8816*T*LN(T);
      4500.00  N !
 FUNCTION GLIQRU    298.15  +27480.616-8.398748*T+GHSERRU;
       800.00  Y  +50827.232-179.818561*T+19.539341*T*LN(T)
       -0.026524167*T**2+1.667839E-06*T**3-3861125*T**(-1);
      2607.00  Y  -17161.807+349.673561*T-51.8816*T*LN(T);
      4500.00  N !
$ ------------------------------------------------------------------------------
$ Binary system
$
$ S. Kardellass, V.P. Vassiliev, K. Mahdouk, N. Laaroussi, N. Selhaoui,
$ J. Phase Equilib. Diffus., 44, 43-75(2023).
$
$ Checked against paper. Checked at 6000 K.
$
$ The paper includes quadratic, exponential (Kaptay) and combined expressions
$ for the temperature dependence of the interaction parameters. This dataset
$ contains the exponential expressions. For the other two the results
$ are not acceptable.
$
$ The intermetallic phases modelled do not seem to match those found
$ experimentally. Dy5Ru2 and Dy44Ru25 have been found experimentally, but
$ Dy73Ru27 and Dy2Ru are modelled instead. The composition of Dy73Ru27 roughly
$ matches Dy5Ru2, so that crystal structure is assigned. Nothing matches Dy2Ru.
$
$ Invariant equilibria differ by up to 30 K. All attemps to fix made it worse
$ (old Dy, changed sign of L1 for liquid and changed exponent for L0).
$ The L1 liquid interaction should probably be refitted.
$
 PAR  L(LIQUID,DY,RU;0),,               -77438.859*EXP(-2.73E-6*T);,, N 23Kar !
 PAR  L(LIQUID,DY,RU;1),,               +3175.91*EXP(-4.07E-4*T);,,   N 23Kar !
 PAR  L(LIQUID,DY,RU;2),,               -33065.42*EXP(-4.5E-4*T);,,   N 23Kar !
$
 PAR  L(BCC_A2,DY,RU:VA;0),,            +UN_ASS;,,                    N !
 PAR  L(HCP_A3,DY,RU:VA;0),,            +25000*EXP(-1.308E-4*T);,,    N 23Kar !
$
 PAR  G(DY3RU_D011,DY:RU),,             +3*GHSERDY+GHSERRU
             -62775+0.224*T;,,                                        N 23Kar !
 PAR  G(DY73RU27,DY:RU),,               +0.73*GHSERDY+0.27*GHSERRU
             -16483.566+0.00701*T;,,                                  N 23Kar !
 PAR  G(DY2RU,DY:RU),,                  +2*GHSERDY+GHSERRU
             -54466.617+0.2352*T;,,                                   N 23Kar !
 PAR  G(DYRU2_C15,DY:RU),,              +GHSERDY+2*GHSERRU
             -81182.562+2.607*T;,,                                    N 23Kar !
$ ------------------------------------------------------------------------------
$
$
 LIST-OF-REFERENCE
 NUMBER  SOURCE
  Null   'Unknown source'
  Same   'Same or similar interaction as in the corresponding stable phase'
  REFLAV 'Laves phase convention: G(LAVES,X:X)=+3*GHSERXX+15000'
  91Din  'A.T. Dinsdale, Calphad, 15, 317-425(1991).'
  95She1 'H. Shen, W. Zhang, G. Liu, R. Wang, Z. Du, Report F-95-01,
          University of Science and Technology, Beijing, May 1995,
          SGTE unary database V.3.0, 1996; Dy'
  01SGUN 'SGTE unary database V.4.4, 2001.'
  03Cac  'G. Cacciamani, S. De Negri, A. Saccone, R. Ferro,
          Intermetallics, 11, 1135-51(2003); Dy, Ho'
  09Wan4 'C.P. Wang, Z. Lin, X.J. Liu,
          J. Alloys Compd., 469, 123-28(2009); Dy, Mn, Pr'
  23Kar  'S. Kardellass, V.P. Vassiliev, K. Mahdouk, N. Laaroussi, N. Selhaoui,
          J. Phase Equilib. Diffus., 44, 43-75(2023); Dy-Ru'
!
