$
$ Database for Sn-Yb from M. Idbenali and C. Servant 2011.
$
$ M. Idbenali, C. Servant, J. Thermal Anal. Calorim., 103, 131-35(2011).
$
$ Dataset created 2019.02.24 by Bengt Hallstedt.
$ 2021.02.05: Modified for use with GES6.
$
$ The Gibbs energy of Sn5Yb3 is missing in the paper.
$
$ There is a remaining error in the SN3YB5_D8L (ht) parameters. The peritectic
$ temperature of this phase is 80 K too high.
$
$ ------------------------------------------------------------------------------
 TEMP-LIM 298.15 6000.00 !
$
$ELEMENT NAME  REF. STATE               ATOMIC MASS H298-H0    S298    !
$
 ELEMENT VA   VACUUM                      0.0          0.0      0.0    ! 
 ELEMENT SN   BCT_A5                    118.69      6323.      51.18   ! 
 ELEMENT YB   FCC_A1                    173.04      6711.136   59.8312 ! 
$ ------------------------------------------------------------------------------
$ Phase definitions
$
 PHASE LIQUID:L % 1 1 !
 CONST LIQUID:L : SN YB : !
$
$ Fcc (cF4, Fm-3m) and MeX (cF8, Fm-3m)
$
 PHASE FCC_A1 %A 2 1 1 !
 CONST FCC_A1 : SN YB% : VA : !
$
$ Bcc (cI2, Im-3m)
$
 PHASE BCC_A2 %B 2 1 3 !
 CONST BCC_A2 : SN YB% : VA : !
$
$ Hcp (hP2, P6_3/mmc) and Me2X (NiAs-type, hP4, P6_3/mmc, B8_1)
$
 PHASE HCP_A3 %A 2 1 0.5 !
 CONST HCP_A3 : SN YB : VA : !
$
$ Prototype C (cF8, Fd-3m)
$
 PHASE DIAMOND_A4 % 1 1 !
 CONST DIAMOND_A4 : SN : !
$
$ Prototype beta-Sn (tI4, I4_1/amd)
$
 PHASE BCT_A5 % 1 1 !
 CONST BCT_A5 : SN : !
$
$ Prototype AuCu3 (cP4, Pm-3m)
$
 PHASE SN3YB_L12 % 2 3 1 !
 CONST SN3YB_L12 : SN : YB : !
$
$ Prototype Pd5Pu3 (oC32, Cmcm)
$
 PHASE SN5YB3 % 2 5 3 !
 CONST SN5YB3 : SN : YB : !
$
$ Prototype AuCu (tP4, P4/mmm)
$
 PHASE SNYB_L10 % 2 1 1 !
 CONST SNYB_L10 : SN : YB : !
$
$ Prototype Ge4Sm5 (oP36, Pnma)
$
 PHASE SN4YB5 % 2 4 5 !
 CONST SN4YB5 : SN : YB : !
$
$ Prototype Mn5Si3 (hP16, P6_3/mcm)
$
 PHASE SN3YB5_D88 % 2 3 5 !
 CONST SN3YB5_D88 : SN : YB : !
$
$ Prototype Cr5B3 (tI32, I4/mcm)
$
 PHASE SN3YB5_D8L % 2 3 5 !
 CONST SN3YB5_D8L : SN : YB : !
$
$ Prototype InNi2 (hP6, P6_3/mmc)
$
 PHASE SNYB2_B82 % 2 1 2 !
 CONST SNYB2_B82 : SN : YB : !
$ ------------------------------------------------------------------------------
$ Defaults
$
 DEFINE-SYSTEM-DEFAULT ELEMENT 2 !
 DEFAULT-COM DEFINE_SYSTEM_ELEMENT VA !
 TYPE-DEF % SEQ * !
 TYPE-DEF A GES AMEND_PHASE_DESCRIPTION @ MAGNETIC -3 0.28 !
 TYPE-DEF B GES AMEND_PHASE_DESCRIPTION @ MAGNETIC -1 0.4 !
 FUNCTION ZERO      298.15  0;                                         6000 N !
 FUNCTION UN_ASS    298.15  0;                                         6000 N !
 FUNCTION R         298.15  +8.31451;                                  6000 N !
$ ------------------------------------------------------------------------------
$ Element data
$ ------------------------------------------------------------------------------
$ Sn
$
$ FCC_A1 revised in unary 3.0
$ HCP_A3 revised in unary 4.1
$ TETRAGONAL_A6 added in unary 4.1
$ CBCC_A12 and CUB_A13 added in unary 4.4
$ FCC_A1 modified in unary 5.0
$ DHCP and TET_ALPHA1_A6 added in unary 5.0
$
$ The DHCP phase is labelled D0_24 in 03Liu and alpha-prime in 92Ans. The
$ phase is present between the fcc and hcp phases in the Au-Sn and Au-In
$ systems.
$
 PAR  G(BCT_A5,SN)              100.00  +GHSERSN;                3000 N 91Din !
 PAR  G(DIAMOND_A4,SN)          100.00  +GDIASN;                 3000 N 91Din !
 PAR  G(FCC_A1,SN:VA)           100.00  +GHSERSN+5510-8.46*T;    3000 N 89Fec !
$PAR  G(FCC_A1,SN:VA)           100.00  +GHSERSN+4150-5.2*T;     3000 N 91Din !
 PAR  G(BCC_A2,SN:VA)           100.00  +GHSERSN+4400-6*T;       3000 N 91Din !
 PAR  G(HCP_A3,SN:VA)           100.00  +GHSERSN+3900-7.646*T;   3000 N Ansar !
$PAR  G(HCP_A3,SN:VA)           100.00  +GHSERSN+3900-4.4*T;     3000 N 91Din !
$PAR  G(DHCP,SN)                100.00  +GHSERSN+3803.52-3.46*T; 3000 N 03Liu !
$PAR  G(RHOMBOHEDRAL_A7,SN)     100.00  +GHSERSN+2035;           3000 N 91Din !
$PAR  G(TETRAGONAL_A6,SN)       100.00  +GHSERSN+5387-8.26212*T; 3000 N 99Ans !
$PAR  G(CBCC_A12,SN:VA)         100.00  +GHSERSN+2000;           3000 N 01Mie !
$PAR  G(CUB_A13,SN:VA)          100.00  +GHSERSN+2000;           3000 N 01Mie !
$PAR  G(TET_ALPHA1_A6,SN)       100.00  +GHSERSN+5510-8.46*T;    3000 N 99Ans !
 PAR  G(LIQUID,SN)              100.00  +GLIQSN;                 3000 N 91Din !
$
 FUNCTION GHSERSN   100.00  -7958.517+122.765451*T-25.858*T*LN(T)
       +5.1185E-04*T**2-3.192767E-06*T**3+18440*T**(-1);
       250.00  Y  -5855.135+65.443315*T-15.961*T*LN(T)
       -0.0188702*T**2+3.121167E-06*T**3-61960*T**(-1);
       505.08  Y  +2524.724+4.005269*T-8.2590486*T*LN(T)
       -0.016814429*T**2+2.623131E-06*T**3-1081244*T**(-1)-1.2307E+25*T**(-9);
       800.00  Y  -8256.959+138.99688*T-28.4512*T*LN(T)-1.2307E+25*T**(-9);
      3000.00  N !
 FUNCTION GDIASN    100.00  -9579.608+114.007785*T-22.972*T*LN(T)
       -0.00813975*T**2+2.7288E-06*T**3+25615*T**(-1);
       298.15  Y  -9063.001+104.84654*T-21.5750771*T*LN(T)
       -0.008575282*T**2+1.784447E-06*T**3-2544*T**(-1);
       800.00  Y  -10909.351+147.396535*T-28.4512*T*LN(T);
      3000.00  N !
 FUNCTION GLIQSN    100.00  +7103.092-14.087767*T+GHSERSN+1.47031E-18*T**7;
       505.08  Y  +6971.586-13.814383*T+GHSERSN+1.2307E+25*T**(-9);
       800.00  Y  -1285.372+125.182498*T-28.4512*T*LN(T);
      3000.00  N !
 FUNCTION GBCCSN    298.15  +GHSERSN+4400-6*T;                         3000 N !
$ ------------------------------------------------------------------------------
$ Yb
$
$ HCP_A3 added in unary 5.0
$
 PAR  G(FCC_A1,YB:VA),,                 +GHSERYB;                2000 N 91Din !
 PAR  G(BCC_A2,YB:VA),,                 +GBCCYB;                 2000 N 91Din !
 PAR  G(HCP_A3,YB:VA),,                 +GHSERYB+5000;           2000 N 06Guo !
 PAR  G(LIQUID,YB),,                    +GLIQYB;                 2000 N 91Din !
$
 FUNCTION GHSERYB   298.15  -9370.941+189.327664*T-40.0791*T*LN(T)
       +0.04227115*T**2-2.2242E-05*T**3;
       553.00  Y  -8192.154+121.065655*T-26.7591*T*LN(T)-0.00256065*T**2;
      1033.00  Y  +16034.89-89.478241*T+2.7623966*T*LN(T)
       -0.017961331*T**2+1.421719E-06*T**3-3631462*T**(-1);
      2000.00  N !
 FUNCTION GBCCYB    298.15  -965.99-21.293677*T-3.8534432*T*LN(T)
       -0.030009694*T**2+4.743871E-06*T**3-334650*T**(-1);
      1033.00  Y  -13368.113+188.313864*T-36.1079*T*LN(T);
      1097.00  Y  -3911.847+113.174165*T-25.7402233*T*LN(T)
       -0.004743348*T**2+3.63044E-07*T**3-1553668*T**(-1);
      2000.00  N !
 FUNCTION GLIQYB    298.15  +7030.788-40.615571*T-1.8061816*T*LN(T)
       -0.03250938*T**2+5.136665E-06*T**3-370554*T**(-1);
      1033.00  Y  -6445.835+186.690398*T-36.7774*T*LN(T);
      2000.00  N !
 FUNCTION GHCPYB    298.15  +GHSERYB+5000;                             2000 N !
$ ------------------------------------------------------------------------------
$ Binary system
$
$ M. Idbenali, C. Servant, J. Thermal Anal. Calorim., 103, 131-35(2011).
$
$ Checked against paper. Checked at 6000 K.
$
$ The Gibbs energy of Sn5Yb3 is missing in the paper.
$
$ There is a remaining error in the SN3YB5_D8L (ht) parameters. The peritectic
$ temperature of this phase is 80 K too high.
$
 PAR  L(LIQUID,SN,YB;0),,               -155596.489-1.401083*T;,,     N 11Idb !
 PAR  L(LIQUID,SN,YB;1),,               -3736.52101;,,                N 11Idb !
 PAR  L(LIQUID,SN,YB;2),,               +36185.9184;,,                N 11Idb !
$
 PAR  L(FCC_A1,SN,YB:VA;0),,            +ZERO;,,                      N 11Idb !
 PAR  L(BCC_A2,SN,YB:VA;0),,            +ZERO;,,                      N 11Idb !
$
 PAR  G(SN3YB_L12,SN:YB),,              +3*GHSERSN+GHSERYB
             -167189.142+10.20100208*T;,,                             N 11Idb !
$ Parameter below tentatively added
 PAR  G(SN5YB3,SN:YB),,                 +5*GHSERSN+3*GHSERYB
             -390380.8+14.4*T;,,                                      N 11Idb !
 PAR  G(SNYB_L10,SN:YB),,               +GHSERSN+GHSERYB
             -110154.9204+1.29330488*T;,,                             N 11Idb !
 PAR  G(SN4YB5,SN:YB),,                 +4*GHSERSN+5*GHSERYB
             -511089.6267+12.39054651*T;,,                            N 11Idb !
 PAR  G(SN3YB5_D88,SN:YB),,             +3*GHSERSN+5*GHSERYB
             -467249.3712+25.72269344*T;,,                            N 11Idb !
$ Misprinted parameter below
$PAR  G(SN3YB5_D8L,SN:YB),,             +3*GHSERSN+5*GHSERYB
$            -460816.7432+2.701601248*T;,,                            N 11Idb !
$ Corrected parameter below
 PAR  G(SN3YB5_D8L,SN:YB),,             +3*GHSERSN+5*GHSERYB
             -435940.7+2.701601248*T;,,                               N 11Idb !
 PAR  G(SNYB2_B82,SN:YB),,              +GHSERSN+2*GHSERYB
             -172680.6477+10.52540082*T;,,                            N 11Idb !
$ ------------------------------------------------------------------------------
$
$
 LIST-OF-REFERENCE
 NUMBER  SOURCE
  Null   'Unknown source'
  Same   'Same or similar interaction as in the corresponding stable phase'
  COST   'COST 507 database'
  Ansar  'Himo Ansara, unpublished, SGTE unary database V.4.1, 1999; Sn'
  89Fec  'H.J. Fecht, M.X. Zhang, Y.A. Chang, J.H. Perepezko,
          Metall. Trans. A, 20A, 795-803(1989),
          SGTE unary database V.3.0, 1996; Sn'
  91Din  'A.T. Dinsdale, Calphad, 15, 317-425(1991).'
  99Ans  'I. Ansara, S.G. Fries, H.L. Lukas, unpublished, 1999,
          SGTE unary database V.5.0, 2009; In, Sn'
  01Mie  'J. Miettinen, Calphad, 25, 43-58(2001),
          SGTE unary database V.4.4, 2001; Sn, Zn'
  03Liu  'H.S. Liu, C.L. Liu, K. Ishida, Z.P. Jin, J. Electron. Mater.,
          32, 1290-96(2003), SGTE unary database V.5.0, 2009; Sn'
  06Guo  'C. Guo, Z. Du, J. Alloys Compd., 422, 102-8(2006),
          SGTE unary database V.5.0, 2009; Yb'
  11Idb  'M. Idbenali, C. Servant,
          J. Thermal Anal. Calorim., 103, 131-35(2011); Sn-Yb'
!
