$
$ Database for Co-Si from L. Zhang et al. 2006
$
$ L. Zhang, Y. Du, H. Xu, Z. Pan, Calphad, 30, 470-81(2006).
$
$ Dataset created 2010.03.27 by Bengt Hallstedt.
$ 2020.12.25: Modified for use with GES6.
$
$ Co2Si-beta is stable above 3390 K also. There is an inverse miscibility
$ gap with a min at 3805 K and x(Si)=0.84.
$
$ ------------------------------------------------------------------------------
 TEMP-LIM 298.15 6000.00 !
$
$ELEMENT NAME  REF. STATE               ATOMIC MASS H298-H0    S298    !
$
 ELEMENT VA   VACUUM                      0.0          0.0      0.0    ! 
 ELEMENT CO   HCP_A3                     58.9332    4765.567   30.0400 ! 
 ELEMENT SI   DIAMOND_A4                 28.0855    3217.      18.81   ! 
$ ------------------------------------------------------------------------------
$ Phase definitions
$
 PHASE LIQUID:L % 1 1 !
 CONST LIQUID:L : CO SI : !
$
$ Fcc (cF4, Fm-3m) and MeX (cF8, Fm-3m)
$
 PHASE FCC_A1 %A 2 1 1 !
 CONST FCC_A1 : CO SI : VA : !
$
$ Bcc (cI2, Im-3m)
$
 PHASE BCC_A2 %B 2 1 3 !
 CONST BCC_A2 : CO SI : VA : !
$
$ Hcp (hP2, P6_3/mmc) and Me2X (NiAs-type, hP4, P6_3/mmc, B8_1)
$
 PHASE HCP_A3 %A 2 1 0.5 !
 CONST HCP_A3 : CO SI : VA : !
$
$ Prototype C (cF8, Fd-3m)
$
 PHASE DIAMOND_A4 % 1 1 !
 CONST DIAMOND_A4 : SI : !
$
$ Prototype CdMg3 (hP8, P6_3/mmc)
$
 PHASE CO3SI_D019 % 2 3 1 !
 CONST CO3SI_D019 : CO : SI : !
$
$ Prototype Co2Si (oP12, Pnma), alpha
$
 PHASE CO2SI_C37 % 2 2 1 !
 CONST CO2SI_C37 : CO% SI : CO SI% : !
$
$ Unknown structure, beta
$
 PHASE CO2SI_BETA % 2 2 1 !
 CONST CO2SI_BETA : CO% SI : CO SI% : !
$
$ Prototype FeSi (cP8, P2_13)
$
 PHASE COSI_B20 % 2 1 1 !
 CONST COSI_B20 : CO% SI : CO SI% : !
$
$ Prototype CaF2 (cF12, Fm-3m)
$
 PHASE COSI2_C1 % 2 1 2 !
 CONST COSI2_C1 : CO : SI : !
$ ------------------------------------------------------------------------------
$ Defaults
$
 DEFINE-SYSTEM-DEFAULT ELEMENT 2 !
 DEFAULT-COM DEFINE_SYSTEM_ELEMENT VA !
 TYPE-DEF % SEQ * !
 TYPE-DEF A GES AMEND_PHASE_DESCRIPTION @ MAGNETIC -3 0.28 !
 TYPE-DEF B GES AMEND_PHASE_DESCRIPTION @ MAGNETIC -1 0.4 !
 FUNCTION ZERO      298.15  0;                                         6000 N !
 FUNCTION UN_ASS    298.15  0;                                         6000 N !
$ ------------------------------------------------------------------------------
$ Element data
$ ------------------------------------------------------------------------------
$ Co
$
 PAR  G(HCP_A3,CO:VA),,                 +GHSERCO;,,                   N 91Din !
 PAR  TC(HCP_A3,CO:VA),,                 1396.00;,,                   N 91Din !
 PAR  BM(HCP_A3,CO:VA),,                    1.35;,,                   N 91Din !
 PAR  G(FCC_A1,CO:VA),,                 +GHSERCO
             +427.591-0.615248*T;,,                                   N 91Din !
 PAR  TC(FCC_A1,CO:VA),,                 1396.00;,,                   N 91Din !
 PAR  BM(FCC_A1,CO:VA),,                    1.35;,,                   N 91Din !
 PAR  G(BCC_A2,CO:VA),,                 +GHSERCO+2938-0.7138*T;,,     N 91Din !
 PAR  TC(BCC_A2,CO:VA),,                 1450.00;,,                   N 91Din !
 PAR  BM(BCC_A2,CO:VA),,                    1.35;,,                   N 91Din !
$PAR  G(CBCC_A12,CO:VA),,               +GHSERCO+4155;,,              N 91Din !
$PAR  G(CUB_A13,CO:VA),,                +GHSERCO+3155;,,              N 91Din !
 PAR  G(LIQUID,CO),,                    +GLIQCO;,,                    N 91Din !
$
 PAR  G(CO2SI_C37,CO:CO),,              +3*GHSERCO+15000;,,           N 06Zha !
 PAR  G(CO2SI_BETA,CO:CO),,             +3*GHSERCO+15000;,,           N 06Zha !
 PAR  G(COSI_B20,CO:CO),,               +2*GHSERCO+10000;,,           N 06Zha !
$
 FUNCTION GHSERCO   298.15  +310.241+133.36601*T-25.0861*T*LN(T)
       -0.002654739*T**2-1.7348E-07*T**3+72527*T**(-1);
      1768.00  Y  -17197.666+253.28374*T-40.5*T*LN(T)+9.3488E+30*T**(-9);
      6000.00  N !
 FUNCTION GLIQCO    298.15  +15085.037-8.931932*T+GHSERCO-2.19801E-21*T**7;
      1768.00  Y  -846.61+243.599944*T-40.5*T*LN(T);
      6000.00  N !
$ ------------------------------------------------------------------------------
$ Si
$
 PAR  G(DIAMOND_A4,SI),,                +GHSERSI;                3600 N 91Din !
 PAR  G(FCC_A1,SI:VA),,                 +GHSERSI+51000-21.8*T;   3600 N 91Din !
 PAR  G(BCC_A2,SI:VA),,                 +GHSERSI+47000-22.5*T;   3600 N 91Din !
 PAR  G(HCP_A3,SI:VA),,                 +GHSERSI+49200-20.8*T;   3600 N 91Din !
$PAR  G(CBCC_A12,SI:VA),,               +GHSERSI+50208-20.377*T; 3600 N 91Din !
$PAR  G(CUB_A13,SI:VA),,                +GHSERSI+47279-20.377*T; 3600 N 91Din !
 PAR  G(LIQUID,SI),,                    +GLIQSI;                 3600 N 91Din !
$
 PAR  G(CO2SI_C37,SI:SI),,              +3*GHSERSI+15000;,,           N 06Zha !
 PAR  G(CO2SI_BETA,SI:SI),,             +3*GHSERSI+15000;,,           N 06Zha !
 PAR  G(COSI_B20,SI:SI),,               +2*GHSERSI+10000;,,           N 06Zha !
$
 FUNCTION GHSERSI   298.15  -8162.609+137.236859*T-22.8317533*T*LN(T)
       -0.001912904*T**2-3.552E-09*T**3+176667*T**(-1);
      1687.00  Y  -9457.642+167.281367*T-27.196*T*LN(T)-4.20369E+30*T**(-9);
      3600.00  N !
 FUNCTION GLIQSI    298.15  +50696.36-30.099439*T+GHSERSI+2.09307E-21*T**7;
      1687.00  Y  +40370.523+137.722298*T-27.196*T*LN(T);
      3600.00  N !
 FUNCTION GBCCSI    298.15  +GHSERSI+47000-22.5*T;               3600 N 91Din !
$ ------------------------------------------------------------------------------
$ Binary system
$
$ L. Zhang, Y. Du, H. Xu, Z. Pan, Calphad, 30, 470-81(2006).
$
$ Checked against paper. Checked at 6000 K.
$
$ Co2Si-beta is stable above 3390 K also. There is an inverse miscibility
$ gap with a min at 3805 K and x(Si)=0.84.
$
 PAR  L(LIQUID,CO,SI;0),,               -183483.8+34.80023*T;,,       N 06Zha !
 PAR  L(LIQUID,CO,SI;1),,               -3219.5-15.28341*T;,,         N 06Zha !
 PAR  L(LIQUID,CO,SI;2),,               +34241.7;,,                   N 06Zha !
 PAR  L(LIQUID,CO,SI;3),,               +15579.7;,,                   N 06Zha !
$
 PAR  L(FCC_A1,CO,SI:VA;0),,            -166661.9+29.94175*T;,,       N 06Zha !
 PAR  L(FCC_A1,CO,SI:VA;1),,            -58780.2+28.62343*T;,,        N 06Zha !
 PAR  TC(FCC_A1,CO,SI:VA;0),,           -1943.60;,,                   N 06Zha !
 PAR  BM(FCC_A1,CO,SI:VA;0),,              -2.95;,,                   N 06Zha !
$
 PAR  L(HCP_A3,CO,SI:VA;0),,            -199795.7+35.01457*T;,,       N 06Zha !
 PAR  L(HCP_A3,CO,SI:VA;1),,            +3322.1+9.00271*T;,,          N 06Zha !
$
 PAR  G(CO3SI_D019,CO:SI),,             +3*GHSERCO+GHSERSI
             -57775.2-39.98972*T;,,                                   N 06Zha !
$
 PAR  G(CO2SI_C37,CO:SI),,              -85640.4-74.97495*T
             -2.38326*T*LN(T)-0.045279*T**2-4257813.6*T**(-1);,,      N 06Zha !
 PAR  G(CO2SI_C37,SI:CO),,              +115640.4+74.97495*T
             +2.38326*T*LN(T)+0.045279*T**2+4257813.6*T**(-1);,,      N 06Zha !
 PAR  L(CO2SI_C37,CO,SI:CO;0),,         -70565.4;,,                   N 06Zha !
 PAR  L(CO2SI_C37,CO,SI:SI;0),,         -70565.4;,,                   N 06Zha !
 PAR  L(CO2SI_C37,CO:CO,SI;0),,         +6647.1;,,                    N 06Zha !
 PAR  L(CO2SI_C37,SI:CO,SI;0),,         +6647.1;,,                    N 06Zha !
$
 PAR  G(CO2SI_BETA,CO:SI),,             -82656.78-76.79655*T
             -2.38326*T*LN(T)-0.045279*T**2-4257813.6*T**(-1);,,      N 06Zha !
 PAR  G(CO2SI_BETA,SI:CO),,             +112656.78+76.79655*T
             +2.38326*T*LN(T)+0.045279*T**2+4257813.6*T**(-1);,,      N 06Zha !
 PAR  L(CO2SI_BETA,CO,SI:CO;0),,        -92174.4;,,                   N 06Zha !
 PAR  L(CO2SI_BETA,CO,SI:SI;0),,        -92174.4;,,                   N 06Zha !
 PAR  L(CO2SI_BETA,CO:CO,SI;0),,        +190.638;,,                   N 06Zha !
 PAR  L(CO2SI_BETA,SI:CO,SI;0),,        +190.638;,,                   N 06Zha !
$
 PAR  G(COSI_B20,CO:SI),,               -96002+100.902*T
             -21.164*T*LN(T)-0.020254*T**2-778739.8*T**(-1);,,        N 06Zha !
 PAR  G(COSI_B20,SI:CO),,               -106002-100.902*T
             +21.164*T*LN(T)+0.020254*T**2+778739.8*T**(-1);,,        N 06Zha !
 PAR  L(COSI_B20,CO,SI:CO;0),,          +13991.2;,,                   N 06Zha !
 PAR  L(COSI_B20,CO,SI:SI;0),,          +13991.2;,,                   N 06Zha !
 PAR  L(COSI_B20,CO:CO,SI;0),,          -8792.2;,,                    N 06Zha !
 PAR  L(COSI_B20,SI:CO,SI;0),,          -8792.2;,,                    N 06Zha !
$
 PAR  G(COSI2_C1,CO:SI),,               -123717.6+349.87443*T
             -60.53316*T*LN(T)-0.0129216*T**2-190.2606*T**(-1);,,     N 06Zha !
$
$ Metastable
$
 PAR  L(BCC_A2,CO,SI:VA;0),,            -166661.9+29.94175*T;,,       N Same !
 PAR  L(BCC_A2,CO,SI:VA;1),,            -58780.2+28.62343*T;,,        N Same !
$ ------------------------------------------------------------------------------
$
 ASSESSED_SYSTEM
  CO-SI(TDB -* +LIQ +HCP_A3 +FCC_A1 +DIAM +CO3SI +CO2SI_C37 +CO2SI_BETA
  +COSI_B20 +COSI2_C1 ;P3 TMM:300/2000 *) !
$
$
 LIST-OF-REFERENCE
 NUMBER  SOURCE
  Null   'Unknown source'
  Same   'Same or similar interaction as in the corresponding stable phase'
  91Din  'A.T. Dinsdale, Calphad, 15, 317-425(1991).'
  06Zha  'L. Zhang, Y. Du, H. Xu, Z. Pan, Calphad, 30, 470-81(2006); Co-Si'
!
