$
$ Database for Fe-Mn from W. Huang 1989 (included in LB Vol. 3)
$
$ W. Huang, Calphad, 13, 243-52(1989).
$
$ Dataset created 2010.01.23 by Bengt Hallstedt.
$ 2016.10.31: Added 4SL fcc ordering (option F). Default not included.
$ 2016.10.31: Modified HCP_A3 interaction (11Dju).
$ 2016.10.31: Added BM(FCC_A1,FE,MN:VA;0)=1.
$ 2020.12.26: Modified for use with GES6.
$
$ HCP_A3 interaction slightly modified by 11Dju.
$
$ The Neel temperature (fcc) is well described, but there is an uncertainty
$ concerning the magnetic moments. A value BM(FCC_A1,FE,MN:VA;0)=1 seems to
$ fit M_s data best.
$
$ Fcc ordering energies (approximately) from Alexey Dick 2008.
$
$ ------------------------------------------------------------------------------
 TEMP-LIM 298.15 6000.00 !
$
$ELEMENT NAME  REF. STATE               ATOMIC MASS H298-H0    S298    !
$
 ELEMENT VA   VACUUM                      0.0          0.0      0.0    ! 
 ELEMENT FE   BCC_A2                     55.847     4489.0     27.2797 ! 
 ELEMENT MN   CBCC_A12                   54.9380    4995.696   32.2206 ! 
$ ------------------------------------------------------------------------------
$ Phase definitions
$
 PHASE LIQUID:L % 1 1 !
 CONST LIQUID:L : FE MN : !
$
$ Fcc (cF4, Fm-3m) and MeX (cF8, Fm-3m)
$
 PHASE FCC_A1 %A 2 1 1 !
 CONST FCC_A1 : FE% MN% : VA : !
$
$ Disordered part of FCC_4SL, identical to FCC_A1
$
 PHASE A1_FCC %A 2 1 1 !
 CONST A1_FCC : FE MN : VA : !
$
$ Prototype AuCu3 (cP4, Pm-3m, L1_2) and AuCu (tP4, P4/mmm, L1_0)
$
 PHASE FCC_4SL:F %AY 5 0.25 0.25 0.25 0.25 1 !
 CONST FCC_4SL:F : FE MN : FE MN : FE MN : FE MN : VA :  !
$
$ Bcc (cI2, Im-3m)
$
 PHASE BCC_A2 %B 2 1 3 !
 CONST BCC_A2 : FE% MN% : VA : !
$
$ Hcp (hP2, P6_3/mmc) and Me2X (NiAs-type, hP4, P6_3/mmc, B8_1)
$
 PHASE HCP_A3 %A 2 1 0.5 !
 CONST HCP_A3 : FE MN : VA : !
$
$ Prototype alpha-Mn (cI58, I-43m)
$
 PHASE CBCC_A12 %A 2 1 1 !
 CONST CBCC_A12 : FE MN% : VA : !
$
$ Prototype beta-Mn (cP20, P4_132)
$
 PHASE CUB_A13 % 2 1 1 !
 CONST CUB_A13 : FE MN% : VA : !
$ ------------------------------------------------------------------------------
$ Defaults
$
 DEFINE-SYSTEM-DEFAULT ELEMENT 2 !
 DEFAULT-COM DEFINE_SYSTEM_ELEMENT VA !
 DEFAULT-COM REJECT_PHASE A1_FCC FCC_4SL !
 TYPE-DEF % SEQ * !
 TYPE-DEF A GES AMEND_PHASE_DESCRIPTION @ MAGNETIC -3 0.28 !
 TYPE-DEF B GES AMEND_PHASE_DESCRIPTION @ MAGNETIC -1 0.4 !
 TYPE-DEF Y GES AMEND_PHASE_DESCRIPTION FCC_4SL DIS_PART A1_FCC !
 FUNCTION ZERO      298.15  0;                                         6000 N !
 FUNCTION UN_ASS    298.15  0;                                         6000 N !
 FUNCTION R         298.15  +8.31451;                                  6000 N !
$ ------------------------------------------------------------------------------
$ Element data
$ ------------------------------------------------------------------------------
$ Fe
$
$ ORTHORHOMBIC_A20 and TETRAGONAL_U added im unary 4.1
$
 PAR  G(BCC_A2,FE:VA),,                 +GHSERFE;,,                   N 91Din !
 PAR  TC(BCC_A2,FE:VA),,                 1043.00;,,                   N 91Din !
 PAR  BM(BCC_A2,FE:VA),,                    2.22;,,                   N 91Din !
 PAR  G(FCC_A1,FE:VA),,                 +GFCCFE;,,                    N 91Din !
 PAR  TC(FCC_A1,FE:VA),,                 -201.00;,,                   N 91Din !
 PAR  BM(FCC_A1,FE:VA),,                   -2.10;,,                   N 91Din !
 PAR  G(A1_FCC,FE:VA),,                 +GFCCFE;,,                    N 91Din !
 PAR  TC(A1_FCC,FE:VA),,                 -201.00;,,                   N 91Din !
 PAR  BM(A1_FCC,FE:VA),,                   -2.10;,,                   N 91Din !
 PAR  G(HCP_A3,FE:VA),,                 +GHCPFE;,,                    N 91Din !
 PAR  G(CBCC_A12,FE:VA),,               +GHSERFE+4745;,,              N 91Din !
 PAR  G(CUB_A13,FE:VA),,                +GHSERFE+3745;,,              N 91Din !
$PAR  G(ORTHORHOMBIC_A20,FE),,          +GHSERFE+5000;,,              N 99SGUN !
$PAR  G(TETRAGONAL_U,FE),,              +GHSERFE+5000;,,              N 99SGUN !
 PAR  G(LIQUID,FE),,                    +GLIQFE;,,                    N 91Din !
$
 FUNCTION GHSERFE   298.15  +1225.7+124.134*T-23.5143*T*LN(T)
       -0.00439752*T**2-5.8927E-08*T**3+77359*T**(-1);
      1811.00  Y  -25383.581+299.31255*T-46*T*LN(T)+2.29603E+31*T**(-9);
      6000.00  N !
 FUNCTION GFCCFE    298.15  -1462.4+8.282*T-1.15*T*LN(T)
       +6.4E-04*T**2+GHSERFE;
      1811.00  Y  -1713.815+0.940009*T+GHSERFE+4.9251E+30*T**(-9);
      6000.00  N !
 FUNCTION GHCPFE    298.15  -3705.78+12.591*T-1.15*T*LN(T)
       +6.4E-04*T**2+GHSERFE;
      1811.00  Y  -3957.195+5.249009*T+GHSERFE+4.9251E+30*T**(-9);
      6000.00  N !
 FUNCTION GLIQFE    298.15  +12040.17-6.55843*T+GHSERFE-3.67516E-21*T**7;
      1811.00  Y  -10838.83+291.302*T-46*T*LN(T);
      6000.00  N !
$ ------------------------------------------------------------------------------
$ Mn
$
 PAR  G(CBCC_A12,MN:VA),,               +GHSERMN;                2000 N 91Din !
 PAR  TC(CBCC_A12,MN:VA),,               -285.00;                2000 N 91Din !
 PAR  BM(CBCC_A12,MN:VA),,                 -0.66;                2000 N 91Din !
 PAR  G(CUB_A13,MN:VA),,                +GCUBMN;                 2000 N 91Din !
 PAR  G(FCC_A1,MN:VA),,                 +GFCCMN;                 2000 N 91Din !
 PAR  TC(FCC_A1,MN:VA),,                -1620.00;                2000 N 91Din !
 PAR  BM(FCC_A1,MN:VA),,                   -1.86;                2000 N 91Din !
 PAR  G(A1_FCC,MN:VA),,                 +GFCCMN;                 2000 N 91Din !
 PAR  TC(A1_FCC,MN:VA),,                -1620.00;                2000 N 91Din !
 PAR  BM(A1_FCC,MN:VA),,                   -1.86;                2000 N 91Din !
 PAR  G(BCC_A2,MN:VA),,                 +GBCCMN;                 2000 N 91Din !
 PAR  TC(BCC_A2,MN:VA),,                 -580.00;                2000 N 91Din !
 PAR  BM(BCC_A2,MN:VA),,                   -0.27;                2000 N 91Din !
 PAR  G(HCP_A3,MN:VA),,                 +GHCPMN;                 2000 N 91Din !
 PAR  TC(HCP_A3,MN:VA),,                -1620.00;                2000 N 91Din !
 PAR  BM(HCP_A3,MN:VA),,                   -1.86;                2000 N 91Din !
 PAR  G(LIQUID,MN),,                    +GLIQMN;                 2000 N 91Din !
$
 FUNCTION GHSERMN   298.15  -8115.28+130.059*T-23.4582*T*LN(T)
       -0.00734768*T**2+69827*T**(-1);
      1519.00  Y  -28733.41+312.2648*T-48*T*LN(T)+1.656847E+30*T**(-9);
      2000.00  N !
 FUNCTION GCUBMN    298.15  -5800.4+135.995*T-24.8785*T*LN(T)
       -0.00583359*T**2+70269*T**(-1);
      1519.00  Y  +442.65-0.9715*T+GHSERMN+2.310723E+30*T**(-9);
      2000.00  N !
 FUNCTION GFCCMN    298.15  -3439.3+131.884*T-24.5177*T*LN(T)
       -0.006*T**2+69600*T**(-1);
      1519.00  Y  +2663.31-2.5984*T+GHSERMN+2.205113E+30*T**(-9);
      2000.00  N !
 FUNCTION GBCCMN    298.15  -3235.3+127.85*T-23.7*T*LN(T)
       -0.00744271*T**2+60000*T**(-1);
      1519.00  Y  +5544.58-4.5605*T+GHSERMN-3.91695E+29*T**(-9);
      2000.00  N !
 FUNCTION GHCPMN    298.15  -4439.3+133.007*T-24.5177*T*LN(T)
       -0.006*T**2+69600*T**(-1);
      1519.00  Y  +1663.31-1.4754*T+GHSERMN+2.205113E+30*T**(-9);
      2000.00  N !
 FUNCTION GLIQMN    298.15  +17859.91-12.6208*T+GHSERMN-4.41929E-21*T**7;
      1519.00  Y  -9993.9+299.036*T-48*T*LN(T);
      2000.00  N !
$ ------------------------------------------------------------------------------
$ Binary system
$
$ From W. Huang 1989 (included in LB Vol. 3)
$
$ W. Huang, Calphad, 13, 243-52(1989).
$
$ Checked against LB and paper. Checked at 6000 K.
$
$ HCP_A3 interaction slightly modified by 11Dju.
$
$ The Neel temperature (fcc) is well described, but there is an uncertainty
$ concerning the magnetic moments. A value BM(FCC_A1,FE,MN:VA;0)=1 seems to
$ fit M_s data best.
$
$ Fcc ordering energies (approximately) from Alexey Dick 2008.
$
 PAR  L(LIQUID,FE,MN;0),,               -3950+0.489*T;,,              N 89Hua2 !
 PAR  L(LIQUID,FE,MN;1),,               +1145;,,                      N 89Hua2 !
$
 PAR  L(FCC_A1,FE,MN:VA;0),,            -7762+3.865*T;,,              N 89Hua2 !
 PAR  L(FCC_A1,FE,MN:VA;1),,            -259;,,                       N 89Hua2 !
 PAR  TC(FCC_A1,FE,MN:VA;0),,           -2282;,,                      N 89Hua2 !
 PAR  TC(FCC_A1,FE,MN:VA;1),,           -2068;,,                      N 89Hua2 !
$ New value below (old value was zero)
 PAR  BM(FCC_A1,FE,MN:VA;0),,              +1;,,                      N 12Hal !
$
 PAR  L(A1_FCC,FE,MN:VA;0),,            -7762+3.865*T;,,              N 89Hua2 !
 PAR  L(A1_FCC,FE,MN:VA;1),,            -259;,,                       N 89Hua2 !
 PAR  TC(A1_FCC,FE,MN:VA;0),,           -2282;,,                      N 89Hua2 !
 PAR  TC(A1_FCC,FE,MN:VA;1),,           -2068;,,                      N 89Hua2 !
 PAR  BM(A1_FCC,FE,MN:VA;0),,              +1;,,                      N 12Hal !
$
 PAR  G(FCC_4SL,FE:FE:FE:MN:VA),,       +GFFE3MN;,,                   N 08Hal !
 PAR  G(FCC_4SL,FE:FE:MN:MN:VA),,       +GFFE2MN2;,,                  N 08Hal !
 PAR  G(FCC_4SL,FE:MN:MN:MN:VA),,       +GFFEMN3;,,                   N 08Hal !
 PAR  L(FCC_4SL,FE,MN:FE,MN:*:*:VA;0),, +SFFEMN;,,                    N 08Hal !
$
 PAR  L(BCC_A2,FE,MN:VA;0),,            -2759+1.237*T;,,              N 89Hua2 !
 PAR  TC(BCC_A2,FE,MN:VA;0),,            +123;,,                      N 89Hua2 !
$
 PAR  L(HCP_A3,FE,MN:VA;0),,            -5748+3.865*T;,,              N 11Dju !
 PAR  L(HCP_A3,FE,MN:VA;1),,            +273;,,                       N 11Dju !
$PAR  L(HCP_A3,FE,MN:VA;0),,            -5582+3.865*T;,,              N 89Hua2 !
$PAR  L(HCP_A3,FE,MN:VA;1),,            +273;,,                       N 89Hua2 !
$
 PAR  L(CBCC_A12,FE,MN:VA;0),,          -10184;,,                     N 89Hua2 !
$
 PAR  L(CUB_A13,FE,MN:VA;0),,           -11518+2.819*T;,,             N 89Hua2 !
$
 FUNCTION UFFEMN    298.15  -700;                                      6000 N !
 FUNCTION GFFE3MN   298.15  +3*UFFEMN-90;                              6000 N !
 FUNCTION GFFE2MN2  298.15  +4*UFFEMN;                                 6000 N !
 FUNCTION GFFEMN3   298.15  +3*UFFEMN+90;                              6000 N !
 FUNCTION SFFEMN    298.15  +UFFEMN;                                   6000 N !
$ ------------------------------------------------------------------------------
$
 ASSESSED_SYSTEM
  FE-MN(TDB -* +LIQUID +BCC_A2 +FCC_A1 +CBCC_A12 +CUB_A13
  ;P3 TMM:300/2300 STP:.4/1300/2/-2) !
$
$
 LIST-OF-REFERENCE
 NUMBER  SOURCE
  Null   'Unknown source'
  REFLAV 'Laves phase convention: G(LAVES,X:X)=+3*GHSERXX+15000'
  89Hua2 'W. Huang, Calphad, 13, 243-52(1989); Fe-Mn'
  91Din  'A.T. Dinsdale, Calphad, 15, 317-425(1991).'
  99SGUN 'SGTE unary database V.4.1, 1999.'
  08Hal  'B. Hallstedt, fcc ordering parameters, 2008; Fe-Mn'
  11Dju  'D. Djurovic, B. Hallstedt, J. von Appen, R. Dronskowski,
          Calphad, 35, 479-91(2011); Fe-Mn, Fe-Mn-C'
  12Hal  'B. Hallstedt, adjusted magnetic parameters, 2012; Fe-Mn, Fe-Mn-C'
!
