$
$ Database for Fe-H from M. Zinkevich et al. 2002
$
$ M. Zinkevich, N. Mattern, A. Handstein, O. Gutfleisch,
$ J. Alloys Compd., 339, 118-139(2002).
$
$ Dataset created 2010.01.20 by Bengt Hallstedt.
$ 2020.12.26: Modified for use with GES6.
$
$ The bcc modelling is scary.
$ The liquid was changed from the 2-sublattice model used by 02Zin to
$ a single sublattice model by refitting an interaction parameter.
$ The hcp parameters were recalculated from the (Fe)1(H,Va)1 model to
$ a (Fe)1(H,Va)0.5 model. Hcp parameters were estimated by 02Zin.
$
$ ------------------------------------------------------------------------------
 TEMP-LIM 298.15 6000.00 !
$
$ELEMENT NAME  REF. STATE               ATOMIC MASS H298-H0    S298    !
$
 ELEMENT VA   VACUUM                      0.0          0.0      0.0    ! 
 ELEMENT FE   BCC_A2                     55.847     4489.0     27.2797 ! 
 ELEMENT H    1/2_MOLE_H2(G)              1.0079    4234.      65.285  ! 
$ ------------------------------------------------------------------------------
$ Species
$
 SPECIE  FE2                                FE2 !
 SPECIE  FEH                                FE1H1 !
 SPECIE  H2                                 H2 !
$ ------------------------------------------------------------------------------
$ Phase definitions
$
 PHASE LIQUID:L % 1 1 !
 CONST LIQUID:L : FE H : !
$
$ Fcc (cF4, Fm-3m) and MeX (cF8, Fm-3m)
$
 PHASE FCC_A1 %A 2 1 1 !
 CONST FCC_A1 : FE : H VA% : !
$
$ Bcc (cI2, Im-3m)
$ Note! not standard bcc model
$
 PHASE BCC_A2 %B 2 1 1 !
 CONST BCC_A2 : FE : H VA% : !
$
$ Hcp (hP2, P6_3/mmc) and Me2X (NiAs-type, hP4, P6_3/mmc, B8_1)
$
 PHASE HCP_A3 %A 2 1 0.5 !
 CONST HCP_A3 : FE : H VA% : !
$
 PHASE GAS:G % 1 1 !
 CONST GAS:G : FE FE2 FEH H H2 : !
$
 PHASE H2GAS % 1 1 !
 CONST H2GAS : H2 : !
$ ------------------------------------------------------------------------------
$ Defaults
$
 DEFINE-SYSTEM-DEFAULT ELEMENT 2 !
 DEFAULT-COM DEFINE_SYSTEM_ELEMENT VA !
 TYPE-DEFINITION % SEQ * !
 TYPE_DEF A GES AMEND_PHASE_DESCRIPTION @ MAGNETIC -3 0.28 !
 TYPE_DEF B GES AMEND_PHASE_DESCRIPTION @ MAGNETIC -1 0.4 !
 FUNCTION ZERO      298.15  0;                                         6000 N !
 FUNCTION UN_ASS    298.15  0;                                         6000 N !
 FUNCTION R         298.15  +8.31451;                                  6000 N !
 FUNCTION RTLNP     298.15  +8.31451*T*LN(1E-05*P);                    6000 N !
$ ------------------------------------------------------------------------------
$ Element data
$ ------------------------------------------------------------------------------
$ Fe
$
$ ORTHORHOMBIC_A20 and TETRAGONAL_U added im unary 4.1
$
 PAR  G(BCC_A2,FE:VA),,                 +GHSERFE;,,                   N 91Din !
 PAR  TC(BCC_A2,FE:VA),,                 1043.00;,,                   N 91Din !
 PAR  BM(BCC_A2,FE:VA),,                    2.22;,,                   N 91Din !
 PAR  G(FCC_A1,FE:VA),,                 +GFCCFE;,,                    N 91Din !
 PAR  TC(FCC_A1,FE:VA),,                 -201.00;,,                   N 91Din !
 PAR  BM(FCC_A1,FE:VA),,                   -2.10;,,                   N 91Din !
 PAR  G(HCP_A3,FE:VA),,                 +GHCPFE;,,                    N 91Din !
$PAR  G(CBCC_A12,FE:VA),,               +GHSERFE+4745;,,              N 91Din !
$PAR  G(CUB_A13,FE:VA),,                +GHSERFE+3745;,,              N 91Din !
$PAR  G(ORTHORHOMBIC_A20,FE),,          +GHSERFE+5000;,,              N 99SGUN !
$PAR  G(TETRAGONAL_U,FE),,              +GHSERFE+5000;,,              N 99SGUN !
 PAR  G(LIQUID,FE),,                    +GLIQFE;,,                    N 91Din !
$
 PAR  G(GAS,FE),,                       +F10039T+RTLNP;,,             N 97SUB !
 PAR  G(GAS,FE2),,                      +F10090T+RTLNP;,,             N 97SUB !
$
 FUNCTION GHSERFE   298.15  +1225.7+124.134*T-23.5143*T*LN(T)
       -0.00439752*T**2-5.8927E-08*T**3+77359*T**(-1);
      1811.00  Y  -25383.581+299.31255*T-46*T*LN(T)+2.29603E+31*T**(-9);
      6000.00  N !
 FUNCTION GFCCFE    298.15  -1462.4+8.282*T-1.15*T*LN(T)
       +6.4E-04*T**2+GHSERFE;
      1811.00  Y  -1713.815+0.940009*T+GHSERFE+4.9251E+30*T**(-9);
      6000.00  N !
 FUNCTION GHCPFE    298.15  -3705.78+12.591*T-1.15*T*LN(T)
       +6.4E-04*T**2+GHSERFE;
      1811.00  Y  -3957.195+5.249009*T+GHSERFE+4.9251E+30*T**(-9);
      6000.00  N !
 FUNCTION GLIQFE    298.15  +12040.17-6.55843*T+GHSERFE-3.67516E-21*T**7;
      1811.00  Y  -10838.83+291.302*T-46*T*LN(T);
      6000.00  N !
$ Fe(g)
 FUNCTION F10039T   298.15  +404205.713+35.7374159*T-32.857*T*LN(T)
       +0.00911365*T**2-1.35405833E-06*T**3+109770*T**(-1);
       900.00  Y  +412790.047-53.8374237*T-19.843*T*LN(T)
       +6.96E-05*T**2-1.30683333E-07*T**3-976410*T**(-1);
      2400.00  Y  +409046.151-49.3274618*T-20.125*T*LN(T)
       -5.6655E-04*T**2-5.29033333E-08*T**3+887590*T**(-1);
      5500.00  Y  +511845.843-358.371229*T+16.811*T*LN(T)
       -0.00616325*T**2+1.00678333E-07*T**3-48193220*T**(-1);
     10000.00  N !
$ Fe2(g)
 FUNCTION F10090T   298.15  +704549.823+89.2549323*T-50.743*T*LN(T)
       +0.00803125*T**2-2.18098667E-06*T**3+169270*T**(-1);
       800.00  Y  +717674.096-87.8134515*T-23.957*T*LN(T)
       -0.0157846*T**2+1.723485E-06*T**3-1006505*T**(-1);
      1700.00  Y  +655211.274+352.671354*T-83.82001*T*LN(T)
       +0.0095931*T**2-2.85336667E-07*T**3+11147285*T**(-1);
      4500.00  Y  +780963.168-41.3623277*T-36.245*T*LN(T)
       +0.00155795*T**2-3.05716667E-08*T**3-51729450*T**(-1);
      6000.00  N !
$ ------------------------------------------------------------------------------
$ H
$
$ H is not included in unary
$
 PAR  G(LIQUID,H),,                     +GHSERHH
             +8035+25*T+2*T*LN(T);,,                                  N 04Qiu !
$
 PAR  G(H2GAS,H2),,                     +GHSERH2+RTLNP;,,             N 97SUB !
$
 PAR  G(GAS,H),,                        +F10383T+RTLNP;,,             N 97SUB !
 PAR  G(GAS,H2),,                       +GHSERH2+RTLNP;,,             N 97SUB !
$
$ H(g)
 FUNCTION F10383T   298.15  +211801.621+24.4989821*T-20.78611*T*LN(T);
      6000.00  N !
$ H2(g)
 FUNCTION GHSERH2   298.15  -9522.9741+78.5273879*T-31.35707*T*LN(T)
       +0.0027589925*T**2-7.46390667E-07*T**3+56582.3*T**(-1);
      1000.00  Y  +180.108664-15.6128256*T-17.84857*T*LN(T)
       -0.00584168*T**2+3.14618667E-07*T**3-1280036*T**(-1);
      2100.00  Y  -18840.1663+92.3120255*T-32.05082*T*LN(T)
       -0.0010728235*T**2+1.14281783E-08*T**3+3561002.5*T**(-1);
      6000.00  N !
 FUNCTION GHSERHH   298.15  +0.5*GHSERH2;                              6000 N !
$ ------------------------------------------------------------------------------
$ Binary system
$
$ M. Zinkevich, N. Mattern, A. Handstein, O. Gutfleisch,
$ J. Alloys Compd., 339, 118-139(2002).
$
$ Checked against paper. Checked at 6000 K (at 1 bar).
$
$ The bcc modelling is scary.
$ The liquid was changed from the 2-sublattice model used by 02Zin to
$ a single sublattice model by refitting an interaction parameter.
$ The hcp parameters were recalculated from the (Fe)1(H,Va)1 model to
$ a (Fe)1(H,Va)0.5 model. Hcp parameters were estimated by 02Zin.
$
 PAR  L(LIQUID,FE,H;0),,                +23853-2*T;,,                 N 11Lob !
$ Original liquid parameter from 02Zin below
$PAR  G(ALT_LIQ,FE:H),,                 +GLIQFE*GHSERHH
$            +28172.583+40.0041662*T;,,                               N 02Zin !
$
 PAR  G(FCC_A1,FE:H),,                  +GFCCFE+GHSERHH
             +25746.7209+48.1250165*T;,,                              N 02Zin !
 PAR  G(BCC_A2,FE:H),,                  +GFEHBCC;,,                   N 02Zin !
$
 PAR  G(GAS,FEH),,                      +F9909T+RTLNP;,,              N 97SUB !
$
$ Metastable
$
 PAR  G(HCP_A3,FE:H),,                  +GHCPFE+0.5*GHSERHH
             -2.88159*T+17000+21.35*T;,,                              N 02Zin !
$ Original hcp parameter from 02Zin below
$PAR  G(ALT_HCP,FE:H),,                 +GHCPFE+GHSERHH
$            +34000+42.7*T;,,                                         N 02Zin !
$PAR  G(CBCC_A12,FE:H),,                +GHSERFE+4745+GHSERHH
$            +25746.7209+48.1250165*T;,,                              N Same !
$PAR  G(CUB_A13,FE:H),,                 +GHSERFE+3745+GHSERHH
$            +25746.7209+48.1250165*T;,,                              N Same !
$
 FUNCTION GFEHBCC   298.15  +GHSERFE+GHSERHH+71098.3995-986.034062*T
       +155.942278*T*LN(T)-0.0894166963*T**2;
      1811.00  Y  +80393.95+16.72144*T;
      6000.00  N !
$ FeH(g)
 FUNCTION F9909T    298.15  +442630.639-68.4861034*T-19.757*T*LN(T)
       -0.0205111*T**2+3.02333E-06*T**3-201435*T**(-1);
       800.00  Y  +428954.737+94.6000613*T-43.964*T*LN(T)
       -0.0012627*T**2+1.17931667E-07*T**3+1260225*T**(-1);
      3800.00  Y  +371347.03+314.724659*T-71.26*T*LN(T)
       +0.00443555*T**2-1.03065E-07*T**3+23894125*T**(-1);
      6000.00  N !
$ ------------------------------------------------------------------------------
$
$
 LIST-OF-REFERENCE
 NUMBER  SOURCE
  Null   'Unknown source'
  Same   'Same or similar interaction as in the corresponding stable phase'
  COST   'COST 507 database'
  91Din  'A.T. Dinsdale, Calphad, 15, 317-425(1991).'
  97SUB  'SGTE substance database, version 1997'
  99SGUN 'SGTE unary database V.4.1, 1999.'
  02Zin  'M. Zinkevich, N. Mattern, A. Handstein, O. Gutfleisch,
          J. Alloys Compd., 339, 118-139(2002); Fe-H'
  04Qiu  'C. Qiu, G.B. Olson, S.M. Opalka, D.L. Anton,
          J. Phase Equilib. Diffus., 25, 520-27(2004); H'
  11Lob  'A. Lob, D. Senk, B. Hallstedt,
          Steel Res. Int., 82, 108-13(2011); Fe-H, Mn-H, Fe-Mn-H'
!
