$
$ Database for Ag-S from C. Shi et al. 2018.
$
$ C. Shi, Y. Du, B. Hu, B. Yang, Y. Pan, F. Guo, S. Liu, Q. Du,
$ Calphad, 62, 207-14(2018).
$
$ Dataset created 2019.03.24 by Bengt Hallstedt.
$ 2020.12.20: Modified for use with GES6.
$
$ Solubility of S in fcc-Ag not modelled.
$
$ There is an inverse miscibility gap with a minimum at 1558 K and x(S)=0.29.
$
$ ------------------------------------------------------------------------------
 TEMP-LIM 298.15 6000.00 !
$
$ELEMENT NAME  REF. STATE               ATOMIC MASS H298-H0    S298    !
$
 ELEMENT VA   VACUUM                      0.0          0.0      0.0    ! 
 ELEMENT AG   FCC_A1                    107.8682    5745.      42.55   ! 
 ELEMENT S    ORTHORHOMBIC_A16           32.06      4412.0     32.07   ! 
$ ------------------------------------------------------------------------------
$ Species
$
 SPECIE  AG2S                               AG2S1 !
$ ------------------------------------------------------------------------------
$ Phase definitions
$
 PHASE LIQUID:L % 1 1 !
 CONST LIQUID:L : AG AG2S S : !
$
$ Fcc (cF4, Fm-3m) and MeX (cF8, Fm-3m)
$
 PHASE FCC_A1 %A 2 1 1 !
 CONST FCC_A1 : AG : VA : !
$
$ Bcc (cI2, Im-3m)
$
 PHASE BCC_A2 %B 2 1 3 !
 CONST BCC_A2 : AG : VA : !
$
$ Hcp (hP2, P6_3/mmc) and Me2X (NiAs-type, hP4, P6_3/mmc, B8_1)
$
 PHASE HCP_A3 %A 2 1 0.5 !
 CONST HCP_A3 : AG : VA: !
$
$ Prototype alpha-S (oF128, Fddd)
$
 PHASE ORTHORHOMBIC_A16 % 1 1 !
 CONST ORTHORHOMBIC_A16 : S : !
$
$ Prototype beta-S (mP48, P2_1/a)
$
 PHASE MONOCLINIC_S % 1 1 !
 CONST MONOCLINIC_S : S : !
$
$ Prototype Ag2S-alpha (mP12, P2_1/c)
$
 PHASE AG2S_ALPHA % 2 2 1 !
 CONST AG2S_ALPHA : AG : S : !
$
$ Prototype Ag2S-beta (cI20, Im-3m)
$
 PHASE AG2S_BETA % 2 2 1 !
 CONST AG2S_BETA : AG% S : S : !
$
$ Prototype Cu2Se-beta (cF44, Fm-3m)
$
 PHASE AG2S_GAMMA % 2 2 1 !
 CONST AG2S_GAMMA : AG% S : S : !
$ ------------------------------------------------------------------------------
$ Defaults
$
 DEFINE-SYSTEM-DEFAULT ELEMENT 2 !
 DEFAULT-COM DEFINE_SYSTEM_ELEMENT VA !
 TYPE-DEF % SEQ * !
 TYPE-DEF A GES AMEND_PHASE_DESCRIPTION @ MAGNETIC -3 0.28 !
 TYPE-DEF B GES AMEND_PHASE_DESCRIPTION @ MAGNETIC -1 0.4 !
 FUNCTION ZERO      298.15  0;                                         6000 N !
 FUNCTION UN_ASS    298.15  0;                                         6000 N !
 FUNCTION R         298.15  +8.31451;                                  6000 N !
$ ------------------------------------------------------------------------------
$ Element data
$ ------------------------------------------------------------------------------
$ Ag
$
$ CUB_A13 added in unary 3.0
$ CUB_A13 revised in unary 4.1
$ BCT_A5 added in unary 4.1
$
 PAR  G(FCC_A1,AG:VA),,                 +GHSERAG;                3000 N 91Din !
 PAR  G(HCP_A3,AG:VA),,                 +GHSERAG+300+0.3*T;      3000 N 91Din !
 PAR  G(BCC_A2,AG:VA),,                 +GHSERAG+3400-1.05*T;    3000 N 91Din !
$PAR  G(CUB_A13,AG:VA),,                +GHSERAG
$            +3765.6-1.8826*T;                                   3000 N 96SGUN !
$PAR  G(CUB_A13,AG:VA),,                +GHSERAG+3400-1.05*T;    3000 N 95Lim !
$PAR  G(BCT_A5,AG:VA),,                 +GHSERAG+4184.1;         3000 N 96Oh !
 PAR  G(LIQUID,AG),,                    +GLIQAG;                 3000 N 91Din !
$
 FUNCTION GHSERAG   298.15  -7209.512+118.202013*T-23.8463314*T*LN(T)
       -0.001790585*T**2-3.98587E-07*T**3-12011*T**(-1);
      1234.93  Y  -15095.252+190.266404*T-33.472*T*LN(T)+1.411773E+29*T**(-9);
      3000.00  N !
 FUNCTION GLIQAG    298.15  +11025.076-8.89102*T+GHSERAG-1.033905E-20*T**7;
      1234.93  Y  -3587.111+180.964656*T-33.472*T*LN(T);
      3000.00  N !
$ ------------------------------------------------------------------------------
$ S
$
$ FCC_A1 and BCC_A2 revised in unary 3.0
$ ORTHORHOMBIC_A16 and LIQUID modified in unary 4.1
$ MONOCLINIC revised in unary 4.1
$ ORTHORHOMBIC_A16 and LIQUID revised in unary 4.4
$
 PAR  G(ORTHORHOMBIC_A16,S),,           +GHSERSS;                1300 N 01SGUN !
$PAR  G(MONOCLINIC,S),,                 +GMONSS;                 1300 N 01SGUN !
$PAR  G(FCC_A1,S:VA),,                  +GHSERSS+105000;         1300 N Sundm !
$PAR  G(FCC_A1,S:VA),,                  +GHSERSS+30000+32*T;     1300 N 91Din !
$PAR  G(BCC_A2,S:VA),,                  +GHSERSS+105000;         1300 N Sundm !
$PAR  G(BCC_A2,S:VA),,                  +GHSERSS+31000+32*T;     1300 N 91Din !
 PAR  G(LIQUID,S),,                     +GLIQSS;                 1300 N 01SGUN !
$
 PAR  G(AG2S_BETA,S:S),,                +3*GHSERSS+36471-5.37*T;,,    N 18Shi !
 PAR  G(AG2S_GAMMA,S:S),,               +3*GHSERSS+26229+72.21*T;,,   N 18Shi !
$
 FUNCTION GHSERSS   298.15  -5198.294+53.913855*T-10.726*T*LN(T)
       -0.0273801*T**2+8.179537E-6*T**3; 
       368.30  Y  -6475.706+94.182332*T-17.8693298*T*LN(T)
       -0.010936877*T**2+1.406467E-6*T**3+36871*T**(-1); 
      1300.00  Y  -12485.546+188.304687*T-32*T*LN(T); 
      1301.00  N !
 FUNCTION GMONSS    298.15  -5725.422+89.544275*T-17.413*T*LN(T)
       -0.00993935*T**2-0.070062E-6*T**3+1250*T**(-1); 
       388.36  Y  -7455.008+114.782945*T-21.1531404*T*LN(T)
       -0.008566163*T**2+1.112484E-6*T**3+122167*T**(-1); 
      1300.00  Y  -11779.415+186.699065*T-32*T*LN(T); 
      1301.00  N !
 FUNCTION GLIQSS    298.15  -4196.575+85.63027*T-17.413*T*LN(T)
       -0.00993935*T**2-0.070062E-6*T**3+1250*T**(-1); 
       335.00  Y  1790361.982-44195.451432*T+7511.6194258*T*LN(T)
       -13.985517511*T**2+4838.738601E-6*T**3-79880891*T**(-1); 
       388.36  Y  -876313.954+23366.872986*T-4028.756*T*LN(T)
       +7.954595*T**2-2908.513333E-6*T**3+33980035*T**(-1); 
       432.25  Y  454088.687-7814.670231*T+1237.001*T*LN(T)
       -1.5607295*T**2+359.883667E-6*T**3-31765395*T**(-1); 
       500.00  Y  18554.561-144.895285*T+16.535*T*LN(T)
       -0.0454119*T**2+8.327402E-6*T**3-2705030*T**(-1); 
       700.00  Y  21243.126-113.298877*T+9.944*T*LN(T)
       -0.0288384*T**2+3.791365E-6*T**3-3507570*T**(-1); 
       900.00  Y  16117.849-32.79523*T-2.425*T*LN(T)
       -0.01712545*T**2+1.84974E-6*T**3-3215170*T**(-1); 
      1300.00  Y  -6461.814+175.590536*T-32*T*LN(T); 
      1301.00  N !
$ ------------------------------------------------------------------------------
$ Binary system
$
$ C. Shi, Y. Du, B. Hu, B. Yang, Y. Pan, F. Guo, S. Liu, Q. Du,
$ Calphad, 62, 207-14(2018).
$
$ Checked against paper. Checked at 6000 K.
$
$ Solubility of S in fcc-Ag not modelled.
$
$ There is an inverse miscibility gap with a minimum at 1558 K and x(S)=0.29.
$
 PAR  G(LIQUID,AG2S),,                  +2*GLIQAG+GLIQSS
             -24814-30.38*T;,,                                        N 18Shi !
 PAR  L(LIQUID,AG,AG2S;0),,             +14740+5.86*T;,,              N 18Shi !
 PAR  L(LIQUID,AG,AG2S;1),,             +31246-19.97*T;,,             N 18Shi !
 PAR  L(LIQUID,AG2S,S;0),,              +69068+3.33*T;,,              N 18Shi !
 PAR  L(LIQUID,AG2S,S;1),,              -62051-17.21*T;,,             N 18Shi !
 PAR  L(LIQUID,AG2S,S;2),,              +26453-57.33*T;,,             N 18Shi !
$
 PAR  G(AG2S_ALPHA,AG:S),,              +2*GHSERAG+GHSERSS
             -32700-28.32*T;,,                                        N 18Shi !
$
 PAR  G(AG2S_BETA,AG:S),,               +2*GHSERAG+GHSERSS
             -31794-30.33*T;,,                                        N 18Shi !
 PAR  L(AG2S_BETA,AG,S:S;0),,           -18300+62.1*T;,,              N 18Shi !
$
 PAR  G(AG2S_GAMMA,AG:S),,              +2*GHSERAG+GHSERSS
             -30900-31.38*T;,,                                        N 18Shi !
 PAR  L(AG2S_GAMMA,AG,S:S;0),,          -19377+214.11*T;,,            N 18Shi !
$ ------------------------------------------------------------------------------
$
$
 LIST-OF-REFERENCE
 NUMBER  SOURCE
  Null   'Unknown source'
  Same   'Same or similar interaction as in the corresponding stable phase'
  Sundm  'Bosse Sundman, unpublished, SGTE unary database V.3.0, 1996; S'
  COST   'COST 507 database'
  91Din  'A.T. Dinsdale, Calphad, 15, 317-425(1991).'
  95Lim  'S.S. Lim, P.L. Rossiter, J.W. Tibballs, Calphad, 19, 131-41(1995),
          SGTE unary database V.4.1, 1999; Ag'
  96Oh   'C.-S. Oh, J.-H. Shim, B.-J. Lee, D.N. Lee,
          J. Alloys Compounds, 238, 155-66(1996),
          SGTE unary database V.4.1, 1999; Ag'
  96SGUN 'SGTE unary database V.3.0, 1996.'
  97SUB  'SGTE substance database, version 1997'
  01SGUN 'SGTE unary database V.4.4, 2001.'
  18Shi  'C. Shi, Y. Du, B. Hu, B. Yang, Y. Pan, F. Guo, S. Liu, Q. Du,
          Calphad, 62, 207-14(2018); Ag-S'
!
