$
$ Database for Am-U from M. Kurata 2010.
$
$ M. Kurata, IOP Conf. Ser.: Mater. Sci. Eng., 9, 012023(2010).
$
$ Dataset created 2019.09.01 by Bengt Hallstedt.
$ 2020.12.22: Modified for use with GES6.
$
$ ------------------------------------------------------------------------------
 TEMP-LIM 298.15 6000.00 !
$
$ELEMENT NAME  REF. STATE               ATOMIC MASS H298-H0    S298    !
$
 ELEMENT VA   VACUUM                      0.0          0.0      0.0    ! 
 ELEMENT AM   DHCP                      243.        6407.00    55.3960 ! 
 ELEMENT U    ORTHORHOMBIC_A20          238.0289    6364.      50.20   ! 
$ ------------------------------------------------------------------------------
$ Phase definitions
$
 PHASE LIQUID:L % 1 1 !
 CONST LIQUID:L : AM U : !
$
$ Fcc (cF4, Fm-3m) and MeX (cF8, Fm-3m), delta
$
 PHASE FCC_A1 %A 2 1 1 !
 CONST FCC_A1 : AM% U : VA : !
$
$ Bcc (cI2, Im-3m), epsilon
$
 PHASE BCC_A2 %B 2 1 3 !
 CONST BCC_A2 : AM% U% : VA : !
$
$ Hcp (hP2, P6_3/mmc) and Me2X (NiAs-type, hP4, P6_3/mmc, B8_1)
$
 PHASE HCP_A3 %A 2 1 0.5 !
 CONST HCP_A3 : AM U : VA : !
$
$ Prototype alpha-La (hP4, P6_3/mmc)
$
 PHASE DHCP % 1 1 !
 CONST DHCP : AM% U : !
$
$ Prototype alpha-U (oC4, Cmcm)
$
 PHASE ORTHORHOMBIC_A20 % 1 1 !
 CONST ORTHORHOMBIC_A20 : AM U% : !
$
$ Prototype beta-U (tP30, P4_2/mnm, SB: A_b)
$
 PHASE TETRAGONAL_U % 1 1 !
 CONST TETRAGONAL_U : AM U% : !
$ ------------------------------------------------------------------------------
$ Defaults
$
 DEFINE-SYSTEM-DEFAULT ELEMENT 2 !
 DEFAULT-COM DEFINE_SYSTEM_ELEMENT VA !
 TYPE-DEF % SEQ * !
 TYPE-DEF A GES AMEND_PHASE_DESCRIPTION @ MAGNETIC -3 0.28 !
 TYPE-DEF B GES AMEND_PHASE_DESCRIPTION @ MAGNETIC -1 0.4 !
 FUNCTION ZERO      298.15  0;                                         6000 N !
 FUNCTION UN_ASS    298.15  0;                                         6000 N !
 FUNCTION R         298.15  +8.31451;                                  6000 N !
$ ------------------------------------------------------------------------------
$ Element data
$ ------------------------------------------------------------------------------
$ Am
$
$ HCP_A3, ORTHO_AC, TETRAG_AD, ALPHA_PU, BETA_PU, GAMMA_PU, TETRAGONAL_A6
$ ORTHORHOMBIC_A20 and TETRAGONAL_U from 10Kur2 not included in unary
$
 PAR  G(DHCP,AM),,                      +GHSERAM;                3000 N 91Din !
 PAR  G(FCC_A1,AM:VA),,                 +GFCCAM;                 3000 N 91Din !
 PAR  G(BCC_A2,AM:VA),,                 +GBCCAM;                 3000 N 91Din !
 PAR  G(HCP_A3,AM:VA),,                 +GHSERAM+5000;           3000 N 10Kur2 !
$PAR  G(ORTHO_AC,AM),,                  +GHSERAM+5000;           3000 N 10Kur2 !
$PAR  G(TETRAG_AD,AM),,                 +GHSERAM+5000;           3000 N 10Kur2 !
$PAR  G(ALPHA_PU,AM),,                  +GHSERAM+5000;           3000 N 10Kur2 !
$PAR  G(BETA_PU,AM),,                   +GHSERAM+5000;           3000 N 10Kur2 !
$PAR  G(GAMMA_PU,AM),,                  +GHSERAM+5000;           3000 N 10Kur2 !
$PAR  G(TETRAGONAL_A6,AM),,             +GHSERAM+5000;           3000 N 10Kur2 !
 PAR  G(ORTHORHOMBIC_A20,AM),,          +GHSERAM+5000;           3000 N 10Kur2 !
 PAR  G(TETRAGONAL_U,AM),,              +GHSERAM+5000;           3000 N 10Kur2 !
 PAR  G(LIQUID,AM),,                    +GHSERAM
             +19910.7-14.1205*T;                                 3000 N 91Din !
$
 FUNCTION GHSERAM   298.15  -6639.201+89.645685*T-21.1868*T*LN(T)
       -0.00559955*T**2-5.41038E-07*T**3-30424*T**(-1);
      1329.00  Y  -21702.938+241.107269*T-41.84*T*LN(T);
      3000.00  N !
 FUNCTION GFCCAM    298.15  -5224.899+99.204329*T-23.1377*T*LN(T)
       -0.00294694*T**2-6.64773E-07*T**3-18507*T**(-1);
      1018.00  Y  -2935.853+73.800069*T-19.4406*T*LN(T)
       -0.005418*T**2-3.75233E-07*T**3-260435*T**(-1);
      1548.70  Y  -476.655+0.246538*T+GHSERAM;
      3000.00  N !
 FUNCTION GBCCAM    298.15  +5973.805-4.531331*T+GHSERAM
       +5E-08*T**2+5E-12*T**3;
       999.00  Y  -7800.332+63.93115*T-15.8832*T*LN(T)
       -0.0190671*T**2+2.291117E-06*T**3+2287195*T**(-1);
      1339.00  Y  -13153.887+219.600832*T-39.748*T*LN(T);
      1449.00  Y  +70352.138-326.394464*T+33.413*T*LN(T)
       -0.02736485*T**2+1.801717E-06*T**3-17379450*T**(-1);
      2183.60  Y  +4777.694-3.740241*T+GHSERAM;
      3000.00  N !
 FUNCTION GLIQAM    298.15  +GHSERAM+19910.7-14.1205*T;                6000 N !
$ ------------------------------------------------------------------------------
$ U
$
$ FCC_A1 and HCP_A3 added in unary 4.1
$
$ HCP_A3 from 04Che not in unary
$ FCC_A1, HCP_A3, ALPHA_PU, BETA_PU, GAMMA_PU and TETRAGONAL_A6 from 10Kur1
$ not included in unary
$ DHCP, ORTHO_AC and TETRAG_AD from 10Kur2 not included in unary
$
 PAR  G(ORTHORHOMBIC_A20,U),,           +GHSERUU;                3000 N 91Din !
 PAR  G(TETRAGONAL_U,U),,               +GTETUU;                 3000 N 91Din !
 PAR  G(BCC_A2,U:VA),,                  +GBCCUU;                 3000 N 91Din !
$PAR  G(FCC_A1,U:VA),,                  +GHSERUU+5000;           3000 N 99SGUN !
 PAR  G(FCC_A1,U:VA),,                  +GBCCUU+5000;            3000 N 10Kur1 !
$PAR  G(HCP_A3,U:VA),,                  +GBCCUU+5000-0.008*T;    3000 N 99SGUN !
$PAR  G(HCP_A3,U:VA),,                  +GHSERUU+50000;          3000 N 04Che3 !
 PAR  G(HCP_A3,U:VA),,                  +GBCCUU+5000;            3000 N 10Kur1 !
 PAR  G(DHCP,U),,                       +GBCCUU+5000;            3000 N 10Kur2 !
$PAR  G(ORTHO_AC,U),,                   +GHSERUU+2814.7;         3000 N 10Kur2 !
$PAR  G(TETRAG_AD,U),,                  +GTETUU+260.4;           3000 N 10Kur2 !
$PAR  G(ALPHA_PU,U),,                   +GHSERUU+5000;           3000 N 10Kur1 !
$PAR  G(BETA_PU,U),,                    +GHSERUU+5000;           3000 N 10Kur1 !
$PAR  G(GAMMA_PU,U),,                   +GHSERUU+5000;           3000 N 10Kur1 !
$PAR  G(TETRAGONAL_A6,U),,              +GBCCUU+5000;            3000 N 10Kur1 !
 PAR  G(LIQUID,U),,                     +GHSERUU
             +12355.5-10.3239*T;                                 3000 N 91Din !
$
 FUNCTION GHSERUU   298.15  -8407.734+130.955151*T-26.9182*T*LN(T)
       +0.00125156*T**2-4.42605E-06*T**3+38568*T**(-1);
       955.00  Y  -22521.8+292.121093*T-48.66*T*LN(T);
      3000.00  N !
 FUNCTION GTETUU    298.15  -5156.136+106.976316*T-22.841*T*LN(T)
       -0.01084475*T**2+2.7889E-08*T**3+81944*T**(-1);
       941.50  Y  -14327.309+244.16802*T-42.9278*T*LN(T);
      3000.00  N !
 FUNCTION GBCCUU    298.15  -752.767+131.5381*T-27.5152*T*LN(T)
       -0.00835595*T**2+9.67907E-07*T**3+204611*T**(-1);
      1049.00  Y  -4698.365+202.685635*T-38.2836*T*LN(T);
      3000.00  N !
 FUNCTION GLIQUU    298.15  +GHSERUU+12355.5-10.3239*T;                3000 N !
$ ------------------------------------------------------------------------------
$ Binary system
$
$ M. Kurata, IOP Conf. Ser.: Mater. Sci. Eng., 9, 012023(2010).
$
$ Checked against paper. Checked at 6000 K.
$
 PAR  L(LIQUID,AM,U;0),,                +50000;,,                     N 10Kur2 !
$
 PAR  L(FCC_A1,AM,U:VA;0),,             +50000;,,                     N 10Kur2 !
 PAR  L(BCC_A2,AM,U:VA;0),,             +50000;,,                     N 10Kur2 !
 PAR  L(DHCP,AM,U;0),,                  +50000;,,                     N 10Kur2 !
 PAR  L(ORTHORHOMBIC_A20,AM,U;0),,      +50000;,,                     N 10Kur2 !
 PAR  L(TETRAGONAL_U,AM,U;0),,          +50000;,,                     N 10Kur2 !
$
$ Metastable
$
 PAR  L(HCP_A3,AM,U:VA;0),,             +50000;,,                     N 10Kur2 !
$ ------------------------------------------------------------------------------
$
$
 LIST-OF-REFERENCE
 NUMBER  SOURCE
  Null   'Unknown source'
  COST   'COST 507 database'
  91Din  'A.T. Dinsdale, Calphad, 15, 317-425(1991).'
  99SGUN 'SGTE unary database V.4.1, 1999.'
  10Kur1 'M. Kurata, IOP Conf. Ser.: Mater. Sci. Eng., 9, 012022(2010); U'
  10Kur2 'M. Kurata, IOP Conf. Ser.: Mater. Sci. Eng., 9, 012023(2010);
          Am, U, Am-U'
!
