$
$ Database for Ce-Pt from X.J. Liu et al. 2011
$
$ X.J. Liu, S.X. Gan, Z.S. Li, Y. Yu, C.P. Wang, Calphad, 35, 551-55(2011).
$
$ Dataset created 2016.10.09 by Bengt Hallstedt.
$ 2020.12.25: Modified for use with GES6.
$
$ The CePt2 interaction parameters have been confused in the paper.
$
$ The decomposition temperature of Ce5Pt4 is 9 K higher than in the paper.
$ Other equilibria involving Ce5Pt4 and CePt5 differ by up to 2 K because
$ of change from fractional to integar compositions.
$
$ There is an inverse miscibility gap with a minimum at 5328 K and x(Pt)=0.93.
$
$ ------------------------------------------------------------------------------
 TEMP-LIM 298.15 6000.00 !
$
$ELEMENT NAME  REF. STATE               ATOMIC MASS H298-H0    S298    !
$
 ELEMENT VA   VACUUM                      0.0          0.0      0.0    ! 
 ELEMENT CE   FCC_A1                    140.12      7280.16    69.454  ! 
 ELEMENT PT   FCC_A1                    195.08      5723.712   41.6308 !
$ ------------------------------------------------------------------------------
$ Phase definitions
$
 PHASE LIQUID:L % 1 1 !
 CONST LIQUID:L : CE PT : !
$
$ Fcc (cF4, Fm-3m) and MeX (cF8, Fm-3m)
$
 PHASE FCC_A1 %A 2 1 1 !
 CONST FCC_A1 : CE% PT% : VA : !
$
$ Bcc (cI2, Im-3m)
$
 PHASE BCC_A2 %B 2 1 3 !
 CONST BCC_A2 : CE% PT : VA : !
$
$ Hcp (hP2, P6_3/mmc) and Me2X (NiAs-type, hP4, P6_3/mmc, B8_1)
$
 PHASE HCP_A3 %A 2 1 0.5 !
 CONST HCP_A3 : CE PT : VA : !
$
$ Prototype Fe3Th7 (hP20, P6_3mc)
$
 PHASE CE7PT3_D102 % 2 7 3 !
 CONST CE7PT3_D102 : CE : PT : !
$
$ Prototype Pu5Rh3 (tP32, P4/ncc)
$
 PHASE CE5PT3 % 2 0.615 0.385 !
 CONST CE5PT3 : CE% PT : CE PT% : !
$
$ Prototype Er3Ni2 (hR15, R-3)
$
 PHASE CE3PT2 % 2 3 2 !
 CONST CE3PT2 : CE : PT : !
$
$ Prototype Ge4Sm5 (oP36, Pnma)
$
 PHASE CE5PT4 % 2 5 4 !
 CONST CE5PT4 : CE : PT : !
$
$ Prototype CrB (oC8, Cmcm)
$
 PHASE CEPT_B33 % 2 1 1 !
 CONST CEPT_B33 : CE : PT : !
$
$ Prototype Pd4Pu3 (hR14, R-3)
$
 PHASE CE3PT4 % 2 3 4 !
 CONST CE3PT4 : CE : PT : !
$
$ Prototype Cu2Mg (cF24, Fd-3m)
$
 PHASE CEPT2_C15 % 2 0.325 0.675 !
 CONST CEPT2_C15 : CE% PT : CE PT% : !
$
$ Unknown structure
$
 PHASE CE18PT82 % 2 0.18 0.82 !
 CONST CE18PT82 : CE : PT : !
$
$ Prototype CaCu5 (hP6, P6/mmm)
$
 PHASE CEPT5_D2D % 2 1 5 !
 CONST CEPT5_D2D : CE : PT : !
$ ------------------------------------------------------------------------------
$ Defaults
$
 DEFINE-SYSTEM-DEFAULT ELEMENT 2 !
 DEFAULT-COM DEFINE_SYSTEM_ELEMENT VA !
 TYPE-DEF % SEQ * !
 TYPE-DEF A GES AMEND_PHASE_DESCRIPTION @ MAGNETIC -3 0.28 !
 TYPE-DEF B GES AMEND_PHASE_DESCRIPTION @ MAGNETIC -1 0.4 !
 FUNCTION ZERO      298.15  0;                                         6000 N !
 FUNCTION UN_ASS    298.15  0;                                         6000 N !
 FUNCTION R         298.15  +8.31451;                                  6000 N !
$ ------------------------------------------------------------------------------
$ Element data
$ ------------------------------------------------------------------------------
$ Ce
$
$ HCP_A3 and DHCP added in unary 3.0
$ HCP_A3 and DHCP revised in unary 4.4
$
 PAR  G(FCC_A1,CE:VA),,                 +GHSERCE;                4000 N 91Din !
 PAR  G(BCC_A2,CE:VA),,                 +GBCCCE;                 4000 N 91Din !
 PAR  G(HCP_A3,CE:VA),,                 +GHSERCE+300;            4000 N Frank !
$PAR  G(HCP_A3,CE:VA),,                 +GHSERCE+50000;          4000 N 96SGUN !
$PAR  G(DHCP,CE:VA),,                   +GHSERCE
$            -122.539+0.433*T;                                   4000 N 99Gsc !
$PAR  G(DHCP,CE),,                      +GHSERCE-190+0.56886*T;  4000 N 96SGUN !
 PAR  G(LIQUID,CE),,                    +GLIQCE;                 4000 N 91Din !
$
 PAR  G(CE5PT3,CE:CE),,                 +GHSERCE+13600+17*T;,,        N 11Liu !
 PAR  G(CEPT2_C15,CE:CE),,              +GHSERCE+68000+20*T;,,        N 11Liu !
$
 FUNCTION GHSERCE   298.15  -7160.519+84.23022*T-22.3664*T*LN(T)
       -0.0067103*T**2-3.20773E-07*T**3-18117*T**(-1);
      1000.00  Y  -79678.506+659.4604*T-101.32248*T*LN(T)
       +0.026046487*T**2-1.930297E-06*T**3+11531707*T**(-1);
      2000.00  Y  -14198.639+190.370192*T-37.6978*T*LN(T);
      4000.00  N !
 FUNCTION GBCCCE    298.15  -1354.69-5.21501*T-7.7305867*T*LN(T)
       -0.029098402*T**2+4.784299E-06*T**3-196303*T**(-1);
      1000.00  Y  -12101.106+187.449688*T-37.6142*T*LN(T);
      1072.00  Y  -11950.375+186.333811*T-37.4627992*T*LN(T)
       -5.7145E-05*T**2+2.348E-09*T**3-25897*T**(-1);
      4000.00  N !
 FUNCTION GLIQCE    298.15  +4117.865-11.423898*T-7.5383948*T*LN(T)
       -0.02936407*T**2+4.827734E-06*T**3-198834*T**(-1);
      1000.00  Y  -6730.605+183.023193*T-37.6978*T*LN(T);
      4000.00  N !
$ ------------------------------------------------------------------------------
$ Pt
$
 PAR  G(FCC_A1,PT:VA),,                 +GHSERPT;                4000 N 91Din !
 PAR  G(BCC_A2,PT:VA),,                 +GHSERPT+15000-2.4*T;    4000 N 91Din !
 PAR  G(HCP_A3,PT:VA),,                 +GHSERPT+2500+0.1*T;     4000 N 91Din !
 PAR  G(LIQUID,PT),,                    +GLIQPT;                 4000 N 91Din !
$
 PAR  G(CE5PT3,PT:PT),,                 +GHSERPT+3000;,,              N 11Liu !
 PAR  G(CEPT2_C15,PT:PT),,              +GHSERPT+45000;,,             N 11Liu !
$
 FUNCTION GHSERPT   298.15  -7595.631+124.388275*T-24.5526*T*LN(T)
       -0.00248297*T**2-2.0138E-08*T**3+7974*T**(-1);
      1300.00  Y  -9253.174+161.529615*T-30.2527*T*LN(T)
       +0.002321665*T**2-6.56946E-07*T**3-272106*T**(-1);
      2041.50  Y  -222048.216+1019.35892*T-136.192996*T*LN(T)
       +0.020454938*T**2-7.59259E-07*T**3+71539020*T**(-1);
      4000.00  N !
 FUNCTION GLIQPT    298.15  +20114.016-9.275183*T+GHSERPT;
       600.00  Y  +19023.491+32.94182*T-12.3403769*T*LN(T)
       -0.011551507*T**2+9.31516E-07*T**3-601426*T**(-1);
      2041.50  Y  +1404.468+205.858962*T-36.5*T*LN(T);
      4000.00  N !
 FUNCTION GBCCPT    298.15  +GHSERPT+15000-2.4*T;                      6000 N !
$ ------------------------------------------------------------------------------
$ Binary system
$
$ X.J. Liu, S.X. Gan, Z.S. Li, Y. Yu, C.P. Wang, Calphad, 35, 551-55(2011).
$
$ Checked against paper and author's tdb. Checked at 6000 K.
$
$ The CePt2 interaction parameters have been confused in the paper.
$
$ The decomposition temperature of Ce5Pt4 is 9 K higher than in the paper.
$ Other equilibria involving Ce5Pt4 and CePt5 differ by up to 2 K because
$ of change from fractional to integar compositions.
$
$ There is an inverse miscibility gap with a minimum at 5328 K and x(Pt)=0.93.
$
 PAR  L(LIQUID,CE,PT;0),,               -370000+20*T;,,               N 11Liu !
 PAR  L(LIQUID,CE,PT;1),,               +135500-20.1*T;,,             N 11Liu !
 PAR  L(LIQUID,CE,PT;2),,               +10000+30.2*T;,,              N 11Liu !
 PAR  L(LIQUID,CE,PT;3),,               -23600;,,                     N 11Liu !
$
 PAR  L(FCC_A1,CE,PT:VA;0),,            -205000+10*T;,,               N 11Liu !
 PAR  L(BCC_A2,CE,PT:VA;0),,            -232000+20.4*T;,,             N 11Liu !
$
 PAR  G(CE7PT3_D102,CE:PT),,            +7*GHSERCE+3*GHSERPT
             -749200+80.4*T;,,                                        N 11Liu !
$
 PAR  G(CE5PT3,CE:PT),,                 +0.615*GHSERCE+0.385*GHSERPT
             -88000+5.997*T;,,                                        N 11Liu !
 PAR  G(CE5PT3,PT:CE),,                 +ZERO;,,                      N 11Liu !
 PAR  L(CE5PT3,CE,PT:PT;0),,            -120000;,,                    N 11Liu !
 PAR  L(CE5PT3,CE:CE,PT;0),,            -43690+9.5*T;,,               N 11Liu !
$
 PAR  G(CE3PT2,CE:PT),,                 +3*GHSERCE+2*GHSERPT
             -450000+27.69*T;,,                                       N 11Liu !
 PAR  G(CE5PT4,CE:PT),,                 +5*GHSERCE+4*GHSERPT
             -850140+34.1631*T;,,                                     N 11Liu !
 PAR  G(CEPT_B33,CE:PT),,               +GHSERCE+GHSERPT
             -205600+8.33*T;,,                                        N 11Liu !
 PAR  G(CE3PT4,CE:PT),,                 +3*GHSERCE+4*GHSERPT
             -695401+20.44*T;,,                                       N 11Liu !
$
$ Incorrect factor before GHSERPT from author's tdb
 PAR  G(CEPT2_C15,CE:PT),,              +0.325*GHSERCE+0.685*GHSERPT
             -90600+1.945*T;,,                                        N 11Liu !
 PAR  G(CEPT2_C15,PT:CE),,              +ZERO;,,                      N 11Liu !
 PAR  L(CEPT2_C15,CE,PT:PT;0),,         -140210+21*T;,,               N 11Liu !
 PAR  L(CEPT2_C15,CE:CE,PT;0),,         -237000+20*T;,,               N 11Liu !
$
 PAR  G(CE18PT82,CE:PT),,               +0.18*GHSERCE+0.82*GHSERPT
             -74165+6.301*T;,,                                        N 11Liu !
 PAR  G(CEPT5_D2D,CE:PT),,              +GHSERCE+5*GHSERPT
             -426600+38.46*T;,,                                       N 11Liu !
$
$ Metastable
$
 PAR  L(HCP_A3,CE,PT:VA;0),,            -205000+10*T;,,               N Same !
$ ------------------------------------------------------------------------------
$
$
 LIST-OF-REFERENCE
 NUMBER  SOURCE
  Null   'Unknown source'
  Same   'Same or similar interaction as in the corresponding stable phase'
  REFLAV 'Laves phase convention: G(LAVES,X:X)=+3*GHSERXX+15000'
  Frank  'Peter Franke, unpublished, SGTE unary database V.4.4, 2001; Ce'
  91Din  'A.T. Dinsdale, Calphad, 15, 317-425(1991).'
  96SGUN 'SGTE unary database V.3.0, 1996.'
  99Gsc  'K.A. Gschneidner, Jr., V.K. Pecharsky, J. Phase Equilib.,
          20, 612-14(1999), SGTE unary database V.4.4, 2001; Ce'
  06Su   'X. Su, J.-C. Tedenac, Calphad, 30, 455-60(2006); Ce-Fe'
  11Liu  'X.J. Liu, S.X. Gan, Z.S. Li, Y. Yu, C.P. Wang,
          Calphad, 35, 551-55(2011); Ce-Pt'
!
