$
$ Database for Ag-Pr from F. Yin et al. 2000.
$
$ F. Yin, X. Su, Z. Li, P. Zhang, M. Huang, Y. Shi,
$ J. Alloys Compd., 307, 202-6(2000).
$
$ Dataset created 2021.10.16 by Bengt Hallstedt.
$
$ 00Yin set G(DHCP,AG) and G(FCC_A1,PR:VA) to zero, which makes no sense.
$ Since dhcp-Pr is shown with some solubility in the paper, these "lattice
$ stabilities" are kept together with the interactions from the paper.
$
$ The bcc = L + dhcp equilibrium is at 905 K instead of 919 K, but other
$ invariant equilibria are reproduced.
$
$ ------------------------------------------------------------------------------
 TEMP-LIM 298.15 6000.00 !
$
$ELEMENT NAME  REF. STATE               ATOMIC MASS H298-H0    S298    !
$
 ELEMENT VA   VACUUM                      0.0          0.0      0.0    ! 
 ELEMENT AG   FCC_A1                    107.8682    5745.      42.55   ! 
 ELEMENT PR   DHCP                      140.9077    7418.232   73.9313 ! 
$ ------------------------------------------------------------------------------
$ Phase definitions
$
 PHASE LIQUID:L % 1 1 !
 CONST LIQUID:L : AG PR : !
$
$ Fcc (cF4, Fm-3m) and MeX (cF8, Fm-3m)
$
 PHASE FCC_A1 %A 2 1 1 !
 CONST FCC_A1 : AG% PR : VA : !
$
$ Bcc (cI2, Im-3m)
$
 PHASE BCC_A2 %B 2 1 3 !
 CONST BCC_A2 : AG PR% : VA : !
$
$ Hcp (hP2, P6_3/mmc) and Me2X (NiAs-type, hP4, P6_3/mmc, B8_1)
$
 PHASE HCP_A3 %A 2 1 0.5 !
 CONST HCP_A3 : AG : VA : !
$
$ Prototype alpha-La (hP4, P6_3/mmc)
$
 PHASE DHCP % 1 1 !
 CONST DHCP : AG PR% : !
$
$ unknown structure
$
 PHASE AG5PR % 2 5 1 !
 CONST AG5PR : AG : PR : !
$
$ Prototype Ag51Gd14 (hP68, P6/m)
$
 PHASE AG51PR14 % 2 51 14 !
 CONST AG51PR14 : AG : PR : !
$
$ Prototype Hg2K (oI12, Imma)
$
 PHASE AG2PR % 2 2 1 !
 CONST AG2PR : AG : PR : !
$
$ Prototype CsCl (cP2, Pm-3m)
$
 PHASE AGPR_B2 % 2 1 1 !
 CONST AGPR_B2 : AG : PR : !
$ ------------------------------------------------------------------------------
$ Defaults
$
 DEFINE-SYSTEM-DEFAULT ELEMENT 2 !
 DEFAULT-COM DEFINE_SYSTEM_ELEMENT VA !
 TYPE-DEF % SEQ * !
 TYPE-DEF A GES AMEND_PHASE_DESCRIPTION @ MAGNETIC -3 0.28 !
 TYPE-DEF B GES AMEND_PHASE_DESCRIPTION @ MAGNETIC -1 0.4 !
 FUNCTION ZERO      298.15  0;                                         6000 N !
 FUNCTION UN_ASS    298.15  0;                                         6000 N !
 FUNCTION R         298.15  +8.31451;                                  6000 N !
$ ------------------------------------------------------------------------------
$ Element data
$ ------------------------------------------------------------------------------
$ Ag
$
$ CUB_A13 added in unary 3.0
$ CUB_A13 revised in unary 4.1
$ BCT_A5 added in unary 4.1
$
 PAR  G(FCC_A1,AG:VA),,                 +GHSERAG;                3000 N 91Din !
 PAR  G(HCP_A3,AG:VA),,                 +GHSERAG+300+0.3*T;      3000 N 91Din !
 PAR  G(BCC_A2,AG:VA),,                 +GHSERAG+3400-1.05*T;    3000 N 91Din !
$PAR  G(CUB_A13,AG:VA),,                +GHSERAG+3400-1.05*T;    3000 N 95Lim !
$PAR  G(CUB_A13,AG:VA),,                +GHSERAG
$            +3765.6-1.8826*T;                                   3000 N 96SGUN !
$PAR  G(BCT_A5,AG:VA),,                 +GHSERAG+4184.1;         3000 N 96Oh !
 PAR  G(DHCP,AG),,                      +ZERO;                   3000 N 00Yin !
 PAR  G(LIQUID,AG),,                    +GLIQAG;                 3000 N 91Din !
$
 FUNCTION GHSERAG   298.15  -7209.512+118.202013*T-23.8463314*T*LN(T)
       -0.001790585*T**2-3.98587E-07*T**3-12011*T**(-1);
      1234.93  Y  -15095.252+190.266404*T-33.472*T*LN(T)+1.411773E+29*T**(-9);
      3000.00  N !
 FUNCTION GLIQAG    298.15  +11025.076-8.89102*T+GHSERAG-1.033905E-20*T**7;
      1234.93  Y  -3587.111+180.964656*T-33.472*T*LN(T);
      3000.00  N !
$ ------------------------------------------------------------------------------
$ Pr
$
 PAR  G(DHCP,PR),,                      +GHSERPR;                3800 N 91Din !
 PAR  G(BCC_A2,PR:VA),,                 +GBCCPR;                 3800 N 91Din !
 PAR  G(FCC_A1,PR:VA),,                 +ZERO;                   3800 N 00Yin !
 PAR  G(LIQUID,PR),,                    +GLIQPR;                 3800 N 91Din !
$
 FUNCTION GHSERPR   298.15  -18803.379+356.587384*T-68.9176*T*LN(T)
       +0.072929*T**2-2.5184333E-05*T**3+507385*T**(-1);
       500.00  Y  -7246.848+82.427384*T-22.8909*T*LN(T)
       -0.00497126*T**2-1.22951E-06*T**3;
       800.00  Y  +95411.023-1073.55111*T+146.764*T*LN(T)
       -0.1288205*T**2+1.5592233E-05*T**3-11588800*T**(-1);
      1068.00  Y  -481663.131+4234.33311*T-606.120311*T*LN(T)
       +0.305181506*T**2-3.0994702E-05*T**3+70926840*T**(-1);
      1204.00  Y  -20014.678+227.685155*T-42.9697*T*LN(T);
      3800.00  N !
 FUNCTION GBCCPR    298.15  -2863.651+28.274853*T-13.7470527*T*LN(T)
       -0.02284377*T**2+3.542468E-06*T**3-87486*T**(-1);
      1068.00  Y  -11985.919+188.657121*T-38.451*T*LN(T);
      1204.00  Y  +953.224+100.826281*T-26.6824313*T*LN(T)
       -0.004106833*T**2+1.76214E-07*T**3-2473024*T**(-1);
      3800.00  N !
 FUNCTION GLIQPR    298.15  +3848.961-29.099465*T-4.7344931*T*LN(T)
       -0.035119723*T**2+5.427467E-06*T**3-207406*T**(-1);
      1068.00  Y  -10539.574+219.508805*T-42.9697*T*LN(T);
      3800.00  N !
$ ------------------------------------------------------------------------------
$ Binary system
$
$ F. Yin, X. Su, Z. Li, P. Zhang, M. Huang, Y. Shi,
$ J. Alloys Compd., 307, 202-6(2000).
$
$ Checked against paper. Checked at 6000 K.
$
$ 00Yin set G(DHCP,AG) and G(FCC_A1,PR:VA) to zero, which makes no sense.
$ Since dhcp-Pr is shown with some solubility in the paper, these "lattice
$ stabilities" are kept together with the interactions from the paper.
$
$ The bcc = L + dhcp equilibrium is at 905 K instead of 919 K, but other
$ invariant equilibria are reproduced.
$
 PAR  L(LIQUID,AG,PR;0),,               -82331+18.78*T;,,             N 00Yin !
 PAR  L(LIQUID,AG,PR;1),,               -30566+4.926*T;,,             N 00Yin !
$
 PAR  L(FCC_A1,AG,PR:VA;0),,            -116975;,,                    N 00Yin !
 PAR  L(FCC_A1,AG,PR:VA;1),,            +634.509;,,                   N 00Yin !
$
 PAR  L(BCC_A2,AG,PR:VA;0),,            -32115;,,                     N 00Yin !
$
 PAR  L(DHCP,AG,PR;0),,                 -92966+4.538*T;,,             N 00Yin !
 PAR  L(DHCP,AG,PR;1),,                 -97228+75.328*T;,,            N 00Yin !
$
 PAR  G(AG5PR,AG:PR),,                  +5*GHSERAG+GHSERPR
             -128359+35.765*T;,,                                      N 00Yin !
 PAR  G(AG51PR14,AG:PR),,               +51*GHSERAG+14*GHSERPR
             -1380994+138.844*T;,,                                    N 00Yin !
 PAR  G(AG2PR,AG:PR),,                  +2*GHSERAG+GHSERPR
             -66395+4.233*T;,,                                        N 00Yin !
 PAR  G(AGPR_B2,AG:PR),,                +GHSERAG+GHSERPR
             -47159+2.742*T;,,                                        N 00Yin !
$ ------------------------------------------------------------------------------
$
$
 LIST-OF-REFERENCE
 NUMBER  SOURCE
  Null   'Unknown source'
  Same   'Same or similar interaction as in the corresponding stable phase'
  COST   'COST 507 database'
  91Din  'A.T. Dinsdale, Calphad, 15, 317-425(1991).'
  95Lim  'S.S. Lim, P.L. Rossiter, J.W. Tibballs, Calphad, 19, 131-41(1995),
          SGTE unary database V.4.1, 1999; Ag'
  96Oh   'C.-S. Oh, J.-H. Shim, B.-J. Lee, D.N. Lee,
          J. Alloys Compounds, 238, 155-66(1996),
          SGTE unary database V.4.1, 1999; Ag'
  96SGUN 'SGTE unary database V.3.0, 1996.'
  00Yin  'F. Yin, X. Su, Z. Li, P. Zhang, M. Huang, Y. Shi,
          J. Alloys Compd., 307, 202-6(2000); Ag-Pr'
!
