$
$ Database for Nb-P from T. Tokunaga et al., 2009
$
$ T. Tokunaga, N. Hanaya, H. Ohtani, M. Hasebe, ISIJ Int., 49, 947-56(2009).
$
$ Dataset created 2018.12.15 by Bengt Hallstedt.
$ 2021.01.31: Modified for use with GES6.
$
$ Too large temperature dependence for the phosphides.
$
$ ------------------------------------------------------------------------------
 TEMP-LIM 298.15 6000.00 !
$
$ELEMENT NAME  REF. STATE               ATOMIC MASS H298-H0    S298    !
$
 ELEMENT VA   VACUUM                      0.0          0.0      0.0    ! 
 ELEMENT NB   BCC_A2                     92.9064    5220.0     36.27   ! 
 ELEMENT P    WHITE_P                    30.97376   5360.0     41.09   ! 
$ ------------------------------------------------------------------------------
$ Phase definitions
$
 PHASE LIQUID:L % 1 1 !
 CONST LIQUID:L : NB P : !
$
$ Fcc (cF4, Fm-3m) and MeX (cF8, Fm-3m)
$
 PHASE FCC_A1 %A 2 1 1 !
 CONST FCC_A1 : NB P : VA : !
$
$ Bcc (cI2, Im-3m)
$
 PHASE BCC_A2 %B 2 1 3 !
 CONST BCC_A2 : NB% P : VA : !
$
$ Hcp (hP2, P6_3/mmc) and Me2X (NiAs-type, hP4, P6_3/mmc, B8_1)
$
 PHASE HCP_A3 %A 2 1 0.5 !
 CONST HCP_A3 : NB P : VA : !
$
$ Crystal structure seems not to be well defined
$
 PHASE WHITE_P % 1 1 !
 CONST WHITE_P : P : !
$
$ Crystal structure seems not to be well defined
$
 PHASE RED_P % 1 1 !
 CONST RED_P : P : !
$
$ Prototype Ti3P (tP32, P4_2/n)
$
 PHASE NB3P % 2 3 1 !
 CONST NB3P : NB : P : !
$
$ Prototype Nb7P4 (mC44, C2/m)
$
 PHASE NB7P4 % 2 7 4 !
 CONST NB7P4 : NB : P : !
$
$ Prototype NbAs (tI8, I4_1md)
$
 PHASE NBP % 2 1 1 !
 CONST NBP : NB : P : !
$
$ Prototype Ge2Os (mC12, C2/m)
$
 PHASE NBP2 % 2 1 2 !
 CONST NBP2 : NB : P : !
$ ------------------------------------------------------------------------------
$ Defaults
$
 DEFINE-SYSTEM-DEFAULT ELEMENT 2 !
 DEFAULT-COM DEFINE_SYSTEM_ELEMENT VA !
 TYPE-DEF % SEQ * !
 TYPE-DEF A GES AMEND_PHASE_DESCRIPTION @ MAGNETIC -3 0.28 !
 TYPE-DEF B GES AMEND_PHASE_DESCRIPTION @ MAGNETIC -1 0.4 !
 FUNCTION ZERO      298.15  0;                                         6000 N !
 FUNCTION UN_ASS    298.15  0;                                         6000 N !
 FUNCTION R         298.15  +8.31451;                                  6000 N !
$ ------------------------------------------------------------------------------
$ Element data
$ ------------------------------------------------------------------------------
$ Nb
$
 PAR  G(BCC_A2,NB:VA),,                 +GHSERNB;,,                   N 91Din !
 PAR  G(FCC_A1,NB:VA),,                 +GHSERNB+13500+1.7*T;,,       N 91Din !
 PAR  G(HCP_A3,NB:VA),,                 +GHSERNB+10000+2.4*T;,,       N 91Din !
 PAR  G(LIQUID,NB),,                    +GLIQNB;,,                    N 91Din !
$
 FUNCTION GHSERNB   298.15  -8519.353+142.045475*T-26.4711*T*LN(T)
       +2.03475E-04*T**2-3.5012E-07*T**3+93399*T**(-1);
      2750.00  Y  -37669.3+271.720843*T-41.77*T*LN(T)+1.528238E+32*T**(-9);
      6000.00  N !
 FUNCTION GLIQNB    298.15  +29781.555-10.816418*T+GHSERNB-3.06098E-23*T**7;
      2750.00  Y  -7499.398+260.756148*T-41.77*T*LN(T);
      6000.00  N !
$ ------------------------------------------------------------------------------
$ P
$
$ RHOMBOHEDRAL_A7 added in unary 4.4
$
 PAR  G(WHITE_P,P)              250.00  +GHSERPP;                3000 N 91Din !
 PAR  G(RED_P,P)                250.00  +GREDPP;                 3000 N 91Din !
 PAR  G(FCC_A1,P:VA)            250.00  +GREDPP+36819-13.138*T;  3000 N 91Din !
 PAR  G(BCC_A2,P:VA)            250.00  +GREDPP+44768.8-13.26*T; 3000 N 91Din !
$PAR  G(RHOMBOHEDRAL_A7,P)      250.00  +GHSERPP-188+0.12527*T;  3000 N 01SGUN !
 PAR  G(LIQUID,P)               250.00  +GLIQPP;                 3000 N 91Din !
$
 FUNCTION GHSERPP   250.00  -43821.799+1026.69389*T-178.426*T*LN(T)
       +0.290708*T**2-1.04022667E-04*T**3+1632695*T**(-1);
       317.30  Y  -9587.448+152.341487*T-28.7335301*T*LN(T)
       +0.001715669*T**2-2.2829E-07*T**3+172966*T**(-1);
      1000.00  Y  -8093.075+135.876831*T-26.326*T*LN(T);
      3000.00  N !
 FUNCTION GREDPP    250.00  -25976.559+148.672002*T-25.55*T*LN(T)
       +0.0034121*T**2-2.418867E-06*T**3+160095*T**(-1);
       500.00  Y  -21723.721+77.671737*T-14.368*T*LN(T)
       -0.00957685*T**2+3.93917E-07*T**3-141375*T**(-1);
       852.35  Y  -119408.413+1026.02962*T-149.449556*T*LN(T)
       +0.067272364*T**2-6.651929E-06*T**3+12495943*T**(-1);
      1500.00  Y  -16431.044+17.96235*T+GHSERPP;
      3000.00  N !
 FUNCTION GLIQPP    250.00  -26316.111+434.930931*T-70.7440584*T*LN(T)
       -0.002898936*T**2+3.9049371E-05*T**3+1141147*T**(-1);
       317.30  Y  -7232.449+133.291873*T-26.326*T*LN(T);
      3000.00  N !
$ ------------------------------------------------------------------------------
$ Binary system
$
$ T. Tokunaga, N. Hanaya, H. Ohtani, M. Hasebe, ISIJ Int., 49, 947-56(2009).
$
$ Checked against paper. Checked at 6000 K.
$
$ Too large temperature dependence for the phosphides.
$
 PAR  L(LIQUID,NB,P;0),,                -350000+20*T;,,               N 09Tok !
 PAR  L(LIQUID,NB,P;1),,                +70000;,,                     N 09Tok !
$
 PAR  L(BCC_A2,NB,P:VA;0),,             -328900+12.49*T;,,            N 09Tok !
 PAR  L(BCC_A2,NB,P:VA;1),,             +128100-16.36*T;,,            N 09Tok !
$
 PAR  G(NB3P,NB:P),,                    +3*GHSERNB+GHSERPP
             -314800+80*T;,,                                          N 09Tok !
 PAR  G(NB7P4,NB:P),,                   +7*GHSERNB+4*GHSERPP
             -1213300+240*T;,,                                        N 09Tok !
 PAR  G(NBP,NB:P),,                     +GHSERNB+GHSERPP
             -260800+43.2*T;,,                                        N 09Tok !
 PAR  G(NBP2,NB:P),,                    +GHSERNB+2*GHSERPP
             -330300+65*T;,,                                          N 09Tok !
$
$ Metastable
$
 PAR  L(FCC_A1,NB,P:VA;0),,             -328900+12.49*T;,,            N Same !
 PAR  L(FCC_A1,NB,P:VA;1),,             +128100-16.36*T;,,            N Same !
$
 PAR  L(HCP_A3,NB,P:VA;0),,             -328900+12.49*T;,,            N Same !
 PAR  L(HCP_A3,NB,P:VA;1),,             +128100-16.36*T;,,            N Same !
$ ------------------------------------------------------------------------------
$
$
 LIST-OF-REFERENCE
 NUMBER  SOURCE
  Null   'Unknown source'
  Same   'Same or similar interaction as in the corresponding stable phase'
  REFLAV 'Laves phase convention: G(LAVES,X:X)=+3*GHSERXX+15000'
  91Din  'A.T. Dinsdale, Calphad, 15, 317-425(1991).'
  01SGUN 'SGTE unary database V.4.4, 2001.'
  06Slu  'M.H.F. Sluiter, Calphad, 30, 357-44(2006); Nb'
  09Tok  'T. Tokunaga, N. Hanaya, H. Ohtani, M. Hasebe,
          ISIJ Int., 49, 947-56(2009); Nb-P'
!
