$
$ Database for Sn-Se from Y. Feutelais et al. 1996 (included in LB Vol. 4)
$
$ Y. Feutelais, M. Majid, B. Legendre, S.G. Fries,
$ J. Phase Equilib., 17, 40-49(1996).
$
$ Dataset created 2016.03.24 by Bengt Hallstedt.
$ 2021.02.05: Modified for use with GES6.
$
$ ------------------------------------------------------------------------------
 TEMP-LIM 298.15 6000.00 !
$
$ELEMENT NAME  REF. STATE               ATOMIC MASS H298-H0    S298    !
$
 ELEMENT VA   VACUUM                      0.0          0.0      0.0    ! 
 ELEMENT SE   HEXAGONAL_A8               78.96      5514.512   41.9655 ! 
 ELEMENT SN   BCT_A5                    118.69      6323.      51.18   ! 
$ ------------------------------------------------------------------------------
$ Species
$
 SPECIE  SNSE                               SN1SE1 !
$ ------------------------------------------------------------------------------
$ Phase definitions
$
 PHASE LIQUID:L % 1 1 !
 CONST LIQUID:L : SE SN SNSE : !
$
$ Prototype C (cF8, Fd-3m)
$
 PHASE DIAMOND_A4 % 1 1 !
 CONST DIAMOND_A4 : SN : !
$
$ Prototype beta-Sn (tI4, I4_1/amd)
$
 PHASE BCT_A5 % 1 1 !
 CONST BCT_A5 : SN : !
$
$ Prototype gamma-Se (hP3, P3_121)
$
 PHASE HEXAGONAL_A8 % 1 1 !
 CONST HEXAGONAL_A8 : SE : !
$
$ Prototype GeS (oP8, Pnma)
$
 PHASE SNSE_B16 % 2 1 1 !
 CONST SNSE_B16 : SN : SE : !
$
$ Prototype CrB (oC8, Cmcm)
$
 PHASE SNSE_B33 % 2 1 1 !
 CONST SNSE_B33 : SN : SE : !
$
$ Prototype CdI2 (hP3, P-3m1)
$
 PHASE SNSE2_C6 % 2 1 2 !
 CONST SNSE2_C6 : SN : SE : !
$ ------------------------------------------------------------------------------
$ Defaults
$
 DEFINE-SYSTEM-DEFAULT ELEMENT 2 !
 DEFAULT-COM DEFINE_SYSTEM_ELEMENT VA !
 TYPE-DEF % SEQ * !
 TYPE-DEF A GES AMEND_PHASE_DESCRIPTION @ MAGNETIC -3 0.28 !
 TYPE-DEF B GES AMEND_PHASE_DESCRIPTION @ MAGNETIC -1 0.4 !
 FUNCTION ZERO      298.15  0;                                         6000 N !
 FUNCTION UN_ASS    298.15  0;                                         6000 N !
 FUNCTION R         298.15  +8.31451;                                  6000 N !
$ ------------------------------------------------------------------------------
$ Element data
$ ------------------------------------------------------------------------------
$ Se
$
 PAR  G(HEXAGONAL_A8,SE),,              +GHSERSE;                1000 N 91Din !
 PAR  G(LIQUID,SE),,                    +GLIQSE;                 1000 N 91Din !
$
 FUNCTION GHSERSE   298.15  -9376.371+174.205877*T-33.6527*T*LN(T)
       +0.02424314*T**2-1.5318461E-05*T**3+102249*T**(-1);
       494.00  Y  -37546.134+507.111538*T-81.2006585*T*LN(T)
       +0.037144892*T**2-5.611026E-06*T**3+2614263*T**(-1);
       800.00  Y  -12193.47+197.770166*T-35.1456*T*LN(T);
      1000.00  N !
 FUNCTION GLIQSE    298.15  +50533.347-1178.28824*T+194.107439*T*LN(T)
       -0.390268991*T**2+1.19219297E-04*T**3-2224398*T**(-1); 
       494.00  Y  -5228.304+183.72559*T-35.1456*T*LN(T);
      1000.00  N !
$ ------------------------------------------------------------------------------
$ Sn
$
$ FCC_A1 revised in unary 3.0
$ HCP_A3 revised in unary 4.1
$ TETRAGONAL_A6 added in unary 4.1
$ CBCC_A12 and CUB_A13 added in unary 4.4
$ FCC_A1 modified in unary 5.0
$ DHCP and TET_ALPHA1_A6 added in unary 5.0
$
$ The DHCP phase is labelled D0_24 in 03Liu and alpha-prime in 92Ans. The
$ phase is present between the fcc and hcp phases in the Au-Sn and Au-In
$ systems.
$
 PAR  G(BCT_A5,SN)              100.00  +GHSERSN;                3000 N 91Din !
 PAR  G(DIAMOND_A4,SN)          100.00  +GDIASN;                 3000 N 91Din !
$PAR  G(FCC_A1,SN:VA)           100.00  +GHSERSN+5510-8.46*T;    3000 N 89Fec !
$PAR  G(FCC_A1,SN:VA)           100.00  +GHSERSN+4150-5.2*T;     3000 N 91Din !
$PAR  G(BCC_A2,SN:VA)           100.00  +GHSERSN+4400-6*T;       3000 N 91Din !
$PAR  G(HCP_A3,SN:VA)           100.00  +GHSERSN+3900-7.646*T;   3000 N Ansar !
$PAR  G(HCP_A3,SN:VA)           100.00  +GHSERSN+3900-4.4*T;     3000 N 91Din !
$PAR  G(DHCP,SN)                100.00  +GHSERSN+3803.52-3.46*T; 3000 N 03Liu !
$PAR  G(RHOMBOHEDRAL_A7,SN)     100.00  +GHSERSN+2035;           3000 N 91Din !
$PAR  G(TETRAGONAL_A6,SN)       100.00  +GHSERSN+5387-8.26212*T; 3000 N 99Ans !
$PAR  G(CBCC_A12,SN:VA)         100.00  +GHSERSN+2000;           3000 N 01Mie !
$PAR  G(CUB_A13,SN:VA)          100.00  +GHSERSN+2000;           3000 N 01Mie !
$PAR  G(TET_ALPHA1_A6,SN)       100.00  +GHSERSN+5510-8.46*T;    3000 N 99Ans !
 PAR  G(LIQUID,SN)              100.00  +GLIQSN;                 3000 N 91Din !
$
 FUNCTION GHSERSN   100.00  -7958.517+122.765451*T-25.858*T*LN(T)
       +5.1185E-04*T**2-3.192767E-06*T**3+18440*T**(-1);
       250.00  Y  -5855.135+65.443315*T-15.961*T*LN(T)
       -0.0188702*T**2+3.121167E-06*T**3-61960*T**(-1);
       505.08  Y  +2524.724+4.005269*T-8.2590486*T*LN(T)
       -0.016814429*T**2+2.623131E-06*T**3-1081244*T**(-1)-1.2307E+25*T**(-9);
       800.00  Y  -8256.959+138.99688*T-28.4512*T*LN(T)-1.2307E+25*T**(-9);
      3000.00  N !
 FUNCTION GDIASN    100.00  -9579.608+114.007785*T-22.972*T*LN(T)
       -0.00813975*T**2+2.7288E-06*T**3+25615*T**(-1);
       298.15  Y  -9063.001+104.84654*T-21.5750771*T*LN(T)
       -0.008575282*T**2+1.784447E-06*T**3-2544*T**(-1);
       800.00  Y  -10909.351+147.396535*T-28.4512*T*LN(T);
      3000.00  N !
 FUNCTION GLIQSN    100.00  +7103.092-14.087767*T+GHSERSN+1.47031E-18*T**7;
       505.08  Y  +6971.586-13.814383*T+GHSERSN+1.2307E+25*T**(-9);
       800.00  Y  -1285.372+125.182498*T-28.4512*T*LN(T);
      3000.00  N !
 FUNCTION GBCCSN    298.15  +GHSERSN+4400-6*T;                         3000 N !
$ ------------------------------------------------------------------------------
$ Binary system
$
$ From Y. Feutelais et al. 1996 (included in LB Vol. 4)
$
$ Y. Feutelais, M. Majid, B. Legendre, S.G. Fries,
$ J. Phase Equilib., 17, 40-49(1996).
$
$ Checked against LB and paper. Checked at 6000 K.
$
 PAR  G(LIQUID,SNSE),,                  +GLIQSN+GLIQSE
             -134591.86+278.59972*T-32.99*T*LN(T);,,                  N 96Feu !
 PAR  L(LIQUID,SE,SNSE;0),,             +15432.8-19.06391*T;,,        N 96Feu !
 PAR  L(LIQUID,SE,SNSE;1),,             +8995.55;,,                   N 96Feu !
 PAR  L(LIQUID,SN,SNSE;0),,             +43462.43-21.6074*T;,,        N 96Feu !
 PAR  L(LIQUID,SN,SNSE;1),,             -1032.5;,,                    N 96Feu !
$
 PAR  G(SNSE_B16,SN:SE),,               -126343.74+268.9928*T
             -52.62*T*LN(T)-0.00364*T**2+122845*T**(-1)
             +2.2152E-07*T**3;,,                                      N 96Feu !
 PAR  G(SNSE_B33,SN:SE),,               -125059.16+267.38004*T
             -52.62*T*LN(T)-0.00364*T**2+122845*T**(-1)
             +2.2152E-07*T**3;,,                                      N 96Feu !
 PAR  G(SNSE2_C6,SN:SE),,               -138312.15+363.48615*T
             -74.522*T*LN(T)-0.004924294*T**2+118041*T**(-1)
             +3.5572E-07*T**3;,,                                      N 96Feu !
$ ------------------------------------------------------------------------------
$
 ASSESSED_SYSTEM
  SE-SN(TDB -* +LIQUID +HEXAGON_A8 +BCT_A5 +SNSE2_C6 +SNSE_B16 +SNSE_B33 
  ;G5 C_S:LIQUID/SN1SB1 MAJ:LIQUID/SN ;P3 TMM:200/1500 STP:0.6/1120/1) !
$
$
 LIST-OF-REFERENCE
 NUMBER  SOURCE
  Null   'Unknown source'
  Same   'Same or similar interaction as in the corresponding stable phase'
  COST   'COST 507 database'
  Ansar  'Himo Ansara, unpublished, SGTE unary database V.4.1, 1999; Sn'
  89Fec  'H.J. Fecht, M.X. Zhang, Y.A. Chang, J.H. Perepezko,
          Metall. Trans. A, 20A, 795-803(1989),
          SGTE unary database V.3.0, 1996; Sn'
  91Din  'A.T. Dinsdale, Calphad, 15, 317-425(1991).'
  96Feu  'Y. Feutelais, M. Majid, B. Legendre, S.G. Fries,
          J. Phase Equilib., 17, 40-49(1996); Sn-Se'
  99Ans  'I. Ansara, S.G. Fries, H.L. Lukas, unpublished, 1999,
          SGTE unary database V.5.0, 2009; In, Sn'
  01Mie  'J. Miettinen, Calphad, 25, 43-58(2001),
          SGTE unary database V.4.4, 2001; Sn, Zn'
  03Liu  'H.S. Liu, C.L. Liu, K. Ishida, Z.P. Jin, J. Electron. Mater.,
          32, 1290-96(2003), SGTE unary database V.5.0, 2009; Sn'
!
