$
$ Database for Sc-Th from X.J. Liu et al. 2009
$
$ X.J. Liu, S.L. Wang, C.P. Wang, J. Alloys Compd., 469, 186-92(2009).
$
$ Dataset created 2016.06.26 by Bengt Hallstedt.
$ 2021.02.05: Modified for use with GES6.
$
$ All interactions seem overfitted.
$
$ ------------------------------------------------------------------------------
 TEMP-LIM 298.15 6000.00 !
$
$ELEMENT NAME  REF. STATE               ATOMIC MASS H298-H0    S298    !
$
 ELEMENT VA   VACUUM                      0.0          0.0      0.0    ! 
 ELEMENT SC   HCP_A3                     44.9559    5217.448   34.6435 ! 
 ELEMENT TH   FCC_A1                    232.0381    6350.0     51.8    ! 
$ ------------------------------------------------------------------------------
$ Phase definitions
$
 PHASE LIQUID:L % 1 1 !
 CONST LIQUID:L : SC TH : !
$
$ Fcc (cF4, Fm-3m) and MeX (cF8, Fm-3m)
$
 PHASE FCC_A1 %A 2 1 1 !
 CONST FCC_A1 : SC TH% : VA : !
$
$ Bcc (cI2, Im-3m)
$
 PHASE BCC_A2 %B 2 1 3 !
 CONST BCC_A2 : SC TH : VA : !
$
$ Hcp (hP2, P6_3/mmc) and Me2X (NiAs-type, hP4, P6_3/mmc, B8_1)
$
 PHASE HCP_A3 %A 2 1 0.5 !
 CONST HCP_A3 : SC% TH : VA : !
$ ------------------------------------------------------------------------------
$ Defaults
$
 DEFINE-SYSTEM-DEFAULT ELEMENT 2 !
 DEFAULT-COM DEFINE_SYSTEM_ELEMENT VA !
 TYPE-DEF % SEQ * !
 TYPE-DEF A GES AMEND_PHASE_DESCRIPTION @ MAGNETIC -3 0.28 !
 TYPE-DEF B GES AMEND_PHASE_DESCRIPTION @ MAGNETIC -1 0.4 !
 FUNCTION ZERO      298.15  0;                                         6000 N !
 FUNCTION UN_ASS    298.15  0;                                         6000 N !
 FUNCTION R         298.15  +8.31451;                                  6000 N !
$ ------------------------------------------------------------------------------
$ Element data
$ ------------------------------------------------------------------------------
$ Sc
$
$ FCC_A1 and DHCP added in unary 4.4
$
 PAR  G(HCP_A3,SC:VA),,                 +GHSERSC;                3200 N 91Din !
 PAR  G(BCC_A2,SC:VA),,                 +GBCCSC;                 3200 N 91Din !
 PAR  G(FCC_A1,SC:VA),,                 +GHSERSC+5000;           3200 N 99Cac !
$PAR  G(DHCP,SC),,                      +GHSERSC
$            +1200+0.4157255*T;                                  3200 N 00Nor2 !
 PAR  G(LIQUID,SC),,                    +GLIQSC;                 3200 N 91Din !
$
 FUNCTION GHSERSC   298.15  -8689.547+153.48097*T-28.1882*T*LN(T)
       +0.00321892*T**2-1.64531E-06*T**3+72177*T**(-1);
       800.00  Y  -7511.295+132.759582*T-24.9132*T*LN(T)
       -5.73295E-04*T**2-8.59345E-07*T**3;
      1608.00  Y  +261143.04-1817.92245*T+241.441051*T*LN(T)
       -0.117529396*T**2+8.7398E-06*T**3-50607159*T**(-1);
      2000.00  Y  -30515.246+286.474338*T-44.2249*T*LN(T);
      3200.00  N !
 FUNCTION GBCCSC    298.15  +1979.728-1.024135*T+GHSERSC;
      1000.00  Y  +230161.408-2004.05469*T+276.76664*T*LN(T)
       -0.167120107*T**2+1.5637371E-05*T**3-33783257*T**(-1);
      1608.00  Y  -25928.011+283.642312*T-44.2249*T*LN(T);
      2000.00  Y  +4587.235-2.832026*T+GHSERSC;
      3200.00  N !
 FUNCTION GLIQSC    298.15  +6478.66+45.427539*T-10.7967803*T*LN(T)
       -0.020636524*T**2+2.13106E-06*T**3-158106*T**(-1);
      1608.00  Y  -11832.111+275.871695*T-44.2249*T*LN(T);
      3200.00  N !
$ ------------------------------------------------------------------------------
$ Th
$
$ FCC_A1, BCC_A2 and LIQUID modified in unary 4.4
$
$ HCP_A3 from 09Liu not included in unary
$
 PAR  G(FCC_A1,TH:VA),,                 +GHSERTH;                4000 N 01SGUN !
 PAR  G(BCC_A2,TH:VA),,                 +GBCCTH;                 4000 N 01SGUN !
 PAR  G(HCP_A3,TH:VA),,                 +GHSERTH+5000;           4000 N 09Liu !
 PAR  G(LIQUID,TH),,                    +GLIQTH;                 4000 N 01SGUN !
$
 FUNCTION GHSERTH   298.15  -7732.08+116.273975*T-24.841*T*LN(T)
       -0.00236725*T**2-5.2883E-07*T**3+13010*T**(-1);
      1633.00  Y  -37352.871+236.906118*T-39.107*T*LN(T)
       -0.00358025*T**2+2.36893E-07*T**3+7981000*T**(-1);
      2900.00  Y  -33353.313+283.231045*T-46.024*T*LN(T);
      4000.00  N !
 FUNCTION GBCCTH    298.15  -2321.06+133.531195*T-28.244*T*LN(T)
       +4.3775E-04*T**2-5.3048E-07*T**3+91190*T**(-1);
      1633.00  Y  -115978.348+800.909049*T-116.453*T*LN(T)
       +0.03098*T**2-2.536883E-06*T**3+27512600*T**(-1);
      2023.00  Y  -33602.796+208.774709*T-35.813*T*LN(T)
       -0.00346655*T**2+1.66067E-07*T**3+11876950*T**(-1);
      3600.00  Y  -980.302-0.049551*T+GHSERTH;
      4000.00  N !
 FUNCTION GLIQTH    298.15  +5031.109+110.886346*T-24.987*T*LN(T)
       -0.00168345*T**2-9.09067E-07*T**3+10865*T**(-1);
      1499.80  Y  -15602.847+127.657716*T-24.03*T*LN(T)
       -0.0136421*T**2+1.210117E-06*T**3+7111100*T**(-1);
      2014.50  Y  -17273.382+275.001274*T-46.024*T*LN(T);
      4000.00  N !
$ ------------------------------------------------------------------------------
$ Binary system
$
$ X.J. Liu, S.L. Wang, C.P. Wang, J. Alloys Compd., 469, 186-92(2009).
$
$ Checked against paper. Checked at 6000 K.
$
$ All interactions seem overfitted.
$
 PAR  L(LIQUID,SC,TH;0),,               -3711+9.084*T;,,              N 09Liu !
 PAR  L(LIQUID,SC,TH;1),,               -4000-4.502*T;,,              N 09Liu !
 PAR  L(LIQUID,SC,TH;2),,               -715-0.415*T;,,               N 09Liu !
$
 PAR  L(FCC_A1,SC,TH:VA;0),,            -60790+43.548*T;,,            N 09Liu !
 PAR  L(FCC_A1,SC,TH:VA;1),,            +27413-27.594*T;,,            N 09Liu !
 PAR  L(FCC_A1,SC,TH:VA;2),,            +6905-11.9*T;,,               N 09Liu !
$
 PAR  L(BCC_A2,SC,TH:VA;0),,            -10379+15.265*T;,,            N 09Liu !
 PAR  L(BCC_A2,SC,TH:VA;1),,            -12304+4.004*T;,,             N 09Liu !
$
 PAR  L(HCP_A3,SC,TH:VA;0),,            +168+5.591*T;,,               N 09Liu !
 PAR  L(HCP_A3,SC,TH:VA;1),,            -74052+49.069*T;,,            N 09Liu !
 PAR  L(HCP_A3,SC,TH:VA;2),,            -6.2*T;,,                     N 09Liu !
$ ------------------------------------------------------------------------------
$
$
 LIST-OF-REFERENCE
 NUMBER  SOURCE
  Null   'Unknown source'
  Same   'Same or similar interaction as in the corresponding stable phase'
  COST   'COST 507 database'
  91Din  'A.T. Dinsdale, Calphad, 15, 317-425(1991).'
  99Cac  'G. Cacciamani, P. Riani, G. Borzone, N. Parodi, A. Saccone, R. Ferro,
          A. Pisch, R. Schmid-Fetzer, Intermetallics, 7, 101-8(1999),
          SGTE unary database V.4.4, 2001; Sc'
  00Nor2 'S. Norgren, PhD Thesis, KTH, Stockholm, 2000,
          SGTE unary database V.4.4, 2001; Nd, Sc'
  01SGUN 'SGTE unary database V.4.4, 2001.'
  09Liu  'X.J. Liu, S.L. Wang, C.P. Wang,
          J. Alloys Compd., 469, 186-92(2009); Th, Sc-Th'
!
