$
$ Database for Er-Tb from S. Norgren 2000 (included in LB Vol. 3)
$
$ S. Norgren, J. Phase Equilib., 21, 148-56(2000).
$
$ Dataset created 2012.10.07 by Bengt Hallstedt.
$ 2020.12.26: Modified for use with GES6.
$
$ ------------------------------------------------------------------------------
 TEMP-LIM 298.15 6000.00 !
$
$ELEMENT NAME  REF. STATE               ATOMIC MASS H298-H0    S298    !
$
 ELEMENT VA   VACUUM                      0.0          0.0      0.0    ! 
 ELEMENT ER   HCP_A3                    167.26      7392.2912  73.17816! 
 ELEMENT TB   HCP_A3                    158.9254    9426.552   73.3037 ! 
$ ------------------------------------------------------------------------------
$ Phase definitions
$
 PHASE LIQUID:L % 1 1 !
 CONST LIQUID:L : ER TB : !
$
$ Fcc (cF4, Fm-3m) and MeX (cF8, Fm-3m)
$
 PHASE FCC_A1 %A 2 1 1 !
 CONST FCC_A1 : ER TB : VA : !
$
$ Bcc (cI2, Im-3m)
$
 PHASE BCC_A2 %B 2 1 3 !
 CONST BCC_A2 : ER TB : VA : !
$
$ Hcp (hP2, P6_3/mmc) and Me2X (NiAs-type, hP4, P6_3/mmc, B8_1)
$
 PHASE HCP_A3 %A 2 1 0.5 !
 CONST HCP_A3 : ER% TB% : VA : !
$ ------------------------------------------------------------------------------
$ Defaults
$
 DEFINE-SYSTEM-DEFAULT ELEMENT 2 !
 DEFAULT-COM DEFINE_SYSTEM_ELEMENT VA !
 TYPE-DEF % SEQ * !
 TYPE-DEF A GES AMEND_PHASE_DESCRIPTION @ MAGNETIC -3 0.28 !
 TYPE-DEF B GES AMEND_PHASE_DESCRIPTION @ MAGNETIC -1 0.4 !
 FUNCTION ZERO      298.15  0;                                         6000 N !
 FUNCTION UN_ASS    298.15  0;                                         6000 N !
 FUNCTION R         298.15  +8.31451;                                  6000 N !
$ ------------------------------------------------------------------------------
$ Element data
$ ------------------------------------------------------------------------------
$ Er
$
$ BCC_A2 added in unary 4.4
$
$ FCC_A1 from 02Cac not included in unary (but it should be)
$
 PAR  G(HCP_A3,ER:VA),,                 +GHSERER;                3200 N 91Din !
 PAR  G(FCC_A1,ER:VA),,                 +GHSERER
             +1950-0.831451*T;                                   3200 N 02Cac !
 PAR  G(BCC_A2,ER:VA),,                 +GHSERER
             +4600-2.494353*T;                                   3200 N 00Nor1 !
 PAR  G(LIQUID,ER),,                    +GLIQER;                 3200 N 91Din !
$
 FUNCTION GHSERER   298.15  -8489.136+116.698964*T-28.3846744*T*LN(T)
       +9.95792E-04*T**2-9.52557E-07*T**3+9581*T**(-1);
      1802.00  Y  -445688.206+2233.10212*T-298.135131*T*LN(T)
       +0.065950553*T**2-3.041405E-06*T**3+1.23973199E+08*T**(-1);
      3200.00  N !
 FUNCTION GLIQER    298.15  +19382.102-10.241846*T+GHSERER;
       500.00  Y  +17912.678+0.355564*T-12.0761776*T*LN(T)
       -0.014414687*T**2+1.316517E-06*T**3-528122*T**(-1);
      1802.00  Y  +747.131+187.623024*T-38.702*T*LN(T);
      3200.00  N !
$ ------------------------------------------------------------------------------
$ Tb
$
 PAR  G(HCP_A3,TB:VA),,                 +GHSERTB;                3000 N 91Din !
 PAR  G(BCC_A2,TB:VA),,                 +GBCCTB;                 3000 N 91Din !
 PAR  G(LIQUID,TB),,                    +GLIQTB;                 3000 N 91Din !
$
 FUNCTION GHSERTB   298.15  -20842.158+409.309555*T-77.5006*T*LN(T)
       +0.0832265*T**2-2.5672833E-05*T**3+562430*T**(-1);
       600.00  Y  -8772.606+102.61162*T-25.8659*T*LN(T)
       -0.002757005*T**2-8.05838E-07*T**3+172355*T**(-1);
      1200.00  Y  -7944.942+101.7776*T-25.9584*T*LN(T)
       -0.001676335*T**2-1.067632E-06*T**3;
      1562.00  Y  -265240.309+1456.04268*T-200.215695*T*LN(T)
       +0.041615159*T**2-2.044697E-06*T**3+65043790*T**(-1);
      3000.00  N !
 FUNCTION GBCCTB    298.15  +4167.835-2.652707*T+GHSERTB;
      1200.00  Y  +633060.245-5157.77779*T+706.580596*T*LN(T)
       -0.373763517*T**2+3.4100235E-05*T**3-1.03233571E+08*T**(-1);
      1562.00  Y  -23398.029+257.388486*T-46.4842*T*LN(T);
      3000.00  N !
 FUNCTION GLIQTB    298.15  +3945.831+29.867521*T-14.252646*T*LN(T)
       -0.020466105*T**2+2.17475E-06*T**3-160724*T**(-1);
      1562.00  Y  -13247.649+251.16889*T-46.4842*T*LN(T);
      3000.00  N !
$ ------------------------------------------------------------------------------
$ Binary system
$
$ From S. Norgren 2000 (included in LB Vol. 3)
$
$ S. Norgren, J. Phase Equilib., 21, 148-56(2000).
$
$ Checked against LB and paper. Checked at 6000 K.
$
 PAR  L(LIQUID,ER,TB;0),,               -350;,,                       N 00Nor1 !
$
 PAR  L(HCP_A3,ER,TB:VA;0),,            +130;,,                       N 00Nor1 !
$
$ Metastable
$
 PAR  L(BCC_A2,ER,TB:VA;0),,            +ZERO;,,                      N 00Nor1 !
$ ------------------------------------------------------------------------------
$
 ASSESSED_SYSTEM
  ER-TB(TDB -* +LIQUID +BCC_A2 +HCP_A3 ;P3 TMM:300/3000 *) !
$
$
 LIST-OF-REFERENCE
 NUMBER  SOURCE
  Null   'Unknown source'
  COST   'COST 507 database'
  91Din  'A.T. Dinsdale, Calphad, 15, 317-425(1991).'
  00Nor1 'S. Norgren, J. Phase Equilib., 21, 148-56(2000),
          SGTE unary database V.4.4, 2001; Er, Ho, Er-Tb'
  02Cac  'G. Cacciamani, A. Saccone, S. De Negri, R. Ferro,
          J. Phase Equilib., 23, 38-50(2002); Er'
!
