$
$ Database for W-N from A. Fernandez Guillermet and S. Jonsson 1993
$ (included in LB Vol. 4)
$
$ A. Fernandez Guillermet, S. Jonsson, Z. Metallkd., 84, 106-17(1993).
$
$ Dataset created 2016.03.12 by Bengt Hallstedt.
$ 2021.02.05: Modified for use with GES6.
$
$ The two invariants involving MC_SHP are at 599 and 1299 K (LB and here)
$ instead of 556 and 1264 K (paper). This indicates that there is some
$ difference in the Gibbs energy for MC_SHP in the parameter table and that
$ used to calculate the phase diagram in the paper.
$
$ Bcc becomes stable again above 5712 K at x(N)=0.50 when gas is not present.
$
$ ------------------------------------------------------------------------------
 TEMP-LIM 298.15 6000.00 !
$
$ELEMENT NAME  REF. STATE               ATOMIC MASS H298-H0    S298    !
$
 ELEMENT VA   VACUUM                      0.0          0.0      0.0    ! 
 ELEMENT N    1/2_MOLE_N2(G)             14.007     4335.0     95.751  ! 
 ELEMENT W    BCC_A2                    183.85      4970.0     32.6176 ! 
$ ------------------------------------------------------------------------------
$ Species
$
 SPECIE  N2                                 N2 !
$ ------------------------------------------------------------------------------
$ Phase definitions
$
 PHASE LIQUID:L % 1 1 !
 CONST LIQUID:L : N W : !
$
$ Fcc (cF4, Fm-3m) and MeX (cF8, Fm-3m)
$
 PHASE FCC_A1 %A 2 1 1 !
 CONST FCC_A1 : W : N VA% : !
$
$ Bcc (cI2, Im-3m)
$
 PHASE BCC_A2 %B 2 1 3 !
 CONST BCC_A2 : W : N VA% : !
$
$ Hcp (hP2, P6_3/mmc) and Me2X (NiAs-type, hP4, P6_3/mmc, B8_1)
$
 PHASE HCP_A3 %A 2 1 0.5 !
 CONST HCP_A3 : W : N VA% : !
$
$ Prototype WC (hP2, P-6m2, SB: B_h)
$
 PHASE MC_SHP % 2 1 1 !
 CONST MC_SHP : W : N : !
$
 PHASE N2GAS % 1 1 !
 CONST N2GAS : N2 : !
$ ------------------------------------------------------------------------------
$ Defaults
$
 DEFINE-SYSTEM-DEFAULT ELEMENT 2 !
 DEFAULT-COM DEFINE_SYSTEM_ELEMENT VA !
 TYPE-DEF % SEQ * !
 TYPE-DEF A GES AMEND_PHASE_DESCRIPTION @ MAGNETIC -3 0.28 !
 TYPE-DEF B GES AMEND_PHASE_DESCRIPTION @ MAGNETIC -1 0.4 !
 FUNCTION ZERO      298.15  0;                                         6000 N !
 FUNCTION UN_ASS    298.15  0;                                         6000 N !
 FUNCTION R         298.15  +8.31451;                                  6000 N !
 FUNCTION RTLNP     298.15  +8.31451*T*LN(1E-05*P);                    6000 N !
$ ------------------------------------------------------------------------------
$ Element data
$ ------------------------------------------------------------------------------
$ N
$
 PAR  G(N2GAS,N2),,                     +2*GHSERNN+RTLNP;,,           N 91Din !
 PAR  G(LIQUID,N),,                     +GHSERNN+29950+59.02*T;,,     N 91Din !
$
 FUNCTION GHSERNN   298.15  -3750.675-9.45425*T-12.7819*T*LN(T)
       -0.00176686*T**2+2.681E-09*T**3-32374*T**(-1);
       950.00  Y  -7358.85+17.2003*T-16.3699*T*LN(T)
       -6.5107E-04*T**2+3.0097E-08*T**3+563070*T**(-1);
      3350.00  Y  -16392.8+50.26*T-20.4695*T*LN(T)
       +2.39754E-04*T**2-8.333E-09*T**3+4596375*T**(-1);
      6000.00  N !
$ ------------------------------------------------------------------------------
$ W
$
 PAR  G(BCC_A2,W:VA),,                  +GHSERWW;,,                   N 91Din !
 PAR  G(FCC_A1,W:VA),,                  +GHSERWW+19300+0.63*T;,,      N 91Din !
 PAR  G(HCP_A3,W:VA),,                  +GHSERWW+14750;,,             N 91Din !
 PAR  G(LIQUID,W),,                     +GLIQWW;,,                    N 91Din !
$
 FUNCTION GHSERWW   298.15  -7646.311+130.4*T-24.1*T*LN(T)
       -0.001936*T**2+2.07E-07*T**3+44500*T**(-1)-5.33E-11*T**4;
      3695.00  Y  -82868.801+389.362335*T-54*T*LN(T)+1.528621E+33*T**(-9);
      6000.00  N !
 FUNCTION GLIQWW    298.15  +52160.584-14.10999*T+GHSERWW-2.713468E-24*T**7;
      3695.00  Y  -30436.051+375.175*T-54*T*LN(T);
      6000.00  N !
 FUNCTION GFCCWW    298.15  +GHSERWW+19300+0.63*T;                     6000 N !
$ ------------------------------------------------------------------------------
$ Binary system
$
$ From A. Fernandez Guillermet and S. Jonsson 1993 (included in LB Vol. 4)
$
$ A. Fernandez Guillermet, S. Jonsson, Z. Metallkd., 84, 106-17(1993).
$
$ Checked against LB and paper. Checked at 6000K.
$
$ The two invariants involving MC_SHP are at 599 and 1299 K (LB and here)
$ instead of 556 and 1264 K (paper). This indicates that there is some
$ difference in the Gibbs energy for MC_SHP in the parameter table and that
$ used to calculate the phase diagram in the paper.
$
$ Bcc becomes stable again above 5712 K at x(N)=0.50 when gas is not present.
$
 PAR  L(LIQUID,N,W;0),,                 -120000;,,                    N 93Fer !
$
 PAR  G(FCC_A1,W:N),,                   -40752.746+259.88468*T
             -45.443666*T*LN(T)+237083*T**(-1)-0.0046519123*T**2;,,   N 93Fer !
 PAR  L(FCC_A1,W:N,VA;0),,              -61824;,,                     N 93Fer !
$
 PAR  G(BCC_A2,W:N),,                   +268828.908+444.620024*T
             -72.7446506*T*LN(T)+1079965*T**(-1)-0.0251743468*T**2;,, N 93Fer !
 PAR  L(BCC_A2,W:N,VA;0),,              +83285-69.977*T;,,            N 93Fer !
$
 PAR  G(HCP_A3,W:N),,                   -12811.336+186.68879*T
             -34.217887*T*LN(T)+105601*T**(-1)-0.004509875*T**2;,,    N 93Fer !
 PAR  L(HCP_A3,W:N,VA;0),,              +ZERO;,,                      N 93Fer !
$
 PAR  G(MC_SHP,W:N),,                   -66519.085+272.76021*T
             -45.64545*T*LN(T)+392513*T**(-1)-0.0035306184*T**2;,,    N 93Fer !
$ ------------------------------------------------------------------------------
$
 ASSESSED_SYSTEM
  N-W(TDB -* +LIQUID +N2GAS +BCC_A2 +FCC_A1 +MC_SHP
  ;P3 TMM:300/5000 DOR:GAS *) !
$
$
 LIST-OF-REFERENCE
 NUMBER  SOURCE
  Null   'Unknown source'
  Same   'Same or similar interaction as in the corresponding stable phase'
  REFLAV 'Laves phase convention: G(LAVES,X:X)=+3*GHSERXX+15000'
  COST   'COST 507 database'
  91Din  'A.T. Dinsdale, Calphad, 15, 317-425(1991).'
  93Fer  'A. Fernandez Guillermet, S. Jonsson,
          Z. Metallkd., 84, 106-17(1993); W-N'
!
