$
$ Database for Ca-B from S. Shang et al. 2007
$
$ S. Shang, T. Wang, Z.-K. Liu, Calphad, 31, 286-91(2007).
$
$ Dataset created 2017.10.08 by Bengt Hallstedt.
$ 2020.12.25: Modified for use with GES6.
$
$ The paper also includes new expressions for alpha-B and beta-B based on
$ ab initio calculations. These are not included here.
$
$ SGSOL (Dec16c) includes alpha-B, but not gaseous B.
$
$ ------------------------------------------------------------------------------
 TEMP-LIM 298.15 6000.00 !
$
$ELEMENT NAME  REF. STATE               ATOMIC MASS H298-H0    S298    !
$
 ELEMENT VA   VACUUM                      0.0          0.0      0.0    ! 
 ELEMENT B    BETA_RHOMBO_B              10.81      1222.0      5.9    ! 
 ELEMENT CA   FCC_A1                     40.08      5736.0     41.588  ! 
$ ------------------------------------------------------------------------------
$ Species
$
 SPECIE  B2                                 B2 !
 SPECIE  CA2                                CA2 !
$ ------------------------------------------------------------------------------
$ Phase definitions
$
 PHASE LIQUID:L % 1 1 !
 CONST LIQUID:L : B CA : !
$
$ Fcc (cF4, Fm-3m) and MeX (cF8, Fm-3m)
$
 PHASE FCC_A1 %A 2 1 1 !
 CONST FCC_A1 : CA : VA : !
$
$ Bcc (cI2, Im-3m)
$
 PHASE BCC_A2 %B 2 1 3 !
 CONST BCC_A2 : CA : VA : !
$
$ Hcp (hP2, P6_3/mmc) and Me2X (NiAs-type, hP4, P6_3/mmc, B8_1)
$
 PHASE HCP_A3 %A 2 1 0.5 !
 CONST HCP_A3 : CA : VA : !
$
$ Prototype beta-B (hR105, R-3m)
$
 PHASE BETA_RHOMBO_B % 1 1 !
 CONST BETA_RHOMBO_B : B : !
$
$ Prototype CaB6 (cP7, Pm-3m)
$
 PHASE CAB6_D21 % 2 1 6 !
 CONST CAB6_D21 : CA : B : !
$
 PHASE GAS:G % 1 1 !
 CONST GAS:G : B B2 CA CA2 : !
$ ------------------------------------------------------------------------------
$ Defaults
$
 DEFINE-SYSTEM-DEFAULT ELEMENT 2 !
 DEFAULT-COM DEFINE_SYSTEM_ELEMENT VA !
 TYPE-DEF % SEQ * !
 TYPE-DEF A GES AMEND_PHASE_DESCRIPTION @ MAGNETIC -3 0.28 !
 TYPE-DEF B GES AMEND_PHASE_DESCRIPTION @ MAGNETIC -1 0.4 !
 FUNCTION ZERO      298.15  0;                                         6000 N !
 FUNCTION UN_ASS    298.15  0;                                         6000 N !
 FUNCTION R         298.15  +8.31451;                                  6000 N !
 FUNCTION RTLNP     298.15  +8.31451*T*LN(1E-05*P);                    6000 N !
$ ------------------------------------------------------------------------------
$ Element data
$ ------------------------------------------------------------------------------
$ B
$
$ FCC_A1, HCP_A3, DIAMOND_A4 and GRAPHITE added in unary 3.0
$ BCC_A2 added in unary 4.1
$ GRAPHITE revised in unary 4.4 (using the value from COST 507)
$ FCC_A1, BCC_A2 and HCP_A3 removed in unary 5.0
$ ALPHA_RHOMBO_B added in unary 5.0
$
$ FCC_A1, BCC_A2 and HCP_A3 still in SGSOL 5.0
$ The value for FCC_A1 in COST (and SGTE) is possibly incorrect.
$
 PAR  G(BETA_RHOMBO_B,B),,              +GHSERBB;,,                   N 91Din !
$PAR  G(ALPHA_RHOMBO_B,B),,             +GALPBB;,,                    N 09SGUN !
$PAR  G(FCC_A1,B:VA),,                  +GHSERBB+43514-12.217*T;,,    N SGCOST !
$PAR  G(FCC_A1,B:VA),,                  +GHSERBB+50208-13.472*T;,,    N 94Hal !
$PAR  G(BCC_A2,B:VA),,                  +GHSERBB+43514-12.217*T;,,    N 94Hal !
$PAR  G(HCP_A3,B:VA),,                  +GHSERBB+50208-9.706*T;,,     N SGCOST !
$PAR  G(GRAPHITE,B),,                   +GHSERBB+10000-2*T;,,         N SGCOST !
$PAR  G(GRAPHITE,B),,                   +GHSERBB+5000;,,              N 96SGUN !
$PAR  G(DIAMOND_A4,B),,                 +GHSERBB+10;,,                N 99SGUN !
$PAR  G(DIAMOND_A4,B),,                 +GHSERBB+20;,,                N COST !
$PAR  G(DIAMOND_A4,B),,                 +GHSERBB;,,                   N 96SGUN !
 PAR  G(LIQUID,B),,                     +GLIQBB;,,                    N 91Din !
$
 PAR  G(GAS,B),,                        +F1389T+RTLNP;,,              N 97SUB !
 PAR  G(GAS,B2),,                       +F1921T+RTLNP;,,              N 97SUB !
$
 FUNCTION GHSERBB   298.15  -7735.284+107.111864*T-15.6641*T*LN(T)
       -0.006864515*T**2+6.18878E-07*T**3+370843*T**(-1);
      1100.00  Y  -16649.474+184.801744*T-26.6047*T*LN(T)
       -7.9809E-04*T**2-2.556E-08*T**3+1748270*T**(-1);
      2348.00  Y  -36667.582+231.336244*T-31.5957527*T*LN(T)
       -0.00159488*T**2+1.34719E-07*T**3+11205883*T**(-1);
      3000.00  Y  -21530.653+222.396264*T-31.4*T*LN(T);
      6000.00  N !
 FUNCTION GALPBB    298.15  -6076.24+86.648762*T-12.942464*T*LN(T)
       -7.089468E-3*T**2+0.659896E-6*T**3-45*T**(-1);
      1400.00  Y  +28477.506-106.789208*T+12.1072478*T*LN(T)
       -13.316875E-3*T**2+0.706895E-6*T**3-8002403*T**(-1);
      3000.00  Y  -25699.64+225.127135*T-31.4*T*LN(T);
      6000.00  N !
 FUNCTION GLIQBB    298.15  +48458.559-20.268025*T+GHSERBB;
       500.00  Y  +41119.703+82.101722*T-14.9827763*T*LN(T)
       -0.007095669*T**2+5.07347E-07*T**3+335484*T**(-1);
      2348.00  Y  +28842.012+200.94731*T-31.4*T*LN(T);
      3000.00  Y  +50372.665-21.448954*T+GHSERBB;
      6000.00  N !
 FUNCTION GFCCBB    298.15  +GHSERBB+43514-12.217*T;                   6000 N !
$ B(g)
 FUNCTION F1389T    298.15 +558741.08-13.3403636*T-20.91611*T*LN(T)
       +7.20885E-05*T**2-5.63569667E-09*T**3+4306.9065*T**(-1);
      4800.00  Y  +593321.479-80.4363028*T-13.38924*T*LN(T)
       -5.13201E-04*T**2-2.51243833E-09*T**3-26985320*T**(-1);
     10000.00  N !
$ B2(g)
 FUNCTION F1921T    298.15 +829926.969-93.2007048*T-13.63395*T*LN(T)
       -0.033960835*T**2+7.30767333E-06*T**3-67153.4*T**(-1);
       600.00  Y  +815354.412+137.902601*T-49.68482*T*LN(T)
       +0.00543292*T**2-7.11178167E-07*T**3+1030739.5*T**(-1);
      1400.00  Y  +823475.255+55.7356689*T-37.91694*T*LN(T)
       -0.001645613*T**2+5.37223333E-08*T**3+105366.3*T**(-1);
      6000.00  N !
$ ------------------------------------------------------------------------------
$ Ca
$
$ FCC_A1, BCC_A2, HCP_A3 and LIQUID modified in unary 5.0
$ (upper T interval added + trailing decimals added)
$
 PAR  G(FCC_A1,CA:VA),,                 +GHSERCA;                3001 N 91Din !
 PAR  G(BCC_A2,CA:VA),,                 +GBCCCA;                 3001 N 91Din !
 PAR  G(HCP_A3,CA:VA),,                 +GHSERCA+500+0.7*T;      3001 N 91Din !
 PAR  G(LIQUID,CA),,                    +GLIQCA;                 3001 N 91Din !
$
 PAR  G(GAS,CA;0),,                     +F2131T+RTLNP;,,              N 92SUB !
 PAR  G(GAS,CA2;0),,                    +F2293T+RTLNP;,,              N 92SUB !
$
 FUNCTION GHSERCA   298.15  -4955.062+72.794266*T-16.3138*T*LN(T)
       -0.01110455*T**2-133574*T**(-1);
      1115.00  Y  -107304.428+799.982066*T-114.2922467*T*LN(T)
       +0.023733814*T**2-1.2438E-06*T**3+18245540*T**(-1);
      3000.00  Y  -3703.12+192.63995*T-35.0*T*LN(T);
      3001.00  N !
 FUNCTION GBCCCA    298.15  -7020.852+142.970155*T-28.2541*T*LN(T)
       +0.0072326*T**2-4.500217E-06*T**3+60578*T**(-1);
       716.00  Y  +1640.475+1.999694*T-6.276*T*LN(T)
       -0.0161921*T**2-523000*T**(-1);
      1115.00  Y  -142331.096+1023.549046*T-143.8726979*T*LN(T)
       +0.032543127*T**2-1.704079E-06*T**3+25353771*T**(-1);
      3000.00  Y  +321.63+189.433057*T-35*T*LN(T);
      3001.00  N !
 FUNCTION GLIQCA    298.15  +10799.908-10.310466*T+GHSERCA;
       500.00  Y  +7838.856+18.2979*T-8.9874787*T*LN(T)
       -0.02266537*T**2+3.338303E-06*T**3-230193*T**(-1);
      1115.00  Y  -2654.938+188.9223*T-35*T*LN(T);
      3001.00  N !
$ Ca(g) :
 FUNCTION F2131T    298.15  +173087.021-15.5575325*T-20.786112*T*LN(T);
      1300.00  Y  +172997.956+5588.5688*T**(-1)-13.9593335*T
       -21.0345161*T*LN(T)+2.38213948E-04*T**2-3.64413151E-08*T**3;
      2000.00  Y  +134081.53+9296659.72*T**(-1)+218.694199*T
       -51.8849472*T*LN(T)+0.0111923674*T**2-7.70260453E-07*T**3;
      3600.00  Y  +672690.384-2.35270504E+08*T**(-1)-1610.06137*T
       +171.348607*T*LN(T)-0.0300833784*T**2+6.66115115E-07*T**3;
      4800.00  Y  +672623.642-2.1604084E+08*T**(-1)-1685.46289*T
       +181.445018*T*LN(T)-0.032908206*T**2+7.77184973E-07*T**3;
      6000.00  N !
$ Ca2(g) :
 FUNCTION F2293T    298.15  +331036.623+118736.69*T**(-1)+92.462223*T
       -54.080292*T*LN(T)+0.0271296836*T**2-5.73392096E-06*T**3;
       600.00  Y  +340712.213-633424.128*T**(-1)-59.9992293*T
       -30.2654661*T*LN(T)+5.18998004E-04*T**2-4.10068261E-08*T**3;
      2200.00  Y  +343774.134-1755137.79*T**(-1)-73.0668827*T
       -28.6059243*T*LN(T)+6.54369232E-05*T**2-1.34699696E-08*T**3;
      6000.00  N !
$ ------------------------------------------------------------------------------
$ Binary system
$
$ S. Shang, T. Wang, Z.-K. Liu, Calphad, 31, 286-91(2007).
$
$ Checked against paper and SGSOL Dec16c. Checked at 6000 K.
$
$ The paper also includes new expressions for alpha-B and beta-B based on
$ ab initio calculations. These are not included here.
$
$ SGSOL (Dec16c) includes alpha-B, but not gaseous B.
$
 PAR  L(LIQUID,B,CA;0),,                +ZERO;,,                      N 07Sha !
$
 PAR  G(CAB6_D21,CA:B),,                +GHSERCA+6*GHSERBB+7*GCAB6;,, N 07Sha !
$
 FUNCTION GCAB6     298.15  -39486.575-18.549988*T+2.370637*T*LN(T);
      6000.00  N !
$ ------------------------------------------------------------------------------
$
$
 LIST-OF-REFERENCE
 NUMBER  SOURCE
  Null   'Unknown source'
  REFLAV 'Laves phase convention: G(LAVES,X:X)=+3*GHSERXX+15000'
  COST   'COST 507 database'
  SGCOST 'COST 507 database, SGTE unary database V.3.0, 1996; Al, B, Nd, Ti, Zn'
  91Din  'A.T. Dinsdale, Calphad, 15, 317-425(1991).'
  92SUB  'SGTE substance database, version 1992'
  94Hal  'B. Hallemans, P. Wollants, J.R. Roos,
          Z. Metallkd., 85, 676-82(1994), SGTE unary database V.4.1, 1999; B'
  96SGUN 'SGTE unary database V.3.0, 1996.'
  97SUB  'SGTE substance database, version 1997'
  99SGUN 'SGTE unary database V.4.1, 1999.'
  07Sha  'S. Shang, T. Wang, Z.-K. Liu, Calphad, 31, 286-91(2007); Ca-B'
  09SGUN 'SGTE unary database V.5.0, 2009.'
!
