$
$ Database for Ti-V from G. Ghosh 2002 (Included in LB Vol. 4)
$
$ G. Ghosh, J. Phase Equilib., 23, 310-28(2002).
$
$ Dataset created 2010.07.11 by Bengt Hallstedt.
$ 2021.02.05: Modified for use with GES6.
$
$ ------------------------------------------------------------------------------
 TEMP-LIM 298.15 6000.00 !
$
$ELEMENT NAME  REF. STATE               ATOMIC MASS H298-H0    S298    !
$
 ELEMENT VA   VACUUM                      0.0          0.0      0.0    ! 
 ELEMENT TI   HCP_A3                     47.88      4824.      30.72   ! 
 ELEMENT V    BCC_A2                     50.9415    4507.0     30.89   ! 
$ ------------------------------------------------------------------------------
$ Phase definitions
$
 PHASE LIQUID:L % 1 1 !
 CONST LIQUID:L : TI V : !
$
$ Fcc (cF4, Fm-3m) and MeX (cF8, Fm-3m)
$
 PHASE FCC_A1 %A 2 1 1 !
 CONST FCC_A1 : TI V : VA : !
$
$ Bcc (cI2, Im-3m)
$
 PHASE BCC_A2 %B 2 1 3 !
 CONST BCC_A2 : TI% V% : VA : !
$
$ Hcp (hP2, P6_3/mmc) and Me2X (NiAs-type, hP4, P6_3/mmc, B8_1)
$
 PHASE HCP_A3 %A 2 1 0.5 !
 CONST HCP_A3 : TI% V : VA : !
$ ------------------------------------------------------------------------------
$ Defaults
$
 DEFINE-SYSTEM-DEFAULT ELEMENT 2 !
 DEFAULT-COM DEFINE_SYSTEM_ELEMENT VA !
 TYPE-DEF % SEQ * !
 TYPE-DEF A GES AMEND_PHASE_DESCRIPTION @ MAGNETIC -3 0.28 !
 TYPE-DEF B GES AMEND_PHASE_DESCRIPTION @ MAGNETIC -1 0.4 !
 FUNCTION ZERO      298.15  0;                                         6000 N !
 FUNCTION UN_ASS    298.15  0;                                         6000 N !
 FUNCTION R         298.15  +8.31451;                                  6000 N !
$ ------------------------------------------------------------------------------
$ Element data
$ ------------------------------------------------------------------------------
$ Ti
$
$ BCT_A5 added in unary 3.0
$
 PAR  G(HCP_A3,TI:VA),,                 +GHSERTI;                4000 N 91Din !
 PAR  G(BCC_A2,TI:VA),,                 +GBCCTI;                 4000 N 91Din !
 PAR  G(FCC_A1,TI:VA),,                 +GHSERTI+6000-0.1*T;     4000 N 91Din !
$PAR  G(DIAMOND_A4,TI),,                +GHSERTI+25000;          4000 N 91Din !
$PAR  G(BCT_A5,TI),,                    +GHSERTI+4602.2;         3000 N SGCOST !
$PAR  G(CBCC_A12,TI:VA),,               +GHSERTI+4602.2;         4000 N 91Din !
$PAR  G(CUB_A13,TI:VA),,                +GHSERTI+7531.2;         4000 N 91Din !
 PAR  G(LIQUID,TI),,                    +GLIQTI;                 4000 N 91Din !
$
$PAR  G(C15_LAVES,TI:TI),,              +3*GHSERTI+15000;,,           N REFLAV !
$PAR  G(C36_LAVES,TI:TI),,              +3*GHSERTI+15000;,,           N REFLAV !
$
 FUNCTION GHSERTI   298.15  -8059.921+133.615208*T-23.9933*T*LN(T)
       -0.004777975*T**2+1.06716E-07*T**3+72636*T**(-1);
       900.00  Y  -7811.815+132.988068*T-23.9887*T*LN(T)
       -0.0042033*T**2-9.0876E-08*T**3+42680*T**(-1);
      1155.00  Y  +908.837+66.976538*T-14.9466*T*LN(T)
       -0.0081465*T**2+2.02715E-07*T**3-1477660*T**(-1);
      1941.00  Y  -124526.786+638.806871*T-87.2182461*T*LN(T)
       +0.008204849*T**2-3.04747E-07*T**3+36699805*T**(-1);
      4000.00  N !
 FUNCTION GBCCTI    298.15  -1272.064+134.71418*T-25.5768*T*LN(T)
       -6.63845E-04*T**2-2.78803E-07*T**3+7208*T**(-1);
      1155.00  Y  +6667.385+105.366379*T-22.3771*T*LN(T)
       +0.00121707*T**2-8.4534E-07*T**3-2002750*T**(-1);
      1941.00  Y  +26483.26-182.426471*T+19.0900905*T*LN(T)
       -0.02200832*T**2+1.228863E-06*T**3+1400501*T**(-1);
      4000.00  N !
 FUNCTION GLIQTI    298.15  +12194.415-6.980938*T+GHSERTI;
      1300.00  Y  +369519.198-2554.0225*T+342.059267*T*LN(T)
       -0.163409355*T**2+1.2457117E-05*T**3-67034516*T**(-1);
      1941.00  Y  -19887.066+298.7367*T-46.29*T*LN(T);
      4000.00  N !
$ ------------------------------------------------------------------------------
$ V
$
 PAR  G(BCC_A2,V:VA),,                  +GHSERVV;                4000 N 91Din !
 PAR  G(FCC_A1,V:VA),,                  +GHSERVV+7500+1.7*T;     4000 N 91Din !
 PAR  G(HCP_A3,V:VA),,                  +GHSERVV+4000+2.4*T;     4000 N 91Din !
$PAR  G(CBCC_A12,V:VA),,                +GHSERVV+9000;           4000 N 91Din !
$PAR  G(CUB_A13,V:VA),,                 +GHSERVV+10000;          4000 N 91Din !
 PAR  G(LIQUID,V),,                     +GLIQVV;                 4000 N 91Din !
$
$PAR  G(C15_LAVES,V:V),,                +3*GHSERVV+15000;        4000 N REFLAV !
$PAR  G(C36_LAVES,V:V),,                +3*GHSERVV+15000;        4000 N REFLAV !
$
 FUNCTION GHSERVV   298.15  -7930.43+133.346053*T-24.134*T*LN(T)
       -0.003098*T**2+1.2175E-07*T**3+69460*T**(-1);
       790.00  Y  -7967.842+143.291093*T-25.9*T*LN(T)
       +6.25E-05*T**2-6.8E-07*T**3;
      2183.00  Y  -41689.864+321.140783*T-47.43*T*LN(T)+6.44389E+31*T**(-9);
      4000.00  N !
 FUNCTION GLIQVV    298.15  +20764.117-9.455552*T+GHSERVV-5.19136E-22*T**7;
      2183.00  Y  -19617.51+311.055983*T-47.43*T*LN(T);
      4000.00  N !
$ ------------------------------------------------------------------------------
$ Binary system
$
$ From G. Ghosh 2002 (Included in LB Vol. 4)
$
$ G. Ghosh, J. Phase Equilib., 23, 310-28(2002).
$
$ Checked against paper and LB. Checked at 6000K.
$
 PAR  L(LIQUID,TI,V;0),,                +368.55;,,                    N 02Gho !
 PAR  L(LIQUID,TI,V;1),,                +2838.63;,,                   N 02Gho !
$
 PAR  L(BCC_A2,TI,V:VA;0),,             +6523.17;,,                   N 02Gho !
 PAR  L(BCC_A2,TI,V:VA;1),,             +2025.39;,,                   N 02Gho !
$
 PAR  L(HCP_A3,TI,V:VA;0),,             +13233;,,                     N 02Gho !
$
$ Metastable
$
 PAR  L(FCC_A1,TI,V:VA;0),,             +13233;,,                     N Same !
$
$PAR  G(C15_LAVES,TI:V),,               +2*GHSERTI+GHSERVV
$            +4378+14*T;,,                                            N 02Gho !
$PAR  G(C15_LAVES,V:TI),,               +2*GHSERVV+GHSERTI
$            +25622-14*T;,,                                           N 02Gho !
$PAR  L(C15_LAVES,TI,V:*;0),,           +5000;,,                      N 02Gho !
$PAR  L(C15_LAVES,*:TI,V;0),,           +5000;,,                      N 02Gho !
$
$PAR  G(C36_LAVES,TI:V),,               +2*GHSERTI+GHSERVV
$            +4378+14*T;,,                                            N 02Gho !
$PAR  G(C36_LAVES,V:TI),,               +2*GHSERVV+GHSERTI
$            +25622-14*T;,,                                           N 02Gho !
$PAR  L(C36_LAVES,TI,V:*;0),,           +5000;,,                      N 02Gho !
$PAR  L(C36_LAVES,*:TI,V;0),,           +5000;,,                      N 02Gho !
$ ------------------------------------------------------------------------------
$
 ASSESSED_SYSTEM
  TI-V(TDB -* +LIQUID +BCC_A2 +HCP_A3 ;P3 TMM:300/3000 STP:.5/1500/2/-2) !
$
$
 LIST-OF-REFERENCE
 NUMBER  SOURCE
  Null   'Unknown source'
  Same   'Same or similar interaction as in the corresponding stable phase'
  REFLAV 'Laves phase convention: G(LAVES,X:X)=+3*GHSERXX+15000'
  COST   'COST 507 database'
  SGCOST 'COST 507 database, SGTE unary database V.3.0, 1996; Al, B, Nd, Ti, Zn'
  91Din  'A.T. Dinsdale, Calphad, 15, 317-425(1991).'
  02Gho  'G. Ghosh, J. Phase Equilib., 23, 310-28(2002); Ti-V, Cr-Ti-V'
!
