$
$ Database for Nb-Sn from C. Toffolon et al. 1998
$
$ C. Toffolon, C. Servant, B. Sundman, J. Phase Equilib., 19, 479-85(1998).
$
$ Dataset created 2017.05.14 by Bengt Hallstedt.
$ 2020.08.29: Modified for use with GES6.
$
$ Nb3Sn is modelled as a high temperature phase in 98Tof, but in 02Tof it is
$ stable at low temperature also, which was a reason for remodelling.
$
$ Nb3Si is incorrectly labeled C15 (instead of A15) in the paper.
$
$ The subregular liquid and bcc interaction have incorrect signs in the paper.
$
$ Invariant temperatures differ by up to 2 K.
$
$ ------------------------------------------------------------------------------
 TEMP-LIM 298.15 6000.00 !
$
$ELEMENT NAME  REF. STATE               ATOMIC MASS H298-H0    S298    !
$
 ELEMENT VA   VACUUM                      0.0          0.0      0.0    ! 
 ELEMENT NB   BCC_A2                     92.9064    5220.0     36.27   ! 
 ELEMENT SN   BCT_A5                    118.69      6323.      51.18   ! 
$ ------------------------------------------------------------------------------
$ Phase definitions
$
 PHASE LIQUID:L % 1 1 !
 CONST LIQUID:L : NB SN : !
$
$ Fcc (cF4, Fm-3m) and MeX (cF8, Fm-3m)
$
 PHASE FCC_A1 %A 2 1 1 !
 CONST FCC_A1 : NB SN : VA : !
$
$ Bcc (cI2, Im-3m)
$
 PHASE BCC_A2 %B 2 1 3 !
 CONST BCC_A2 : NB% SN : VA : !
$
$ Hcp (hP2, P6_3/mmc) and Me2X (NiAs-type, hP4, P6_3/mmc, B8_1)
$
 PHASE HCP_A3 %A 2 1 0.5 !
 CONST HCP_A3 : NB SN : VA: !
$
$ Prototype C (cF8, Fd-3m)
$
 PHASE DIAMOND_A4 % 1 1 !
 CONST DIAMOND_A4 : SN : !
$
$ Prototype beta-Sn (tI4, I4_1/amd)
$
 PHASE BCT_A5 % 1 1 !
 CONST BCT_A5 : SN : !
$
$ Prototype Cr3Si (cP8, Pm-3n)
$
 PHASE NB3SN_A15 %  2 3 1 !
 CONST NB3SN_A15 : NB% SN : NB SN% : !
$
$ Prototype Sn5Ti6-alpha (oI44, Immm)
$
 PHASE NB6SN5 %  3 24 16 4 !
 CONST NB6SN5 : NB : SN : NB SN : !
$
$ Prototype CuMg2 (oF48, Fddd)
$
 PHASE NBSN2_CB %  2 1 2 !
 CONST NBSN2_CB : NB : SN : !
$ ------------------------------------------------------------------------------
$ Defaults
$
 DEFINE-SYSTEM-DEFAULT ELEMENT 2 !
 DEFAULT-COM DEFINE_SYSTEM_ELEMENT VA !
 TYPE-DEF % SEQ * !
 TYPE-DEF A GES AMEND_PHASE_DESCRIPTION @ MAGNETIC -3 0.28 !
 TYPE-DEF B GES AMEND_PHASE_DESCRIPTION @ MAGNETIC -1 0.4 !
 FUNCTION ZERO      298.15  0;                                         6000 N !
 FUNCTION UN_ASS    298.15  0;                                         6000 N !
 FUNCTION R         298.15  +8.31451;                                  6000 N !
$ ------------------------------------------------------------------------------
$ Element data
$ ------------------------------------------------------------------------------
$ Nb
$
 PAR  G(BCC_A2,NB:VA),,                 +GHSERNB;,,                   N 91Din !
 PAR  G(FCC_A1,NB:VA),,                 +GHSERNB+13500+1.7*T;,,       N 91Din !
 PAR  G(HCP_A3,NB:VA),,                 +GHSERNB+10000+2.4*T;,,       N 91Din !
 PAR  G(LIQUID,NB),,                    +GLIQNB;,,                    N 91Din !
$
 PAR  G(NB3SN_A15,NB:NB),,              +4*GHSERNB+20000-5.48603*T;,, N 98Tof !
$
 FUNCTION GHSERNB   298.15  -8519.353+142.045475*T-26.4711*T*LN(T)
       +2.03475E-04*T**2-3.5012E-07*T**3+93399*T**(-1);
      2750.00  Y  -37669.3+271.720843*T-41.77*T*LN(T)+1.528238E+32*T**(-9);
      6000.00  N !
 FUNCTION GLIQNB    298.15  +29781.555-10.816418*T+GHSERNB-3.06098E-23*T**7;
      2750.00  Y  -7499.398+260.756148*T-41.77*T*LN(T);
      6000.00  N !
$ ------------------------------------------------------------------------------
$ Sn
$
$ FCC_A1 revised in unary 3.0
$ HCP_A3 revised in unary 4.1
$ TETRAGONAL_A6 added in unary 4.1
$ CBCC_A12 and CUB_A13 added in unary 4.4
$ FCC_A1 modified in unary 5.0
$ DHCP and TET_ALPHA1_A6 added in unary 5.0
$
$ The DHCP phase is labelled D0_24 in 03Liu and alpha-prime in 92Ans. The
$ phase is present between the fcc and hcp phases in the Au-Sn and Au-In
$ systems.
$
 PAR  G(BCT_A5,SN)              100.00  +GHSERSN;                3000 N 91Din !
 PAR  G(DIAMOND_A4,SN)          100.00  +GDIASN;                 3000 N 91Din !
 PAR  G(FCC_A1,SN:VA)           100.00  +GHSERSN+5510-8.46*T;    3000 N 89Fec !
$PAR  G(FCC_A1,SN:VA)           100.00  +GHSERSN+4150-5.2*T;     3000 N 91Din !
 PAR  G(BCC_A2,SN:VA)           100.00  +GHSERSN+4400-6*T;       3000 N 91Din !
 PAR  G(HCP_A3,SN:VA)           100.00  +GHSERSN+3900-7.646*T;   3000 N Ansar !
$PAR  G(HCP_A3,SN:VA)           100.00  +GHSERSN+3900-4.4*T;     3000 N 91Din !
$PAR  G(DHCP,SN)                100.00  +GHSERSN+3803.52-3.46*T; 3000 N 03Liu !
$PAR  G(RHOMBOHEDRAL_A7,SN)     100.00  +GHSERSN+2035;           3000 N 91Din !
$PAR  G(TETRAGONAL_A6,SN)       100.00  +GHSERSN+5387-8.26212*T; 3000 N 99Ans !
$PAR  G(CBCC_A12,SN:VA)         100.00  +GHSERSN+2000;           3000 N 01Mie !
$PAR  G(CUB_A13,SN:VA)          100.00  +GHSERSN+2000;           3000 N 01Mie !
$PAR  G(TET_ALPHA1_A6,SN)       100.00  +GHSERSN+5510-8.46*T;    3000 N 99Ans !
 PAR  G(LIQUID,SN)              100.00  +GLIQSN;                 3000 N 91Din !
$
 PAR  G(NB3SN_A15,SN:SN),,              +4*GHSERSN+20000-5.48603*T;,, N 98Tof !
$
 FUNCTION GHSERSN   100.00  -7958.517+122.765451*T-25.858*T*LN(T)
       +5.1185E-04*T**2-3.192767E-06*T**3+18440*T**(-1);
       250.00  Y  -5855.135+65.443315*T-15.961*T*LN(T)
       -0.0188702*T**2+3.121167E-06*T**3-61960*T**(-1);
       505.08  Y  +2524.724+4.005269*T-8.2590486*T*LN(T)
       -0.016814429*T**2+2.623131E-06*T**3-1081244*T**(-1)-1.2307E+25*T**(-9);
       800.00  Y  -8256.959+138.99688*T-28.4512*T*LN(T)-1.2307E+25*T**(-9);
      3000.00  N !
 FUNCTION GDIASN    100.00  -9579.608+114.007785*T-22.972*T*LN(T)
       -0.00813975*T**2+2.7288E-06*T**3+25615*T**(-1);
       298.15  Y  -9063.001+104.84654*T-21.5750771*T*LN(T)
       -0.008575282*T**2+1.784447E-06*T**3-2544*T**(-1);
       800.00  Y  -10909.351+147.396535*T-28.4512*T*LN(T);
      3000.00  N !
 FUNCTION GLIQSN    100.00  +7103.092-14.087767*T+GHSERSN+1.47031E-18*T**7;
       505.08  Y  +6971.586-13.814383*T+GHSERSN+1.2307E+25*T**(-9);
       800.00  Y  -1285.372+125.182498*T-28.4512*T*LN(T);
      3000.00  N !
 FUNCTION GBCCSN    298.15  +GHSERSN+4400-6*T;                         3000 N !
$ ------------------------------------------------------------------------------
$ Binary system
$
$ C. Toffolon, C. Servant, B. Sundman, J. Phase Equilib., 19, 479-85(1998).
$
$ Checked against paper. Checked at 6000 K.
$
$ Nb3Sn is modelled as a high temperature phase in 98Tof, but in 02Tof it is
$ stable at low temperature also, which was a reason for remodelling.
$
$ Nb3Si is incorrectly labeled C15 (instead of A15) in the paper.
$
$ The subregular liquid and bcc interaction have incorrect signs in the paper.
$
$ Invariant temperatures differ by up to 2 K.
$
 PAR  L(LIQUID,NB,SN;0),,               +27347-0.01875*T;,,           N 98Tof !
 PAR  L(LIQUID,NB,SN;1),,               -10546.029-0.39877*T;,,       N 98Tof !
$
 PAR  L(BCC_A2,NB,SN:VA;0),,            +15466.97-0.20289*T;,,        N 98Tof !
 PAR  L(BCC_A2,NB,SN:VA;1),,            +11999.173+0.19377954*T;,,    N 98Tof !
$
 PAR  G(NB3SN_A15,NB:SN),,              +3*GHSERNB+GHSERSN
             +1397.464-5.48603*T;,,                                   N 98Tof !
 PAR  G(NB3SN_A15,SN:NB),,              +3*GHSERSN+GHSERNB
             +38602.536-5.48603*T;,,                                  N 98Tof !
$
 PAR  G(NB6SN5,NB:SN:NB),,              +28*GHSERNB+16*GHSERSN
             +4586.0564-72.49543*T;,,                                 N 98Tof !
 PAR  G(NB6SN5,NB:SN:SN),,              +24*GHSERNB+20*GHSERSN
             -123616.34-87.017401*T;,,                                N 98Tof !
$
 PAR  G(NBSN2_CB,NB:SN),,              +GHSERNB+2*GHSERSN
             -52755.275+30.70307*T;,,                                 N 98Tof !
$
$ Metastable
$
 PAR  L(FCC_A1,NB,SN:VA;0),,            +15466.97-0.20289*T;,,        N Same !
 PAR  L(FCC_A1,NB,SN:VA;1),,            +11999.173+0.19377954*T;,,    N Same !
$
 PAR  L(HCP_A3,NB,SN:VA;0),,            +15466.97-0.20289*T;,,        N Same !
 PAR  L(HCP_A3,NB,SN:VA;1),,            +11999.173+0.19377954*T;,,    N Same !
$ ------------------------------------------------------------------------------
$
$
 LIST-OF-REFERENCE
 NUMBER  SOURCE
  Null   'Unknown source'
  Same   'Same or similar interaction as in the corresponding stable phase'
  Ansar  'Himo Ansara, unpublished, SGTE unary database V.4.1, 1999; Sn'
  89Fec  'H.J. Fecht, M.X. Zhang, Y.A. Chang, J.H. Perepezko,
          Metall. Trans. A, 20A, 795-803(1989),
          SGTE unary database V.3.0, 1996; Sn'
  91Din  'A.T. Dinsdale, Calphad, 15, 317-425(1991).'
  98Tof  'C. Toffolon, C. Servant, B. Sundman,
          J. Phase Equilib., 19, 479-85(1998); Nb-Sn'
  99Ans  'I. Ansara, S.G. Fries, H.L. Lukas, unpublished, 1999,
          SGTE unary database V.5.0, 2009; In, Sn'
  01Mie  'J. Miettinen, Calphad, 25, 43-58(2001),
          SGTE unary database V.4.4, 2001; Sn, Zn'
  03Liu  'H.S. Liu, C.L. Liu, K. Ishida, Z.P. Jin, J. Electron. Mater.,
          32, 1290-96(2003), SGTE unary database V.5.0, 2009; Sn'
!
