$
$ Database for Nd-Sc from S. Norgren 2000
$
$ S. Norgren, PhD Thesis, KTH, Stockholm, 2000.
$
$ Dataset created 2018.01.20 by Bengt Hallstedt.
$ 2021.02.02: Modified for use with GES6.
$
$ ------------------------------------------------------------------------------
 TEMP-LIM 298.15 6000.00 !
$
$ELEMENT NAME  REF. STATE               ATOMIC MASS H298-H0    S298    !
$
 ELEMENT VA   VACUUM                      0.0          0.0      0.0    ! 
 ELEMENT ND   DHCP                      144.24      7133.72    71.0862 ! 
 ELEMENT SC   HCP_A3                     44.9559    5217.448   34.6435 ! 
$ ------------------------------------------------------------------------------
$ Phase definitions
$
 PHASE LIQUID:L % 1 1 !
 CONST LIQUID:L : ND SC : !
$
$ Fcc (cF4, Fm-3m) and MeX (cF8, Fm-3m)
$
 PHASE FCC_A1 %A 2 1 1 !
 CONST FCC_A1 : ND SC : VA : !
$
$ Bcc (cI2, Im-3m)
$
 PHASE BCC_A2 %B 2 1 3 !
 CONST BCC_A2 : ND SC : VA : !
$
$ Hcp (hP2, P6_3/mmc) and Me2X (NiAs-type, hP4, P6_3/mmc, B8_1)
$
 PHASE HCP_A3 % 2 1 0.5 !
 CONST HCP_A3 : ND SC% : VA : !
$
$ Prototype alpha-La (hP4, P6_3/mmc)
$
 PHASE DHCP % 1 1 !
 CONST DHCP : ND% SC : !
$ ------------------------------------------------------------------------------
$ Defaults
$
 DEFINE-SYSTEM-DEFAULT ELEMENT 2 !
 DEFAULT-COM DEFINE_SYSTEM_ELEMENT VA !
 TYPE-DEF % SEQ * !
 TYPE-DEF A GES AMEND_PHASE_DESCRIPTION @ MAGNETIC -3 0.28 !
 TYPE-DEF B GES AMEND_PHASE_DESCRIPTION @ MAGNETIC -1 0.4 !
 FUNCTION ZERO      298.15  0;                                         6000 N !
 FUNCTION UN_ASS    298.15  0;                                         6000 N !
 FUNCTION R         298.15  +8.31451;                                  6000 N !
$ ------------------------------------------------------------------------------
$ Element data
$ ------------------------------------------------------------------------------
$ Nd
$
$ DHCP and LIQUID modified in unary 3.0 (upper/lower T interval added)
$ FCC_A1 added in unary 3.0
$ HCP_A3 added in unary 4.4
$
 PAR  G(DHCP,ND),,                      +GHSERND;                1800 N 91Din !
 PAR  G(BCC_A2,ND:VA),,                 +GBCCND;                 1800 N 91Din !
 PAR  G(FCC_A1,ND:VA),,                 +GHSERND+500;            1800 N SGCOST !
 PAR  G(HCP_A3,ND:VA),,                 +GHSERND
             +1500-0.415725*T;                                   1800 N 00Nor2 !
 PAR  G(LIQUID,ND),,                    +GLIQND;                 1800 N 91Din !
$
 FUNCTION GHSERND   298.15  -8402.93+111.10239*T-27.0858*T*LN(T)
       +5.56125E-04*T**2-2.6923E-06*T**3+34887*T**(-1);
       900.00  Y  -6984.083+83.662617*T-22.7536*T*LN(T)
       -0.00420402*T**2-1.802E-06*T**3;
      1128.00  Y  -225610.846+1673.04075*T-238.182873*T*LN(T)
       +0.078615997*T**2-6.048207E-06*T**3+38810350*T**(-1);
      1799.00  Y  -25742.331+276.257088*T-48.7854*T*LN(T);
      1800.00  N !
 FUNCTION GBCCND    298.15  +1437.295-0.546281*T+GHSERND;
       400.00  Y  +7312.2-153.033976*T+14.9956777*T*LN(T)
       -0.050479*T**2+7.287217E-06*T**3-831810*T**(-1);
      1128.00  Y  -18030.266+239.677322*T-44.5596*T*LN(T);
      1289.00  Y  +334513.017-2363.9199*T+311.409193*T*LN(T)
       -0.156030778*T**2+1.2408421E-05*T**3-64319604*T**(-1);
      1800.00  N !
 FUNCTION GLIQND    298.15  +5051.743-1.585076*T+GHSERND;
       300.00  Y  +5350.01-86.593963*T+5.357301*T*LN(T)
       -0.046955463*T**2+6.860782E-06*T**3-374380*T**(-1);
      1128.00  Y  -16335.232+268.625903*T-48.7854*T*LN(T);
      1799.00  Y  +9407.099-7.631185*T+GHSERND;
      1800.00  N !
$ ------------------------------------------------------------------------------
$ Sc
$
$ FCC_A1 and DHCP added in unary 4.4
$
 PAR  G(HCP_A3,SC:VA),,                 +GHSERSC;                3200 N 91Din !
 PAR  G(BCC_A2,SC:VA),,                 +GBCCSC;                 3200 N 91Din !
 PAR  G(FCC_A1,SC:VA),,                 +GHSERSC+5000;           3200 N 99Cac !
 PAR  G(DHCP,SC),,                      +GHSERSC
             +1200+0.4157255*T;                                  3200 N 00Nor2 !
 PAR  G(LIQUID,SC),,                    +GLIQSC;                 3200 N 91Din !
$
 FUNCTION GHSERSC   298.15  -8689.547+153.48097*T-28.1882*T*LN(T)
       +0.00321892*T**2-1.64531E-06*T**3+72177*T**(-1);
       800.00  Y  -7511.295+132.759582*T-24.9132*T*LN(T)
       -5.73295E-04*T**2-8.59345E-07*T**3;
      1608.00  Y  +261143.04-1817.92245*T+241.441051*T*LN(T)
       -0.117529396*T**2+8.7398E-06*T**3-50607159*T**(-1);
      2000.00  Y  -30515.246+286.474338*T-44.2249*T*LN(T);
      3200.00  N !
 FUNCTION GBCCSC    298.15  +1979.728-1.024135*T+GHSERSC;
      1000.00  Y  +230161.408-2004.05469*T+276.76664*T*LN(T)
       -0.167120107*T**2+1.5637371E-05*T**3-33783257*T**(-1);
      1608.00  Y  -25928.011+283.642312*T-44.2249*T*LN(T);
      2000.00  Y  +4587.235-2.832026*T+GHSERSC;
      3200.00  N !
 FUNCTION GLIQSC    298.15  +6478.66+45.427539*T-10.7967803*T*LN(T)
       -0.020636524*T**2+2.13106E-06*T**3-158106*T**(-1);
      1608.00  Y  -11832.111+275.871695*T-44.2249*T*LN(T);
      3200.00  N !
$ ------------------------------------------------------------------------------
$ Binary system
$
$ S. Norgren, PhD Thesis, KTH, Stockholm, 2000.
$
$ Checked against thesis. Checked at 6000 K.
$
 PAR  L(LIQUID,ND,SC;0),,               +8790;,,                      N 00Nor2 !
$
 PAR  L(BCC_A2,ND,SC:VA;0),,            +17942-2.87*T;,,              N 00Nor2 !
 PAR  L(BCC_A2,ND,SC:VA;1),,            -2380;,,                      N 00Nor2 !
 PAR  L(BCC_A2,ND,SC:VA;2),,            +1645;,,                      N 00Nor2 !
$
 PAR  L(HCP_A3,ND,SC:VA;0),,            +13959;,,                     N 00Nor2 !
 PAR  L(HCP_A3,ND,SC:VA;1),,            -4200;,,                      N 00Nor2 !
$
 PAR  L(DHCP,ND,SC;0),,                 +14673-1.748*T;,,             N 00Nor2 !
 PAR  L(DHCP,ND,SC;1),,                 +1494;,,                      N 00Nor2 !
$
$ Metastable
$
 PAR  L(FCC_A1,ND,SC:VA;0),,            +13959;,,                     N Same !
 PAR  L(FCC_A1,ND,SC:VA;1),,            -4200;,,                      N Same !
$ ------------------------------------------------------------------------------
$
$
 LIST-OF-REFERENCE
 NUMBER  SOURCE
  Null   'Unknown source'
  Same   'Same or similar interaction as in the corresponding stable phase'
  REFLAV 'Laves phase convention: G(LAVES,X:X)=+3*GHSERXX+15000'
  91Din  'A.T. Dinsdale, Calphad, 15, 317-425(1991).'
  95She2 'H. Shen, W. Zhang, G. Liu, R. Wang, Z. Du, Report F-95-02,
          University of Science and Technology, Beijing, May 1995,
          SGTE unary database V.3.0, 1996; Gd'
  99Cac  'G. Cacciamani, P. Riani, G. Borzone, N. Parodi, A. Saccone, R. Ferro,
          A. Pisch, R. Schmid-Fetzer, Intermetallics, 7, 101-8(1999),
          SGTE unary database V.4.4, 2001; Sc'
  00Nor2 'S. Norgren, PhD Thesis, KTH, Stockholm, 2000,
          SGTE unary database V.4.4, 2001; Nd, Sc, Nd-Sc'
  00Zin  'M. Zinkevich, N. Mattern, H. J Seifert,
          J. Phase Equilib., 21, 385-94(2000),
          SGTE unary database V.4.4, 2001; Gd'
  03Cac  'G. Cacciamani, S. De Negri, A. Saccone, R. Ferro,
          Intermetallics, 11, 1135-51(2003); Gd'
!
