$
$ Database for Cr-Ga from J. Groebner et al. 1999
$
$ J. Groebner, R. Wenzel, G.G. Fischer, R. Schmid-Fetzer,
$ J. Phase Equilib., 20, 615-25(1999).
$
$ Dataset created 2016.10.15 by Bengt Hallstedt.
$ 2020.12.25: Modified for use with GES6.
$
$ Some of the invariant equilibria differ quite substantially (up to 30 K),
$ but the reason is not clear.
$
$ ------------------------------------------------------------------------------
 TEMP-LIM 298.15 6000.00 !
$
$ELEMENT NAME  REF. STATE               ATOMIC MASS H298-H0    S298    !
$
 ELEMENT VA   VACUUM                      0.0          0.0      0.0    ! 
 ELEMENT CR   BCC_A2                     51.996     4050.0     23.5429 ! 
 ELEMENT GA   ORTHORHOMBIC_A11           69.72      5572.0     40.7271 ! 
$ ------------------------------------------------------------------------------
$ Phase definitions
$
 PHASE LIQUID:L % 1 1 !
 CONST LIQUID:L : CR GA : !
$
$ Fcc (cF4, Fm-3m) and MeX (cF8, Fm-3m)
$
 PHASE FCC_A1 %A 2 1 1 !
 CONST FCC_A1 : CR GA : VA : !
$
$ Bcc (cI2, Im-3m)
$
 PHASE BCC_A2 %B 2 1 3 !
 CONST BCC_A2 : CR% GA : VA : !
$
$ Hcp (hP2, P6_3/mmc) and Me2X (NiAs-type, hP4, P6_3/mmc, B8_1)
$
 PHASE HCP_A3 % 2 1 0.5 !
 CONST HCP_A3 : CR GA : VA : !
$
$ alpha-Ga (oC8, Cmca)
$
 PHASE ORTHORHOMBIC_A11 % 1 1 !
 CONST ORTHORHOMBIC_A11 : GA : !
$
$ Prototype Cr3Si (cP8, Pm-3n)
$
 PHASE CR3GA_A15 % 2 3 1 !
 CONST CR3GA_A15 : CR : GA : !
$
$ Prototype Al8Cr5 (hR26, R3m), gamma-brass related
$
 PHASE CRGA_D810 % 2 1 1 !
 CONST CRGA_D810 : CR : GA : !
$
$ Prototype Fe3Ga4 (mC42, C2/m), also Cr3Ga4
$
 PHASE CR5GA6 % 2 5 6 !
 CONST CR5GA6 : CR : GA : !
$
$ Prototype Hg4Pt (cI10, Im-3m), also CrGa3
$
 PHASE CRGA4 % 2 1 4 !
 CONST CRGA4 : CR : GA : !
$ ------------------------------------------------------------------------------
$ Defaults
$
 DEFINE-SYSTEM-DEFAULT ELEMENT 2 !
 DEFAULT-COM DEFINE_SYSTEM_ELEMENT VA !
 TYPE-DEF % SEQ * !
 TYPE-DEF A GES AMEND_PHASE_DESCRIPTION @ MAGNETIC -3 0.28 !
 TYPE-DEF B GES AMEND_PHASE_DESCRIPTION @ MAGNETIC -1 0.4 !
 FUNCTION ZERO      298.15  0;                                         6000 N !
 FUNCTION UN_ASS    298.15  0;                                         6000 N !
 FUNCTION R         298.15  +8.31451;                                  6000 N !
$ ------------------------------------------------------------------------------
$ Element data
$ ------------------------------------------------------------------------------
$ Cr
$
 PAR  G(BCC_A2,CR:VA),,                 +GHSERCR;,,                   N 91Din !
 PAR  TC(BCC_A2,CR:VA),,                 -311.50;,,                   N 91Din !
 PAR  BM(BCC_A2,CR:VA),,                   -0.008;,,                  N 91Din !
 PAR  G(FCC_A1,CR:VA),,                 +GHSERCR+7284+0.163*T;,,      N 91Din !
 PAR  TC(FCC_A1,CR:VA),,                -1109.00;,,                   N 91Din !
 PAR  BM(FCC_A1,CR:VA),,                   -2.46;,,                   N 91Din !
 PAR  G(HCP_A3,CR:VA),,                 +GHSERCR+4438;,,              N 91Din !
 PAR  TC(HCP_A3,CR:VA),,                -1109.00;,,                   N 91Din !
 PAR  BM(HCP_A3,CR:VA),,                   -2.46;,,                   N 91Din !
$PAR  G(CUB_A13,CR:VA),,                +GHSERCR+15899+0.6276*T;,,    N 91Din !
$PAR  G(CBCC_A12,CR:VA),,               +GHSERCR+11087+2.7196*T;,,    N 91Din !
 PAR  G(LIQUID,CR),,                    +GLIQCR;,,                    N 91Din !
$
 FUNCTION GHSERCR   298.15  -8856.94+157.48*T-26.908*T*LN(T)
       +0.00189435*T**2-1.47721E-06*T**3+139250*T**(-1);
      2180.00  Y  -34869.344+344.18*T-50*T*LN(T)-2.88526E+32*T**(-9);
      6000.00  N !
 FUNCTION GLIQCR    298.15  +24339.955-11.420225*T+GHSERCR+2.37615E-21*T**7;
      2180.00  Y  -16459.984+335.616316*T-50*T*LN(T);
      6000.00  N !
 FUNCTION GFCCCR    298.15  +GHSERCR+7284+0.163*T;                     6000 N !
$ ------------------------------------------------------------------------------
$ Ga
$
$ DIAMOND_A4 added in unary 5.0
$
$ Changed name from ORTHORHOMBIC_GA to ORTHORHOMBIC_A11
$
 PAR  G(ORTHORHOMBIC_A11,GA)    200.00  +GHSERGA;                4000 N 91Din !
 PAR  G(FCC_A1,GA:VA)           200.00  +GHSERGA+3800-10.2*T;    4000 N 91Din !
 PAR  G(BCC_A2,GA:VA)           200.00  +GHSERGA+4500-11.7*T;    4000 N 91Din !
 PAR  G(HCP_A3,GA:VA)           200.00  +GHSERGA+4500-9.5*T;     4000 N 91Din !
$PAR  G(DIAMOND_A4,GA)          200.00  +GHSERGA+20900-2*T;      4000 N 09SGUN !
$PAR  G(BCT_A5,GA)              200.00  +GHSERGA+3846-9.8*T;     4000 N 91Din !
$PAR  G(TETRAGONAL_A6,GA)       200.00  +GHSERGA+3500-10*T;      4000 N 91Din !
 PAR  G(LIQUID,GA)              200.00  +GLIQGA;                 4000 N 91Din !
$
 FUNCTION GHSERGA   200.00  -21312.331+585.263691*T-108.228783*T*LN(T)
       +0.227155636*T**2-1.18575257E-04*T**3+439954*T**(-1);
       302.91  Y  -7055.643+132.73019*T-26.0692906*T*LN(T)
       +1.506E-04*T**2-4.0173E-08*T**3-118332*T**(-1)+1.64547E+23*T**(-9);
      4000.00  N !
 FUNCTION GLIQGA    200.00  +5491.298-18.073995*T+GHSERGA-7.0171E-17*T**7;
       302.91  Y  +5666.455-18.681147*T+GHSERGA-1.64547E+23*T**(-9);
      4000.00  N !
$ ------------------------------------------------------------------------------
$ Binary system
$
$ J. Groebner, R. Wenzel, G.G. Fischer, R. Schmid-Fetzer,
$ J. Phase Equilib., 20, 615-25(1999).
$
$ Checked against paper. Checked at 6000 K.
$
$ Some of the invariant equilibria differ quite substantially (up to 30 K),
$ but the reason is not clear.
$
 PAR  L(LIQUID,CR,GA;0),,               +27649.15-14.52983*T;,,       N 99Gro !
 PAR  L(LIQUID,CR,GA;1),,               +72809.93-23.562*T;,,         N 99Gro !
$
 PAR  L(BCC_A2,CR,GA:VA;0),,            +3000;,,                      N 99Gro !
$
 PAR  G(CR3GA_A15,CR:GA),,              +3*GHSERCR+GHSERGA
             -38281.2-7.536*T;,,                                      N 99Gro !
 PAR  G(CRGA_D810,CR:GA),,              +GHSERCR+GHSERGA
             -14594.18-12.83226*T;,,                                  N 99Gro !
 PAR  G(CR5GA6,CR:GA),,                 +5*GHSERCR+6*GHSERGA
             -166651.1+8.72146*T;,,                                   N 99Gro !
 PAR  G(CRGA4,CR:GA),,                  +GHSERCR+4*GHSERGA
             -43500-31.5*T;,,                                         N 99Gro !
$
$ metastable
$
 PAR  L(FCC_A1,CR,GA:VA;0),,            +3000;,,                      N Same !
 PAR  L(HCP_A3,CR,GA:VA;0),,            +3000;,,                      N Same !
$ ------------------------------------------------------------------------------
$
$
 LIST-OF-REFERENCE
 NUMBER  SOURCE
  Null   'Unknown source'
  Same   'Same or similar interaction as in the corresponding stable phase'
  REFLAV 'Laves phase convention: G(LAVES,X:X)=+3*GHSERXX+15000'
  91Din  'A.T. Dinsdale, Calphad, 15, 317-425(1991).'
  99Gro  'J. Groebner, R. Wenzel, G.G. Fischer, R. Schmid-Fetzer,
          J. Phase Equilib., 20, 615-25(1999); Cr-Ga'
  09SGUN 'SGTE unary database V.5.0, 2009.'
!
