$
$ Database for Co-Fe from A. Fernandez Guillermet 1987 (included in LB Vol. 2)
$
$ A. Fernandez Guillermet, High Temp. High Press., 19, 477-99(1987).
$
$ Dataset created 2009.10.18 by Bengt Hallstedt.
$ 2016.11.10: Parameters for CBCC_A12 and CUB_A13 added (metastable).
$ 2020.12.25: Modified for use with GES6.
$
$ ------------------------------------------------------------------------------
 TEMP-LIM 298.15 6000.00 !
$
$ELEMENT NAME  REF. STATE               ATOMIC MASS H298-H0    S298    !
$
 ELEMENT VA   VACUUM                      0.0          0.0      0.0    ! 
 ELEMENT CO   HCP_A3                     58.9332    4765.567   30.0400 ! 
 ELEMENT FE   BCC_A2                     55.847     4489.0     27.2797 ! 
$ ------------------------------------------------------------------------------
$ Phase definitions
$
 PHASE LIQUID:L % 1 1 !
 CONST LIQUID:L : CO FE : !
$
$ Fcc (cF4, Fm-3m) and MeX (cF8, Fm-3m)
$
 PHASE FCC_A1 %A 2 1 1 !
 CONST FCC_A1 : CO% FE% : VA : !
$
$ Bcc (cI2, Im-3m)
$
 PHASE BCC_A2 %B 2 1 3 !
 CONST BCC_A2 : CO FE% : VA : !
$
$ Hcp (hP2, P6_3/mmc) and Me2X (NiAs-type, hP4, P6_3/mmc, B8_1)
$
 PHASE HCP_A3 %A 2 1 0.5 !
 CONST HCP_A3 : CO% FE : VA : !
$ ------------------------------------------------------------------------------
$ Defaults
$
 DEFINE-SYSTEM-DEFAULT ELEMENT 2 !
 DEFAULT-COM DEFINE_SYSTEM_ELEMENT VA !
 TYPE-DEF % SEQ * !
 TYPE-DEF A GES AMEND_PHASE_DESCRIPTION @ MAGNETIC -3 0.28 !
 TYPE-DEF B GES AMEND_PHASE_DESCRIPTION @ MAGNETIC -1 0.4 !
 FUNCTION ZERO      298.15  0;                                         6000 N !
 FUNCTION UN_ASS    298.15  0;                                         6000 N !
 FUNCTION R         298.15  +8.31451;                                  6000 N !
$ ------------------------------------------------------------------------------
$ Element data
$ ------------------------------------------------------------------------------
$ Co
$
 PAR  G(HCP_A3,CO:VA),,                 +GHSERCO;,,                   N 91Din !
 PAR  TC(HCP_A3,CO:VA),,                 1396.00;,,                   N 91Din !
 PAR  BM(HCP_A3,CO:VA),,                    1.35;,,                   N 91Din !
 PAR  G(FCC_A1,CO:VA),,                 +GHSERCO
             +427.591-0.615248*T;,,                                   N 91Din !
 PAR  TC(FCC_A1,CO:VA),,                 1396.00;,,                   N 91Din !
 PAR  BM(FCC_A1,CO:VA),,                    1.35;,,                   N 91Din !
 PAR  G(BCC_A2,CO:VA),,                 +GHSERCO+2938-0.7138*T;,,     N 91Din !
 PAR  TC(BCC_A2,CO:VA),,                 1450.00;,,                   N 91Din !
 PAR  BM(BCC_A2,CO:VA),,                    1.35;,,                   N 91Din !
$PAR  G(CBCC_A12,CO:VA),,               +GHSERCO+4155;,,              N 91Din !
$PAR  G(CUB_A13,CO:VA),,                +GHSERCO+3155;,,              N 91Din !
 PAR  G(LIQUID,CO),,                    +GLIQCO;,,                    N 91Din !
$
 FUNCTION GHSERCO   298.15  +310.241+133.36601*T-25.0861*T*LN(T)
       -0.002654739*T**2-1.7348E-07*T**3+72527*T**(-1);
      1768.00  Y  -17197.666+253.28374*T-40.5*T*LN(T)+9.3488E+30*T**(-9);
      6000.00  N !
 FUNCTION GLIQCO    298.15  +15085.037-8.931932*T+GHSERCO-2.19801E-21*T**7;
      1768.00  Y  -846.61+243.599944*T-40.5*T*LN(T);
      6000.00  N !
$ ------------------------------------------------------------------------------
$ Fe
$
$ ORTHORHOMBIC_A20 and TETRAGONAL_U added im unary 4.1
$
 PAR  G(BCC_A2,FE:VA),,                 +GHSERFE;,,                   N 91Din !
 PAR  TC(BCC_A2,FE:VA),,                 1043.00;,,                   N 91Din !
 PAR  BM(BCC_A2,FE:VA),,                    2.22;,,                   N 91Din !
 PAR  G(FCC_A1,FE:VA),,                 +GFCCFE;,,                    N 91Din !
 PAR  TC(FCC_A1,FE:VA),,                 -201.00;,,                   N 91Din !
 PAR  BM(FCC_A1,FE:VA),,                   -2.10;,,                   N 91Din !
 PAR  G(HCP_A3,FE:VA),,                 +GHCPFE;,,                    N 91Din !
$PAR  G(CBCC_A12,FE:VA),,               +GHSERFE+4745;,,              N 91Din !
$PAR  G(CUB_A13,FE:VA),,                +GHSERFE+3745;,,              N 91Din !
$PAR  G(ORTHORHOMBIC_A20,FE),,          +GHSERFE+5000;,,              N 99SGUN !
$PAR  G(TETRAGONAL_U,FE),,              +GHSERFE+5000;,,              N 99SGUN !
 PAR  G(LIQUID,FE),,                    +GLIQFE;,,                    N 91Din !
$
 FUNCTION GHSERFE   298.15  +1225.7+124.134*T-23.5143*T*LN(T)
       -0.00439752*T**2-5.8927E-08*T**3+77359*T**(-1);
      1811.00  Y  -25383.581+299.31255*T-46*T*LN(T)+2.29603E+31*T**(-9);
      6000.00  N !
 FUNCTION GFCCFE    298.15  -1462.4+8.282*T-1.15*T*LN(T)
       +6.4E-04*T**2+GHSERFE;
      1811.00  Y  -1713.815+0.940009*T+GHSERFE+4.9251E+30*T**(-9);
      6000.00  N !
 FUNCTION GHCPFE    298.15  -3705.78+12.591*T-1.15*T*LN(T)
       +6.4E-04*T**2+GHSERFE;
      1811.00  Y  -3957.195+5.249009*T+GHSERFE+4.9251E+30*T**(-9);
      6000.00  N !
 FUNCTION GLIQFE    298.15  +12040.17-6.55843*T+GHSERFE-3.67516E-21*T**7;
      1811.00  Y  -10838.83+291.302*T-46*T*LN(T);
      6000.00  N !
$ ------------------------------------------------------------------------------
$ Binary system
$
$ From A. Fernandez Guillermet 1987 (included in LB Vol. 2)
$
$ A. Fernandez Guillermet, High Temp. High Press., 19, 477-99(1987).
$
$ Checked against LB and paper. Checked at 6000 K.
$
 PAR  L(LIQUID,CO,FE;0),,               -9312;,,                      N 87Fer2 !
 PAR  L(LIQUID,CO,FE;1),,               -1752;,,                      N 87Fer2 !
$
 PAR  L(FCC_A1,CO,FE:VA;0),,            -8471;,,                      N 87Fer2 !
 PAR  L(FCC_A1,CO,FE:VA;1),,            +1181-1.6544*T;,,             N 87Fer2 !
 PAR  TC(FCC_A1,CO,FE:VA;0),,            +283;,,                      N 87Fer2 !
 PAR  TC(FCC_A1,CO,FE:VA;1),,            +879;,,                      N 87Fer2 !
 PAR  BM(FCC_A1,CO,FE:VA;0),,              +9.74;,,                   N 87Fer2 !
 PAR  BM(FCC_A1,CO,FE:VA;1),,              -3.516;,,                  N 87Fer2 !
$
 PAR  L(BCC_A2,CO,FE:VA;0),,            -23669+103.963*T
             -12.7886*T*LN(T);,,                                      N 87Fer2 !
 PAR  TC(BCC_A2,CO,FE:VA;0),,            +590;,,                      N 87Fer2 !
 PAR  BM(BCC_A2,CO,FE:VA;0),,              +2.4127;,,                 N 87Fer2 !
 PAR  BM(BCC_A2,CO,FE:VA;1),,              +0.2418;,,                 N 87Fer2 !
$
 PAR  L(HCP_A3,CO,FE:VA;0),,            -400;,,                       N 87Fer2 !
 PAR  TC(HCP_A3,CO,FE:VA;0),,            -253;,,                      N 87Fer2 !
 PAR  TC(HCP_A3,CO,FE:VA;1),,           +1494;,,                      N 87Fer2 !
 PAR  BM(HCP_A3,CO,FE:VA;0),,              +5.41;,,                   N 87Fer2 !
 PAR  BM(HCP_A3,CO,FE:VA;1),,              -0.24;,,                   N 87Fer2 !
$
$ Metastable
$
$PAR  L(CBCC_A12,CO,FE:VA;0),,          -10000;,,                     N 90Hua !
$PAR  L(CUB_A13,CO,FE:VA;0),,           -10000;,,                     N 90Hua !
$ ------------------------------------------------------------------------------
$
 ASSESSED_SYSTEM
  CO-FE(TDB -* +LIQ +HCP_A3 +FCC_A1 +BCC_A2 ;P3 TMM:300/2000 STP:.5/1500/2/-2) !
$
$
 LIST-OF-REFERENCE
 NUMBER  SOURCE
  Null   'Unknown source'
  REFLAV 'Laves phase convention: G(LAVES,X:X)=+3*GHSERXX+15000'
  87Fer2 'A. Fernandez Guillermet,
          High Temp. High Press., 19, 477-99(1987); Co-Fe'
  90Hua  'W. Huang, Calphad, 14, 11-22(1990); Co-Fe-Mn'
  91Din  'A.T. Dinsdale, Calphad, 15, 317-425(1991).'
  99SGUN 'SGTE unary database V.4.1, 1999.'
!
