$
$ Database for Cd-Ce from J. Liu et al. 2023.
$
$ J. Liu, X. Huang, Q. Du, L. Ouyang, J. Xiao, Y. Li,
$ Int. J. Mater. Res., 114, 1101-10(2023).
$
$ Dataset created 2024.01.29 by Bengt Hallstedt.
$
$ The paper contains both a Wagner-Schottky-like and an order-disorder model
$ for CdCe-B2.
$
$ The order-disorder model is incorrect. It was tested and did not work.
$ This dataset, thus, contains the Wagner-Schottky-like model (model I).
$
$ The bcc interaction has a very large temperature dependence.
$
$ ------------------------------------------------------------------------------
 TEMP-LIM 298.15 6000.00 !
$
$ELEMENT NAME  REF. STATE               ATOMIC MASS H298-H0    S298    !
$
 ELEMENT VA   VACUUM                      0.0          0.0      0.0    ! 
 ELEMENT CD   HCP_A3                    112.41      6247.      51.80   ! 
 ELEMENT CE   FCC_A1                    140.12      7280.16    69.454  ! 
$ ------------------------------------------------------------------------------
$ Phase definitions
$
 PHASE LIQUID:L % 1 1 !
 CONST LIQUID:L : CD CE : !
$
$ Fcc (cF4, Fm-3m) and MeX (cF8, Fm-3m)
$
 PHASE FCC_A1 %A 2 1 1 !
 CONST FCC_A1 : CD CE% : VA : !
$
$ Bcc (cI2, Im-3m)
$
 PHASE BCC_A2 %B 2 1 3 !
 CONST BCC_A2 : CD CE% : VA : !
$
$ Hcp (hP2, P6_3/mmc) and Me2X (NiAs-type, hP4, P6_3/mmc, B8_1)
$
 PHASE HCP_A3 %A 2 1 0.5 !
 CONST HCP_A3 : CD% CE : VA : !
$
$ Prototype BaHg11 (cP36, Pm-3m)
$
 PHASE CD11CE_D2E % 2 11 1 !
 CONST CD11CE_D2E : CD : CE : !
$
$ Prototype Ni17Th2 (hP38, P6_3/mmc)
$
 PHASE CD17CE2 % 2 17 2 !
 CONST CD17CE2 : CD : CE : !
$
$ Prototype Cd37Ce6 (cP188, Pn-3)
$
 PHASE CD6CE % 2 6 1 !
 CONST CD6CE : CD : CE : !
$
$ Prototype Gd13Zn58 (hP142, P6_3/mmc)
$
 PHASE CD58CE13 % 2 58 13 !
 CONST CD58CE13 : CD% CE : CD CE% : !
$
$ Prototype BiF3 (cF16, Fm-3m)
$
 PHASE CD3CE_D03 % 2 3 1 !
 CONST CD3CE_D03 : CD : CE : !
$
$ Prototype Cd2Ce (hP3, P-3m1)
$
 PHASE CD2CE % 2 2 1 !
 CONST CD2CE : CD% CE : CD CE% : !
$
$ Prototype CsCl (cP2, Pm-3m)
$
 PHASE CDCE_B2 % 2 1 1 !
 CONST CDCE_B2 : CD% CE : CE CD% : !
$ ------------------------------------------------------------------------------
$ Defaults
$
 DEFINE-SYSTEM-DEFAULT ELEMENT 2 !
 DEFAULT-COM DEFINE_SYSTEM_ELEMENT VA !
 TYPE-DEF % SEQ * !
 TYPE-DEF A GES AMEND_PHASE_DESCRIPTION @ MAGNETIC -3 0.28 !
 TYPE-DEF B GES AMEND_PHASE_DESCRIPTION @ MAGNETIC -1 0.4 !
 FUNCTION ZERO      298.15  0;                                         6000 N !
 FUNCTION UN_ASS    298.15  0;                                         6000 N !
 FUNCTION R         298.15  +8.31451;                                  6000 N !
$ ------------------------------------------------------------------------------
$ Element data
$ ------------------------------------------------------------------------------
$ Cd
$
$ FCC_A1 and TETRAGONAL_A6 added in unary 3.0
$ BCT_A5 and RHOMBO_A10 added in unary 4.1
$ BCC_A2 added in unary 5.0
$
$ FCC_A1 from 10Che not included in unary
$ BCC_A2 from 23Liu not included in unary
$
 PAR  G(HCP_A3,CD:VA),,                 +GHSERCD;                1600 N 91Din !
$PAR  G(FCC_A1,CD:VA),,                 +GHSERCD+892.3-0.92*T;   1600 N 93Zak !
 PAR  G(FCC_A1,CD:VA),,                 +GHSERCD+5000;           1600 N 10Che !
$PAR  G(BCC_A2,CD:VA),,                 +GHSERCD+1000;           1600 N 04Che1 !
 PAR  G(BCC_A2,CD:VA),,                 +GHSERCD+5000;           1600 N 23Liu !
$PAR  G(TETRAGONAL_A6,CD),,             +GHSERCD+892.3-0.92*T;   1600 N 93Zak !
$PAR  G(BCT_A5,CD),,                    +GHSERCD+5000;           1600 N 95Yan !
$PAR  G(RHOMBO_A10,CD),,                +GHSERCD+800-0.62*T;     1600 N 95Yan !
 PAR  G(LIQUID,CD),,                    +GLIQCD;                 1600 N 91Din !
$
 PAR  G(CD58CE13,CD:CD),,               +71*GHSERCD+2130000;,,        N 23Liu !
 PAR  G(CD2CE,CD:CD),,                  +3*GHSERCD+30000;,,           N 23Liu !
 PAR  G(CDCE_B2,CD:CD),,                +2*GHSERCD+60686.8;,,         N 23Liu !
$
 FUNCTION GHSERCD   298.15  -7083.469+99.506198*T-22.0442408*T*LN(T)
       -0.006273908*T**2-6966*T**(-1);
       594.22  Y  -20064.971+256.812233*T-45.1611543*T*LN(T)
       +0.008832011*T**2-8.99604E-07*T**3+1241290*T**(-1);
      1500.00  Y  -9027.489+148.20548*T-29.7064*T*LN(T);
      1600.00  N !
 FUNCTION GLIQCD    298.15  +6128.444-10.296916*T+GHSERCD;
       400.00  Y  +21716.884-371.046869*T+53.1313898*T*LN(T)
       -0.115159917*T**2+2.8899781E-05*T**3-1271815*T**(-1);
       594.22  Y  -3252.303+138.251107*T-29.7064*T*LN(T);
      1500.00  Y  +5775.186-9.954373*T+GHSERCD;
      1600.00  N !
 FUNCTION GBCCCD    298.15  +GHSERCD+1000;                             6000 N !
$ ------------------------------------------------------------------------------
$ Ce
$
$ HCP_A3 and DHCP added in unary 3.0
$ HCP_A3 and DHCP revised in unary 4.4
$
$ HCP_A3 from 23Liu not included in unary
$
 PAR  G(FCC_A1,CE:VA),,                 +GHSERCE;                4000 N 91Din !
 PAR  G(BCC_A2,CE:VA),,                 +GBCCCE;                 4000 N 91Din !
$PAR  G(HCP_A3,CE:VA),,                 +GHSERCE+300;            4000 N Frank !
$PAR  G(HCP_A3,CE:VA),,                 +GHSERCE+50000;          4000 N 96SGUN !
 PAR  G(HCP_A3,CE:VA),,                 +GHSERCE+5000;           4000 N 23Liu !
$PAR  G(DHCP,CE:VA),,                   +GHSERCE
$            -122.539+0.433*T;                                   4000 N 99Gsc !
$PAR  G(DHCP,CE),,                      +GHSERCE-190+0.56886*T;  4000 N 96SGUN !
 PAR  G(LIQUID,CE),,                    +GLIQCE;                 4000 N 91Din !
$
 PAR  G(CD58CE13,CE:CE),,               +71*GHSERCE+2130000;,,        N 23Liu !
 PAR  G(CD2CE,CE:CE),,                  +3*GHSERCE+30000;,,           N 23Liu !
 PAR  G(CDCE_B2,CE:CE),,                +2*GHSERCE+60686.8;,,         N 23Liu !
$
 FUNCTION GHSERCE   298.15  -7160.519+84.23022*T-22.3664*T*LN(T)
       -0.0067103*T**2-3.20773E-07*T**3-18117*T**(-1);
      1000.00  Y  -79678.506+659.4604*T-101.32248*T*LN(T)
       +0.026046487*T**2-1.930297E-06*T**3+11531707*T**(-1);
      2000.00  Y  -14198.639+190.370192*T-37.6978*T*LN(T);
      4000.00  N !
 FUNCTION GBCCCE    298.15  -1354.69-5.21501*T-7.7305867*T*LN(T)
       -0.029098402*T**2+4.784299E-06*T**3-196303*T**(-1);
      1000.00  Y  -12101.106+187.449688*T-37.6142*T*LN(T);
      1072.00  Y  -11950.375+186.333811*T-37.4627992*T*LN(T)
       -5.7145E-05*T**2+2.348E-09*T**3-25897*T**(-1);
      4000.00  N !
 FUNCTION GLIQCE    298.15  +4117.865-11.423898*T-7.5383948*T*LN(T)
       -0.02936407*T**2+4.827734E-06*T**3-198834*T**(-1);
      1000.00  Y  -6730.605+183.023193*T-37.6978*T*LN(T);
      4000.00  N !
$ ------------------------------------------------------------------------------
$ Binary system
$
$ J. Liu, X. Huang, Q. Du, L. Ouyang, J. Xiao, Y. Li,
$ Int. J. Mater. Res., 114, 1101-10(2023).
$
$ Checked against paper. Checked at 6000 K.
$
$ The paper contains both a Wagner-Schottky-like and an order-disorder model
$ for CdCe-B2.
$
$ The order-disorder model is incorrect. It was tested and did not work.
$ This dataset, thus, contains the Wagner-Schottky-like model (model I).
$
$ The bcc interaction has a very large temperature dependence.
$
 PAR  L(LIQUID,CD,CE;0),,               -86759.4+13.0127*T;,,         N 23Liu !
 PAR  L(LIQUID,CD,CE;1),,               -54600.5+20.6554*T;,,         N 23Liu !
 PAR  L(LIQUID,CD,CE;2),,               -18182.9-5.162*T;,,           N 23Liu !
$
 PAR  L(FCC_A1,CD,CE:VA;0),,            -60044.6+15.0234*T;,,         N 23Liu !
$
$ Model I below
 PAR  L(BCC_A2,CD,CE:VA;0),,            -163269.4+80.765*T;,,         N 23Liu !
 PAR  L(BCC_A2,CD,CE:VA;1),,            -86482.1+37.1475*T;,,         N 23Liu !
 PAR  L(BCC_A2,CD,CE:VA;2),,            -18124-4.2034*T;,,            N 23Liu !
$
$ Model II below
$PAR  L(BCC_A2,CD,CE:VA;0),,            -81571.4+40.34444*T;,,        N 23Liu !
$PAR  L(BCC_A2,CD,CE:VA;1),,            -25856.7+78.2763*T;,,         N 23Liu !
$PAR  L(BCC_A2,CD,CE:VA;2),,            +29707.4-5.0344*T;,,          N 23Liu !
$
$ Model II below; these parameters do not work
$PAR  G(B2_BCC,CD:CE:VA),,              -20233.4+30.0023*T;,,         N 23Liu !
$PAR  G(B2_BCC,CE:CE:VA),,              -20233.4+30.0023*T;,,         N 23Liu !
$PAR  L(B2_BCC,CD,CE:CD:VA;0),,         +70234.3+20.2334*T;,,         N 23Liu !
$PAR  L(B2_BCC,CD:CD,CE:VA;0),,         +70234.3+20.2334*T;,,         N 23Liu !
$PAR  L(B2_BCC,CD,CE:CD:VA;1),,         +20233.4-10.0233*T;,,         N 23Liu !
$PAR  L(B2_BCC,CD:CD,CE:VA;1),,         +20233.4-10.0233*T;,,         N 23Liu !
$PAR  L(B2_BCC,CD,CE:CE:VA;0),,         +70234.3+32.5023*T;,,         N 23Liu !
$PAR  L(B2_BCC,CE:CD,CE:VA;0),,         +70234.3+32.5023*T;,,         N 23Liu !
$PAR  L(B2_BCC,CD,CE:CE:VA;1),,         +10234.3+14.1023*T;,,         N 23Liu !
$PAR  L(B2_BCC,CE:CD,CE:VA;1),,         +10234.3+14.1023*T;,,         N 23Liu !
$PAR  L(B2_BCC,CD,CE:CE:VA;2),,         -30223.3;,,                   N 23Liu !
$PAR  L(B2_BCC,CE:CD,CE:VA;2),,         -30223.3;,,                   N 23Liu !
$
 PAR  L(HCP_A3,CD,CE:VA;0),,            +ZERO;,,                      N 23Liu !
$
 PAR  G(CD11CE_D2E,CD:CE),,             +11*GHSERCD+GHSERCE
             -261027.6+96.2808*T;,,                                   N 23Liu !
 PAR  G(CD17CE2,CD:CE),,                +17*GHSERCD+2*GHSERCE
             -468338.6+152.4788*T;,,                                  N 23Liu !
 PAR  G(CD6CE,CD:CE),,                  +6*GHSERCD+GHSERCE
             -209689.2+59.1549*T;,,                                   N 23Liu !
$
 PAR  G(CD58CE13,CD:CE),,               +58*GHSERCD+13*GHSERCE
             -2402199.8+583.6697*T;,,                                 N 23Liu !
 PAR  G(CD58CE13,CE:CD),,               +58*GHSERCE+13*GHSERCD
             +2402199.8-583.6697*T;,,                                 N 23Liu !
 PAR  L(CD58CE13,CD,CE:CD;0),,          -2856571.4;,,                 N 23Liu !
 PAR  L(CD58CE13,CD,CE:CE;0),,          -2856571.4;,,                 N 23Liu !
 PAR  L(CD58CE13,CD:CD,CE;0),,          -2414234.3;,,                 N 23Liu !
 PAR  L(CD58CE13,CE:CD,CE;0),,          -2414234.3;,,                 N 23Liu !
$
 PAR  G(CD3CE_D03,CD:CE),,              +3*GHSERCD+GHSERCE
             -153665.6+38.4*T;,,                                      N 23Liu !
$
 PAR  G(CD2CE,CD:CE),,                  +2*GHSERCD+GHSERCE
             -129009.6+31*T;,,                                        N 23Liu !
 PAR  G(CD2CE,CE:CD),,                  +2*GHSERCE+GHSERCD
             +129009.6-31*T;,,                                        N 23Liu !
$ Model I below
 PAR  L(CD2CE,CD,CE:CD;0),,             -24700.2;,,                   N 23Liu !
 PAR  L(CD2CE,CD,CE:CE;0),,             -24700.2;,,                   N 23Liu !
 PAR  L(CD2CE,CD:CD,CE;0),,             +91036.5;,,                   N 23Liu !
 PAR  L(CD2CE,CE:CD,CE;0),,             +91036.5;,,                   N 23Liu !
$ Model II below
$PAR  L(CD2CE,CD,CE:CD;0),,             -6700.2;,,                    N 23Liu !
$PAR  L(CD2CE,CD,CE:CE;0),,             -6700.2;,,                    N 23Liu !
$PAR  L(CD2CE,CD:CD,CE;0),,             +91036.5;,,                   N 23Liu !
$PAR  L(CD2CE,CE:CD,CE;0),,             +91036.5;,,                   N 23Liu !
$
 PAR  G(CDCE_B2,CD:CE),,                +GHSERCD+GHSERCE
             -87782.2+24.5508*T;,,                                    N 23Liu !
 PAR  G(CDCE_B2,CE:CD),,                +GHSERCD+GHSERCE
             +87782.2-24.5508*T;,,                                    N 23Liu !
 PAR  L(CDCE_B2,CD,CE:CD;0),,           -40466.6;,,                   N 23Liu !
 PAR  L(CDCE_B2,CD,CE:CE;0),,           -40466.6;,,                   N 23Liu !
 PAR  L(CDCE_B2,CD:CD,CE;0),,           -40466.6;,,                   N 23Liu !
 PAR  L(CDCE_B2,CE:CD,CE;0),,           -40466.6;,,                   N 23Liu !
$ ------------------------------------------------------------------------------
$
$
 LIST-OF-REFERENCE
 NUMBER  SOURCE
  Null   'Unknown source'
  Same   'Same or similar interaction as in the corresponding stable phase'
  COST   'COST 507 database'
  Frank  'Peter Franke, unpublished, SGTE unary database V.4.4, 2001; Ce'
  91Din  'A.T. Dinsdale, Calphad, 15, 317-425(1991).'
  93Zak  'W. Zakulski, Z. Moser, K. Rzyman, H.L. Lukas, S.G. Fries,
          M. Sukiennik, R. Kaczmarczyk, R. Castanet,
          J. Phase Equilib., 14, 184-96(1993),
          SGTE unary database V.3.0, 1996; Cd'
  95Yan  'J. Yang, N.J. Silk, A. Watson, A.W. Bryant, T.G. Chart, B.B. Argent,
          Calphad, 19, 415-30(1995),
          SGTE unary database V.4.1, 1999; Cd, Hg'
  96SGUN 'SGTE unary database V.3.0, 1996.'
  99Gsc  'K.A. Gschneidner, Jr., V.K. Pecharsky, J. Phase Equilib.,
          20, 612-14(1999), SGTE unary database V.4.4, 2001; Ce'
  04Che1 'P.-Y. Chevalier, unpublished, Thermodata, 2004,
          SGTE unary database V.5.0, 2009; Cd'
  10Che  'X.M. Chen, L.B. Liu, L.G. Zhang, H. Bo, Z.P. Jin,
          Trans. Nonferrous Met. Soc. China, 20, 649-54(2010); Cd'
  23Liu  'J. Liu, X. Huang, Q. Du, L. Ouyang, J. Xiao, Y. Li,
          Int. J. Mater. Res., 114, 1101-10(2023); Cd, Ce, Cd-Ce'
!
