$
$ Database for Th-Zr from Z.S. Li et al. 2009.
$
$ Z.S. Li, X.J. Liu, C.P. Wang, J. Alloys Compd., 476, 193-98(2009).
$
$ Dataset created 2024.04.22 by Bengt Hallstedt.
$
$ The liquid interaction is incorrect in the paper. An attempt was made to
$ correct it, but there is a rather large mismatch for the liquidus/solidus.
$ There is also some mismatch for fcc/bcc equilibria.
$
$ Invariant (solid) equilibria differ by up to 10 K.
$
$ The Th solubility in hcp-Zr shown in the paper is higher and does not match
$ the parameters provided.
$
$ ------------------------------------------------------------------------------
 TEMP-LIM 298.15 6000.00 !
$
$ELEMENT NAME  REF. STATE               ATOMIC MASS H298-H0    S298    !
$
 ELEMENT VA   VACUUM                      0.0          0.0      0.0    ! 
 ELEMENT TH   FCC_A1                    232.0381    6350.0     51.8    ! 
 ELEMENT ZR   HCP_A3                     91.22      5566.27    39.1809 ! 
$ ------------------------------------------------------------------------------
$ Phase definitions
$
 PHASE LIQUID:L % 1 1 !
 CONST LIQUID:L : TH ZR : !
$
$ Fcc (cF4, Fm-3m) and MeX (cF8, Fm-3m), delta-Pu and alpha-Th
$
 PHASE FCC_A1 %A 2 1 1 !
 CONST FCC_A1 : TH% ZR : VA : !
$
$ Bcc (cI2, Im-3m)
$
 PHASE BCC_A2 %B 2 1 3 !
 CONST BCC_A2 : TH% ZR% : VA : !
$
$ Hcp (hP2, P6_3/mmc) and Me2X (NiAs-type, hP4, P6_3/mmc, B8_1)
$
 PHASE HCP_A3 %A 2 1 0.5 !
 CONST HCP_A3 : TH ZR% : VA : !
$ ------------------------------------------------------------------------------
$ Defaults
$
 DEFINE-SYSTEM-DEFAULT ELEMENT 2 !
 DEFAULT-COM DEFINE_SYSTEM_ELEMENT VA !
 TYPE-DEF % SEQ * !
 TYPE-DEF A GES AMEND_PHASE_DESCRIPTION @ MAGNETIC -3 0.28 !
 TYPE-DEF B GES AMEND_PHASE_DESCRIPTION @ MAGNETIC -1 0.4 !
 FUNCTION ZERO      298.15  0;                                         6000 N !
 FUNCTION UN_ASS    298.15  0;                                         6000 N !
 FUNCTION R         298.15  +8.31451;                                  6000 N !
$ ------------------------------------------------------------------------------
$ Element data
$ ------------------------------------------------------------------------------
$ Th
$
$ FCC_A1, BCC_A2 and LIQUID modified in unary 4.4
$
$ HCP_A3, ORTHORHOMBIC_A20 and TETRAGONAL_U from 09Li not included in unary
$ TETRAGONAL_A6 from 14Ben not included in unary
$
 PAR  G(FCC_A1,TH:VA),,                 +GHSERTH;                4000 N 01SGUN !
 PAR  G(BCC_A2,TH:VA),,                 +GBCCTH;                 4000 N 01SGUN !
 PAR  G(HCP_A3,TH:VA),,                 +GHSERTH+5000;           4000 N 09Li !
$PAR  G(TETRAGONAL_A6,TH),,             +GHSERTH+3053;           4000 N 14Ben !
$PAR  G(ORTHORHOMBIC_A20,TH),,          +GHSERTH+48000;          4000 N 09Li !
$PAR  G(TETRAGONAL_U,TH),,              +GHSERTH+52000;          4000 N 09Li !
 PAR  G(LIQUID,TH),,                    +GLIQTH;                 4000 N 01SGUN !
$
 FUNCTION GHSERTH   298.15  -7732.08+116.273975*T-24.841*T*LN(T)
       -0.00236725*T**2-5.2883E-07*T**3+13010*T**(-1);
      1633.00  Y  -37352.871+236.906118*T-39.107*T*LN(T)
       -0.00358025*T**2+2.36893E-07*T**3+7981000*T**(-1);
      2900.00  Y  -33353.313+283.231045*T-46.024*T*LN(T);
      4000.00  N !
 FUNCTION GBCCTH    298.15  -2321.06+133.531195*T-28.244*T*LN(T)
       +4.3775E-04*T**2-5.3048E-07*T**3+91190*T**(-1);
      1633.00  Y  -115978.348+800.909049*T-116.453*T*LN(T)
       +0.03098*T**2-2.536883E-06*T**3+27512600*T**(-1);
      2023.00  Y  -33602.796+208.774709*T-35.813*T*LN(T)
       -0.00346655*T**2+1.66067E-07*T**3+11876950*T**(-1);
      3600.00  Y  -980.302-0.049551*T+GHSERTH;
      4000.00  N !
 FUNCTION GLIQTH    298.15  +5031.109+110.886346*T-24.987*T*LN(T)
       -0.00168345*T**2-9.09067E-07*T**3+10865*T**(-1);
      1499.80  Y  -15602.847+127.657716*T-24.03*T*LN(T)
       -0.0136421*T**2+1.210117E-06*T**3+7111100*T**(-1);
      2014.50  Y  -17273.382+275.001274*T-46.024*T*LN(T);
      4000.00  N !
$ ------------------------------------------------------------------------------
$ Zr
$
$ CUB_A13, CBCC_A12, ORTHORHOMBIC_A20 and TETRAGONAL_U added in unary 4.1
$
 PAR  G(HCP_A3,ZR:VA)           130.00  +GHSERZR;,,                   N 91Din !
 PAR  G(BCC_A2,ZR:VA)           130.00  +GBCCZR;,,                    N 91Din !
$PAR  G(OMEGA,ZR)               130.00  +GOMEZR;,,                    N 91Din !
 PAR  G(FCC_A1,ZR:VA)           130.00  +GHSERZR+7600-0.9*T;,,        N 91Din !
$PAR  G(CBCC_A12,ZR:VA)         130.00  +GHSERZR+4602.2;,,            N 99SGUN !
$PAR  G(CUB_A13,ZR:VA)          130.00  +GHSERZR+7531.2;,,            N 99SGUN !
$PAR  G(ORTHORHOMBIC_A20,ZR)    130.00  +GBCCZR+5000;,,               N 99SGUN !
$PAR  G(TETRAGONAL_U,ZR)        130.00  +GBCCZR+5000;,,               N 99SGUN !
 PAR  G(LIQUID,ZR)              130.00  +GLIQZR;,,                    N 91Din !
$
 FUNCTION GHSERZR   130.00  -7827.595+125.64905*T-24.1618*T*LN(T)
       -0.00437791*T**2+34971*T**(-1);
      2128.00  Y  -26085.921+262.724183*T-42.144*T*LN(T)-1.342896E+31*T**(-9);
      6000.00  N !
 FUNCTION GBCCZR    130.00  -525.539+124.9457*T-25.607406*T*LN(T)
       -3.40084E-04*T**2-9.729E-09*T**3+25233*T**(-1)-7.6143E-11*T**4;
      2128.00  Y  -4620.034+1.55998*T+GHSERZR+1.4103476E+32*T**(-9);
      6000.00  N !
 FUNCTION GOMEZR    130.00  -8878.082+144.432234*T-26.8556*T*LN(T)
       -0.002799446*T**2+38376*T**(-1);
      2128.00  Y  -3414.603+2.566675*T+GHSERZR+8.517346E+31*T**(-9);
      6000.00  N !
 FUNCTION GLIQZR    130.00  +18147.69-9.080812*T+GHSERZR+1.6275E-22*T**7;
      2128.00  Y  -8281.26+253.812609*T-42.144*T*LN(T);
      6000.00  N !
$ ------------------------------------------------------------------------------
$ Binary system
$
$ Z.S. Li, X.J. Liu, C.P. Wang, J. Alloys Compd., 476, 193-98(2009).
$
$ Checked against paper. Checked at 6000 K.
$
$ The liquid interaction is incorrect in the paper. An attempt was made to
$ correct it, but there is a rather large mismatch for the liquidus/solidus.
$ There is also some mismatch for fcc/bcc equilibria.
$
$ Invariant (solid) equilibria differ by up to 10 K.
$
$ The Th solubility in hcp-Zr shown in the paper is higher and does not match
$ the parameters provided.
$
$ Interaction in the paper below
$PAR  L(LIQUID,TH,ZR;0),,               -39565+45.137*T;,,            N 09Li !
$ Attempt to correction below
 PAR  L(LIQUID,TH,ZR;0),,               +3956.5+4.5137*T;,,           N 09Li !
 PAR  L(LIQUID,TH,ZR;1),,               -1303;,,                      N 09Li !
 PAR  L(LIQUID,TH,ZR;2),,               -25512+8.486*T;,,             N 09Li !
$
 PAR  L(FCC_A1,TH,ZR:VA;0),,            +12669+6.831*T;,,             N 09Li !
 PAR  L(FCC_A1,TH,ZR:VA;1),,            -19386+0.244*T;,,             N 09Li !
 PAR  L(FCC_A1,TH,ZR:VA;2),,            +98+8.327*T;,,                N 09Li !
$
 PAR  L(BCC_A2,TH,ZR:VA;0),,            +4941+10.746*T;,,             N 09Li !
 PAR  L(BCC_A2,TH,ZR:VA;1),,            +1057-2.362*T;,,              N 09Li !
 PAR  L(BCC_A2,TH,ZR:VA;2),,            +435-2.128*T;,,               N 09Li !
$
 PAR  L(HCP_A3,TH,ZR:VA;0),,            +50000;,,                     N 09Li !
$ ------------------------------------------------------------------------------
$
$
 LIST-OF-REFERENCE
 NUMBER  SOURCE
  Null   'Unknown source'
  Same   'Same or similar interaction as in the corresponding stable phase'
  COST   'COST 507 database'
  91Din  'A.T. Dinsdale, Calphad, 15, 317-425(1991).'
  99SGUN 'SGTE unary database V.4.1, 1999.'
  01SGUN 'SGTE unary database V.4.4, 2001.'
  09Li   'Z.S. Li, X.J. Liu, C.P. Wang,
          J. Alloys Compd., 476, 193-98(2009); Th, Th-Zr'
  14Ben  'O. Benes, D. Manara, R.J.M. Konings,
          J. Nucl. Mater., 449, 15-22(2014); Th'
!
