$
$ Database for Dy-Pd from Z. Du et al. 2000.
$
$ Z. Du, H. Yang, Y. Xu, J. Alloys Compd., 302, 199-203(2000).
$
$ Dataset created 2018.02.24 by Bengt Hallstedt.
$ 2020.12.26: Modified for use with GES6.
$
$ The interaction parameters and lattice stability for fcc-Dy are not
$ acceptable.
$
$ ------------------------------------------------------------------------------
 TEMP-LIM 298.15 6000.00 !
$
$ELEMENT NAME  REF. STATE               ATOMIC MASS H298-H0    S298    !
$
 ELEMENT VA   VACUUM                      0.0          0.0      0.0    ! 
 ELEMENT DY   HCP_A3                    162.50      8865.896   74.9559 ! 
 ELEMENT PD   FCC_A1                    106.42      5468.488   37.8234 ! 
$ ------------------------------------------------------------------------------
$ Phase definitions
$
 PHASE LIQUID:L % 1 1 !
 CONST LIQUID:L : DY PD : !
$
$ Fcc (cF4, Fm-3m) and MeX (cF8, Fm-3m)
$
 PHASE FCC_A1 %A 2 1 1 !
 CONST FCC_A1 : DY PD% : VA : !
$
$ Bcc (cI2, Im-3m)
$
 PHASE BCC_A2 %B 2 1 3 !
 CONST BCC_A2 : DY PD : VA : !
$
$ Hcp (hP2, P6_3/mmc) and Me2X (NiAs-type, hP4, P6_3/mmc, B8_1)
$
 PHASE HCP_A3 %A 2 1 0.5 !
 CONST HCP_A3 : DY% PD : VA : !
$
$ Prototype Dy5Pd2 (cF144, Fd-3m)
$
 PHASE DY5PD2 % 2 5 2 !
 CONST DY5PD2 : DY : PD : !
$
$ Prototype Si2U3 (tP10, P4/mbm)
$
 PHASE DY3PD2_D5A % 2 3 2 !
 CONST DY3PD2_D5A : DY : PD : !
$
$ Prototype FeB (oP8, Pnma), low T
$
 PHASE DYPD_B27 % 2 1 1 !
 CONST DYPD_B27 : DY : DY PD% : !
$
$ Prototype CsCl (cP2, Pm-3m), high T
$
 PHASE DYPD_B2 % 2 1 1 !
 CONST DYPD_B2 : DY : DY PD% : !
$
$ Prototype Pd4Pu3 (hR14, R-3)
$
 PHASE DY3PD4 % 2 3 4 !
 CONST DY3PD4 : DY : PD : !
$
$ Unknown structure
$
 PHASE DY2PD3_LT % 2 2 3 !
 CONST DY2PD3_LT : DY : PD : !
$
$ Unknown structure
$
 PHASE DY2PD3_HT % 2 2 3 !
 CONST DY2PD3_HT : DY : PD : !
$
$ Unknown structure
$
 PHASE DYPD2 % 2 1 2 !
 CONST DYPD2 : DY : PD : !
$
$ Prototype AuCu3 (cP4, Pm-3m)
$
 PHASE DYPD3_L12 % 2 1 3 !
 CONST DYPD3_L12 : DY% PD : PD : !
$
$ Unknown structure
$
 PHASE DYPD7 % 2 1 7 !
 CONST DYPD7 : DY : PD : !
$ ------------------------------------------------------------------------------
$ Defaults
$
 DEFINE-SYSTEM-DEFAULT ELEMENT 2 !
 DEFAULT-COM DEFINE_SYSTEM_ELEMENT VA !
 TYPE-DEF % SEQ * !
 TYPE-DEF A GES AMEND_PHASE_DESCRIPTION @ MAGNETIC -3 0.28 !
 TYPE-DEF B GES AMEND_PHASE_DESCRIPTION @ MAGNETIC -1 0.4 !
 FUNCTION ZERO      298.15  0;                                         6000 N !
 FUNCTION UN_ASS    298.15  0;                                         6000 N !
 FUNCTION R         298.15  +8.31451;                                  6000 N !
$ ------------------------------------------------------------------------------
$ Element data
$ ------------------------------------------------------------------------------
$ Dy
$
$ HCP_A3, BCC_A2 and LIQUID revised in unary 3.0
$
$ FCC_A1 from 03Cac not included in unary (but it should be)
$ The value from 00Du is absurd
$
 PAR  G(HCP_A3,DY:VA)           100.00  +GHSERDY;                3000 N 95She1 !
 PAR  TC(HCP_A3,DY:VA)          100.00    179;                   3000 N 95She1 !
 PAR  BMAGN(HCP_A3,DY:VA)       100.00      3.0;                 3000 N 95She1 !
 PAR  G(BCC_A2,DY:VA)           100.00  +GBCCDY;                 3000 N 95She1 !
$PAR  G(FCC_A1,DY:VA)           100.00  +GHSERDY
$            +1300-0.6651608*T;                                  3000 N 03Cac !
 PAR  G(FCC_A1,DY:VA),,                 +GHSERDY+290243;         3001 N 00Du !
 PAR  G(LIQUID,DY)              100.00  +GLIQDY;                 3000 N 95She1 !
$
 PAR  G(DYPD_B27,DY:DY),,               +2*GHSERDY+3384;,,            N 00Du !
 PAR  G(DYPD_B2,DY:DY),,                +2*GHSERDY
             +14353-6.196*T;,,                                        N 00Du !
$
 FUNCTION GHSERDY   100.00  -7937.16586+102.307412*T-26.3917167*T*LN(T)
       -7.61683657E-04*T**2-5.86914125E-07*T**3+4010.90565*T**(-1);
      1000.00  Y  -13733.328+214.012934*T-43.8283359*T*LN(T)
       +0.0166909801*T**2-3.49702836E-06*T**3+0.0173619874*T**(-1);
      1654.15  Y  -404681.371+2032.1415*T-272.123952*T*LN(T)
       +0.0578301681*T**2-2.76169148E-06*T**3+1.09616238E+08*T**(-1);
      3000.00  N !
 FUNCTION GBCCDY    100.00  +1508.1802-0.566616181*T+GHSERDY;
      1000.00  Y  +327500.062-2868.04585*T+391.515418*T*LN(T)
       -0.224042148*T**2+2.04076075E-05*T**3-48652656.5*T**(-1);
      1654.15  Y  -33708.7949+291.409631*T-50.208*T*LN(T);
      1685.15  Y  -40775.4966+330.318068*T-55.2811171*T*LN(T)
       +0.0015254673*T**2-7.7437116E-08*T**3+1776589.32*T**(-1);
      3000.00  N !
 FUNCTION GLIQDY    100.00  +13196.6185-7.5443643*T+GHSERDY;
      1000.00  Y  +300126.971-2519.78614*T+341.302578*T*LN(T)
       -0.196153225*T**2+1.76197799E-05*T**3-43071677.5*T**(-1);
      1685.15  Y  -21864.7344+282.205014*T-49.9151*T*LN(T);
      3000.00  N !
$ ------------------------------------------------------------------------------
$ Pd
$
$ RHOMBOHEDRAL_A7 added in unary 5.0
$
 PAR  G(FCC_A1,PD:VA),,                 +GHSERPD;                4000 N 91Din !
 PAR  G(BCC_A2,PD:VA),,                 +GHSERPD+10500-1.8*T;    4000 N 91Din !
 PAR  G(HCP_A3,PD:VA),,                 +GHSERPD+2000+0.1*T;     4000 N 91Din !
$PAR  G(RHOMBOHEDRAL_A7,PD),,           +GHSERPD+4000;           4000 N 06Vre !
 PAR  G(LIQUID,PD),,                    +GLIQPD;                 4000 N 91Din !
$
 PAR  G(DYPD3_L12,PD:PD),,              +4*GHSERPD+10492;,,           N 00Du !
$
 FUNCTION GHSERPD   298.15  -10204.027+176.076315*T-32.211*T*LN(T)
       +0.007120975*T**2-1.919875E-06*T**3+168687*T**(-1);
       900.00  Y  +917.062+49.659892*T-13.5708*T*LN(T)
       -0.00717522*T**2+1.91115E-07*T**3-1112465*T**(-1);
      1828.00  Y  -67161.018+370.102147*T-54.2067086*T*LN(T)
       +0.002091396*T**2-6.2811E-08*T**3+18683526*T**(-1);
      4000.00  N !
 FUNCTION GLIQPD    298.15  +11506.758-5.112162*T+GHSERPD;
       600.00  Y  +23405.778-116.918419*T+10.8922031*T*LN(T)
       -0.027266568*T**2+2.430675E-06*T**3-1853674*T**(-1);
      1828.00  Y  -12373.637+251.416903*T-41.17*T*LN(T);
      4000.00  N !
$ ------------------------------------------------------------------------------
$ Binary system
$
$ Z. Du, H. Yang, Y. Xu, J. Alloys Compd., 302, 199-203(2000).
$
$ Checked against paper. Checked at 6000 K.
$
$ The interaction parameters and lattice stability for fcc-Dy are not
$ acceptable.
$
 PAR  L(LIQUID,DY,PD;0),,               -334412+42.624*T;,,           N 00Du !
 PAR  L(LIQUID,DY,PD;1),,               +152549-35.066*T;,,           N 00Du !
$
 PAR  L(FCC_A1,DY,PD:VA;0),,            -732846+52.619*T;,,           N 00Du !
 PAR  L(BCC_A2,DY,PD:VA;0),,            +100000;,,                    N 00Du !
 PAR  L(HCP_A3,DY,PD:VA;0),,            +100000;,,                    N 00Du !
$
 PAR  G(DY5PD2,DY:PD),,                 +5*GHSERDY+2*GHSERPD
             -442334+82.032*T;,,                                      N 00Du !
 PAR  G(DY3PD2_D5A,DY:PD),,             +3*GHSERDY+2*GHSERPD
             -394784+56.743*T;,,                                      N 00Du !
$
 PAR  G(DYPD_B27,DY:PD),,               +GHSERDY+GHSERPD
             -162324+7.412*T;,,                                       N 00Du !
 PAR  L(DYPD_B27,DY:DY,PD;0),,          -4825;,,                      N 00Du !
$
 PAR  G(DYPD_B2,DY:PD),,                +GHSERDY+GHSERPD
             -161892+6.998*T;,,                                       N 00Du !
 PAR  L(DYPD_B2,DY:DY,PD;0),,           -5783;,,                      N 00Du !
$
 PAR  G(DY3PD4,DY:PD),,                 +3*GHSERDY+4*GHSERPD
             -569600+20.763*T;,,                                      N 00Du !
 PAR  G(DY2PD3_LT,DY:PD),,              +2*GHSERDY+3*GHSERPD
             -407308+18.337*T;,,                                      N 00Du !
 PAR  G(DY2PD3_HT,DY:PD),,              +2*GHSERDY+3*GHSERPD
             -404160+16.069*T;,,                                      N 00Du !
 PAR  G(DYPD2,DY:PD),,                  +GHSERDY+2*GHSERPD
             -244128+15.599*T;,,                                      N 00Du !
$
 PAR  G(DYPD3_L12,DY:PD),,              +GHSERDY+3*GHSERPD
             -319286+28.447*T;,,                                      N 00Du !
 PAR  L(DYPD3_L12,DY,PD:PD;0),,         -35311;,,                     N 00Du !
$
 PAR  G(DYPD7,DY:PD),,                  +GHSERDY+7*GHSERPD
             -386610+66.15*T;,,                                       N 00Du !
$ ------------------------------------------------------------------------------
$
$
 LIST-OF-REFERENCE
 NUMBER  SOURCE
  Null   'Unknown source'
  Same   'Same or similar interaction as in the corresponding stable phase'
  COST   'COST 507 database'
  91Din  'A.T. Dinsdale, Calphad, 15, 317-425(1991).'
  95She1 'H. Shen, W. Zhang, G. Liu, R. Wang, Z. Du, Report F-95-01,
          University of Science and Technology, Beijing, May 1995,
          SGTE unary database V.3.0, 1996; Dy'
  00Du   'Z. Du, H. Yang, Y. Xu, J. Alloys Compd., 302, 199-203(2000); Dy-Pd'
  03Cac  'G. Cacciamani, S. De Negri, A. Saccone, R. Ferro,
          Intermetallics, 11, 1135-51(2003); Dy, Gd, Ho'
  06Vre  'J. Vrestal, J. Pinkas, A. Watson, A. Scott, J. Houserova, A. Kroupa,
          Calphad, 30, 14-17(2006), SGTE unary database V.5.0, 2009; Pd'
!
