$
$ Database for Ag-Fe from J. Korb 2004 (included in LB Vol. 5)
$
$ J. Korb, unpublished, GTT, 2004.
$
$ Dataset created 2011.01.10 by Bengt Hallstedt.
$ 2020.12.20: Modified for use with GES6.
$
$ There is a small error in G(LIQUID,FE) in lb5-v2.tdb, causing a shift by
$ 0.2 K of the montectic temperature.
$
$ ------------------------------------------------------------------------------
 TEMP-LIM 298.15 6000.00 !
$
$ELEMENT NAME  REF. STATE               ATOMIC MASS H298-H0    S298    !
$
 ELEMENT VA   VACUUM                      0.0          0.0      0.0    ! 
 ELEMENT AG   FCC_A1                    107.8682    5745.      42.55   ! 
 ELEMENT FE   BCC_A2                     55.847     4489.0     27.2797 ! 
$ ------------------------------------------------------------------------------
$ Phase definitions
$
 PHASE LIQUID:L % 1 1 !
 CONST LIQUID:L : AG FE : !
$
$ Fcc (cF4, Fm-3m) and MeX (cF8, Fm-3m)
$
 PHASE FCC_A1 %A 2 1 1 !
 CONST FCC_A1 : AG% FE% : VA : !
$
$ Bcc (cI2, Im-3m)
$
 PHASE BCC_A2 %B 2 1 3 !
 CONST BCC_A2 : AG FE% : VA : !
$
$ Hcp (hP2, P6_3/mmc) and Me2X (NiAs-type, hP4, P6_3/mmc, B8_1)
$
 PHASE HCP_A3 %A 2 1 0.5 !
 CONST HCP_A3 : AG FE : VA : !
$ ------------------------------------------------------------------------------
$ Defaults
$
 DEFINE-SYSTEM-DEFAULT ELEMENT 2 !
 DEFAULT-COM DEFINE_SYSTEM_ELEMENT VA !
 TYPE-DEF % SEQ * !
 TYPE-DEF A GES AMEND_PHASE_DESCRIPTION @ MAGNETIC -3 0.28 !
 TYPE-DEF B GES AMEND_PHASE_DESCRIPTION @ MAGNETIC -1 0.4 !
 FUNCTION ZERO      298.15  0;                                         6000 N !
 FUNCTION UN_ASS    298.15  0;                                         6000 N !
 FUNCTION R         298.15  +8.31451;                                  6000 N !
$ ------------------------------------------------------------------------------
$ Element data
$ ------------------------------------------------------------------------------
$ Ag
$
$ CUB_A13 added in unary 3.0
$ CUB_A13 revised in unary 4.1
$ BCT_A5 added in unary 4.1
$
 PAR  G(FCC_A1,AG:VA),,                 +GHSERAG;                3000 N 91Din !
 PAR  G(HCP_A3,AG:VA),,                 +GHSERAG+300+0.3*T;      3000 N 91Din !
 PAR  G(BCC_A2,AG:VA),,                 +GHSERAG+3400-1.05*T;    3000 N 91Din !
$PAR  G(CUB_A13,AG:VA),,                +GHSERAG+3400-1.05*T;    3000 N 95Lim !
$PAR  G(CUB_A13,AG:VA),,                +GHSERAG
$            +3765.6-1.8826*T;                                   3000 N 96SGUN !
$PAR  G(BCT_A5,AG),,                    +GHSERAG+4184.1;         3000 N 96Oh !
 PAR  G(LIQUID,AG),,                    +GLIQAG;                 3000 N 91Din !
$
 FUNCTION GHSERAG   298.15  -7209.512+118.202013*T-23.8463314*T*LN(T)
       -0.001790585*T**2-3.98587E-07*T**3-12011*T**(-1);
      1234.93  Y  -15095.252+190.266404*T-33.472*T*LN(T)+1.411773E+29*T**(-9);
      3000.00  N !
 FUNCTION GLIQAG    298.15  +11025.076-8.89102*T+GHSERAG-1.033905E-20*T**7;
      1234.93  Y  -3587.111+180.964656*T-33.472*T*LN(T);
      3000.00  N !
$ ------------------------------------------------------------------------------
$ Fe
$
$ ORTHORHOMBIC_A20 and TETRAGONAL_U added im unary 4.1
$
 PAR  G(BCC_A2,FE:VA),,                 +GHSERFE;,,                   N 91Din !
 PAR  TC(BCC_A2,FE:VA),,                 1043.00;,,                   N 91Din !
 PAR  BM(BCC_A2,FE:VA),,                    2.22;,,                   N 91Din !
 PAR  G(FCC_A1,FE:VA),,                 +GFCCFE;,,                    N 91Din !
 PAR  TC(FCC_A1,FE:VA),,                 -201.00;,,                   N 91Din !
 PAR  BM(FCC_A1,FE:VA),,                   -2.10;,,                   N 91Din !
 PAR  G(HCP_A3,FE:VA),,                 +GHCPFE;,,                    N 91Din !
$PAR  G(CBCC_A12,FE:VA),,               +GHSERFE+4745;,,              N 91Din !
$PAR  G(CUB_A13,FE:VA),,                +GHSERFE+3745;,,              N 91Din !
$PAR  G(ORTHORHOMBIC_A20,FE),,          +GHSERFE+5000;,,              N 99SGUN !
$PAR  G(TETRAGONAL_U,FE),,              +GHSERFE+5000;,,              N 99SGUN !
 PAR  G(LIQUID,FE),,                    +GLIQFE;,,                    N 91Din !
$
 FUNCTION GHSERFE   298.15  +1225.7+124.134*T-23.5143*T*LN(T)
       -0.00439752*T**2-5.8927E-08*T**3+77359*T**(-1);
      1811.00  Y  -25383.581+299.31255*T-46*T*LN(T)+2.29603E+31*T**(-9);
      6000.00  N !
 FUNCTION GFCCFE    298.15  -1462.4+8.282*T-1.15*T*LN(T)
       +6.4E-04*T**2+GHSERFE;
      1811.00  Y  -1713.815+0.940009*T+GHSERFE+4.9251E+30*T**(-9);
      6000.00  N !
 FUNCTION GHCPFE    298.15  -3705.78+12.591*T-1.15*T*LN(T)
       +6.4E-04*T**2+GHSERFE;
      1811.00  Y  -3957.195+5.249009*T+GHSERFE+4.9251E+30*T**(-9);
      6000.00  N !
 FUNCTION GLIQFE    298.15  +12040.17-6.55843*T+GHSERFE-3.67516E-21*T**7;
      1811.00  Y  -10838.83+291.302*T-46*T*LN(T);
      6000.00  N !
$ ------------------------------------------------------------------------------
$ Binary system
$
$ From J. Korb 2004 (included in LB Vol. 5)
$
$ J. Korb, unpublished, GTT, 2004.
$
$ Checked against LB. Checked at 6000 K.
$
$ There is a small error in G(LIQUID,FE) in lb5-v2.tdb, causing a shift by
$ 0.2 K of the montectic temperature.
$
 PAR  L(LIQUID,AG,FE;0),,               +82000;,,                     N 04Kor !
 PAR  L(LIQUID,AG,FE;1),,               -9000;,,                      N 04Kor !
$
 PAR  L(FCC_A1,AG,FE:VA;0),,            +104000;,,                    N 04Kor !
 PAR  L(FCC_A1,AG,FE:VA;1),,            -4500;,,                      N 04Kor !
$
 PAR  L(BCC_A2,AG,FE:VA;0),,            +109000;,,                    N 04Kor !
$
$ Metastable
$
 PAR  L(HCP_A3,AG,FE:VA;0),,            +104000;,,                    N Same !
 PAR  L(HCP_A3,AG,FE:VA;1),,            -4500;,,                      N Same !
$ ------------------------------------------------------------------------------
$
 ASSESSED_SYSTEM
  AG-FE(TDB -* +LIQUID +FCC_A1 +BCC_A2 ;G5 C_S:LIQUID/FE MAJ:LIQUID/AG 
  C_S:FCC_A1/FE:VA MAJ:FCC_A1/AG:VA ;P3 TMM:500/3000 STP:.1/2000/1) !
$
$
 LIST-OF-REFERENCE
 NUMBER  SOURCE
  Null   'Unknown source'
  Same   'Same or similar interaction as in the corresponding stable phase'
  COST   'COST 507 database'
  91Din  'A.T. Dinsdale, Calphad, 15, 317-425(1991).'
  95Lim  'S.S. Lim, P.L. Rossiter, J.W. Tibballs, Calphad, 19, 131-41(1995),
          SGTE unary database V.4.1, 1999; Ag'
  96Oh   'C.-S. Oh, J.-H. Shim, B.-J. Lee, D.N. Lee,
          J. Alloys Compounds, 238, 155-66(1996),
          SGTE unary database V.4.1, 1999; Ag'
  96SGUN 'SGTE unary database V.3.0, 1996.'
  99SGUN 'SGTE unary database V.4.1, 1999.'
  04Kor  'J. Korb, unpublished, GTT, 2004; Ag-Fe'
!
