$
$ Database for Dy-Ni from M. Li and W. Han 2009
$
$ M. Li, W. Han, Calphad, 33, 517-20(2009).
$
$ Dataset created 2013.05.30 by Bengt Hallstedt.
$ 2020.12.26: Modified for use with GES6.
$
$ Existance of DYNI4 and DY4NI17 uncertain.
$
$ Interactions for FCC_A1, BCC_A2 and HCP_A3 are missing.
$
$ In the paper old lattice stabilities for Dy were used. Here current lattice
$ stabilities are used. This increases invariant temperatures by up to 20 K in
$ the Dy-rich part of the system. In the Ni-rich part of the system invariant
$ temperatures are almost unchanged.
$
$ ------------------------------------------------------------------------------
 TEMP-LIM 298.15 6000.00 !
$
$ELEMENT NAME  REF. STATE               ATOMIC MASS H298-H0    S298    !
$
 ELEMENT VA   VACUUM                      0.0          0.0      0.0    ! 
 ELEMENT DY   HCP_A3                    162.50      8865.896   74.9559 ! 
 ELEMENT NI   FCC_A1                     58.69      4787.0     29.7955 ! 
$ ------------------------------------------------------------------------------
$ Phase definitions
$
 PHASE LIQUID:L % 1 1 !
 CONST LIQUID:L : DY NI : !
$
$ Fcc (cF4, Fm-3m) and MeX (cF8, Fm-3m)
$
 PHASE FCC_A1 %A 2 1 1 !
 CONST FCC_A1 : NI : VA : !
$
$ Bcc (cI2, Im-3m)
$
 PHASE BCC_A2 %B 2 1 3 !
 CONST BCC_A2 : DY : VA : !
$
$ Hcp (hP2, P6_3/mmc) and Me2X (NiAs-type, hP4, P6_3/mmc, B8_1)
$
 PHASE HCP_A3 % 2 1 0.5 !
 CONST HCP_A3 : DY : VA : !
$
$ Prototype Fe3C (oP16, Pnma)
$
 PHASE DY3NI_D011 % 2 3 1 !
 CONST DY3NI_D011 : DY : NI : !
$
$ Prototype Dy3Ni2 (mC20, C2/m)
$
 PHASE DY3NI2 % 2 3 2 !
 CONST DY3NI2 : DY : NI : !
$
$ Prototype FeB (oP8, Pnma)
$
 PHASE DYNI_B27 % 2 1 1 !
 CONST DYNI_B27 : DY : NI : !
$
$ Prototype Cu2Mg (cF24, Fd-3m)
$
 PHASE DYNI2_C15 % 2 1 2 !
 CONST DYNI2_C15 : DY : NI : !
$
$ Prototype Ni3Pu (hR12, R-3m)
$
 PHASE DYNI3 % 2 1 3 !
 CONST DYNI3 : DY : NI : !
$
$ Prototype Co7Gd2 (hR18, R-3m, low T) and Ce2Ni7 (hP36, P6_3/mmc, high T)
$
 PHASE DY2NI7 % 2 2 7 !
 CONST DY2NI7 : DY : NI : !
$
$ Structure unknown, may not exist
$
 PHASE DYNI4 % 2 1 4 !
 CONST DYNI4 : DY : NI : !
$
$ Structure unknown, may not exist
$
 PHASE DY4NI17 % 2 4 17 !
 CONST DY4NI17 : DY : NI : !
$
$ Prototype CaCu5 (hP6, P6/mmm)
$
 PHASE DYNI5_D2D % 2 1 5 !
 CONST DYNI5_D2D : DY : NI : !
$
$ Prototype Ni17Th2 (hP38, P6_3/mmc)
$
 PHASE DY2NI17 % 2 2 17 !
 CONST DY2NI17 : DY : NI : !
$ ------------------------------------------------------------------------------
$ Defaults
$
 DEFINE-SYSTEM-DEFAULT ELEMENT 2 !
 DEFAULT-COM DEFINE_SYSTEM_ELEMENT VA !
 TYPE-DEF % SEQ * !
 TYPE-DEF A GES AMEND_PHASE_DESCRIPTION @ MAGNETIC -3 0.28 !
 TYPE-DEF B GES AMEND_PHASE_DESCRIPTION @ MAGNETIC -1 0.4 !
 FUNCTION ZERO      298.15  0;                                         6000 N !
 FUNCTION UN_ASS    298.15  0;                                         6000 N !
 FUNCTION R         298.15  +8.31451;                                  6000 N !
$ ------------------------------------------------------------------------------
$ Element data
$ ------------------------------------------------------------------------------
$ Dy
$
$ HCP_A3, BCC_A2 and LIQUID revised in unary 3.0
$
$ FCC_A1 from 03Cac not included in unary (but it should be)
$
 PAR  G(HCP_A3,DY:VA)           100.00  +GHSERDY;                3000 N 95She1 !
 PAR  TC(HCP_A3,DY:VA)          100.00    179;                   3000 N 95She1 !
 PAR  BMAGN(HCP_A3,DY:VA)       100.00      3.0;                 3000 N 95She1 !
 PAR  G(BCC_A2,DY:VA)           100.00  +GBCCDY;                 3000 N 95She1 !
$PAR  G(FCC_A1,DY:VA)           100.00  +GHSERDY
$            +1300-0.6651608*T;                                  3000 N 03Cac !
 PAR  G(LIQUID,DY)              100.00  +GLIQDY;                 3000 N 95She1 !
$
 FUNCTION GHSERDY   100.00  -7937.16586+102.307412*T-26.3917167*T*LN(T)
       -7.61683657E-04*T**2-5.86914125E-07*T**3+4010.90565*T**(-1);
      1000.00  Y  -13733.328+214.012934*T-43.8283359*T*LN(T)
       +0.0166909801*T**2-3.49702836E-06*T**3+0.0173619874*T**(-1);
      1654.15  Y  -404681.371+2032.1415*T-272.123952*T*LN(T)
       +0.0578301681*T**2-2.76169148E-06*T**3+1.09616238E+08*T**(-1);
      3000.00  N !
 FUNCTION GBCCDY    100.00  +1508.1802-0.566616181*T+GHSERDY;
      1000.00  Y  +327500.062-2868.04585*T+391.515418*T*LN(T)
       -0.224042148*T**2+2.04076075E-05*T**3-48652656.5*T**(-1);
      1654.15  Y  -33708.7949+291.409631*T-50.208*T*LN(T);
      1685.15  Y  -40775.4966+330.318068*T-55.2811171*T*LN(T)
       +0.0015254673*T**2-7.7437116E-08*T**3+1776589.32*T**(-1);
      3000.00  N !
 FUNCTION GLIQDY    100.00  +13196.6185-7.5443643*T+GHSERDY;
      1000.00  Y  +300126.971-2519.78614*T+341.302578*T*LN(T)
       -0.196153225*T**2+1.76197799E-05*T**3-43071677.5*T**(-1);
      1685.15  Y  -21864.7344+282.205014*T-49.9151*T*LN(T);
      3000.00  N !
$ ------------------------------------------------------------------------------
$ Ni
$
$ FCC_A1 and LIQUID modified in unary 5.0 (slight change in upper T interval)
$ BCT_A5 added in unary 5.0
$
 PAR  G(FCC_A1,NI:VA),,                 +GHSERNI;                3000 N 91Din !
 PAR  TC(FCC_A1,NI:VA),,                  633.00;                3000 N 91Din !
 PAR  BM(FCC_A1,NI:VA),,                    0.52;                3000 N 91Din !
$PAR  G(BCC_A2,NI:VA),,                 +GHSERNI
$            +8715.084-3.556*T;                                  3000 N 91Din !
$PAR  TC(BCC_A2,NI:VA),,                  575.00;                3000 N 91Din !
$PAR  BM(BCC_A2,NI:VA),,                    0.85;                3000 N 91Din !
$PAR  G(HCP_A3,NI:VA),,                 +GHSERNI+1046+1.255*T;   3000 N 91Din !
$PAR  TC(HCP_A3,NI:VA),,                  633.00;                3000 N 91Din !
$PAR  BM(HCP_A3,NI:VA),,                    0.52;                3000 N 91Din !
$PAR  G(BCT_A5,NI),,                    +GHSERNI+10023-4.556*T;  3000 N 99Gho !
$PAR  G(CUB_A13,NI:VA),,                +GHSERNI+2092;           3000 N 91Din !
$PAR  G(CBCC_A12,NI:VA),,               +GHSERNI+3556;           3000 N 91Din !
 PAR  G(LIQUID,NI),,                    +GLIQNI;                 3000 N 91Din !
$
 FUNCTION GHSERNI   298.15  -5179.159+117.854*T-22.096*T*LN(T)-0.0048407*T**2;
      1728.00  Y  -27840.62+279.134977*T-43.1*T*LN(T)+1.12754E+31*T**(-9);
      3000.00  N !
 FUNCTION GLIQNI    298.15  +16414.686-9.397*T+GHSERNI-3.82318E-21*T**7;
      1728.00  Y  -9549.817+268.597977*T-43.1*T*LN(T);
      3000.00  N !
 FUNCTION GBCCNI    298.15  +GHSERNI+8715.084-3.556*T;                 6000 N !
$ ------------------------------------------------------------------------------
$ Binary system
$
$ M. Li, W. Han, Calphad, 33, 517-20(2009).
$
$ Checked against paper. Checked at 6000 K.
$
$ Existance of DYNI4 and DY4NI17 uncertain.
$
$ Interactions for FCC_A1, BCC_A2 and HCP_A3 are missing.
$
$ In the paper old lattice stabilities for Dy were used. Here current lattice
$ stabilities are used. This increases invariant temperatures by up to 20 K in
$ the Dy-rich part of the system. In the Ni-rich part of the system invariant
$ temperatures are almost unchanged.
$
 PAR  L(LIQUID,DY,NI;0),,               -185784.1+33.57*T;,,          N 09Li !
 PAR  L(LIQUID,DY,NI;1),,               +17309+11.393*T;,,            N 09Li !
 PAR  L(LIQUID,DY,NI;2),,               +37829.7-9.932*T;,,           N 09Li !
$
 PAR  G(DY3NI_D011,DY:NI),,             +3*GHSERDY+GHSERNI
             -92416.2-1.596*T;,,                                      N 09Li !
 PAR  G(DY3NI2,DY:NI),,                 +3*GHSERDY+2*GHSERNI
             -180610.3+2.140*T;,,                                     N 09Li !
 PAR  G(DYNI_B27,DY:NI),,               +GHSERDY+GHSERNI
             -89521.8+5.207*T;,,                                      N 09Li !
 PAR  G(DYNI2_C15,DY:NI),,              +GHSERDY+2*GHSERNI
             -152030.4+23.45*T;,,                                     N 09Li !
 PAR  G(DYNI3,DY:NI),,                  +GHSERDY+3*GHSERNI
             -177245.6+28.677*T;,,                                    N 09Li !
 PAR  G(DY2NI7,DY:NI),,                 +2*GHSERDY+7*GHSERNI
             -370138+57.414*T;,,                                      N 09Li !
 PAR  G(DYNI4,DY:NI),,                  +GHSERDY+4*GHSERNI
             -189767.8+27.386*T;,,                                    N 09Li !
 PAR  G(DY4NI17,DY:NI),,                +4*GHSERDY+17*GHSERNI
             -763294.8+104.983*T;,,                                   N 09Li !
 PAR  G(DYNI5_D2D,DY:NI),,              +GHSERDY+5*GHSERNI
             -192403.2+22.477*T;,,                                    N 09Li !
 PAR  G(DY2NI17,DY:NI),,                +2*GHSERDY+17*GHSERNI
             -398025.3+48.091*T;,,                                    N 09Li !
$ ------------------------------------------------------------------------------
$
$
 LIST-OF-REFERENCE
 NUMBER  SOURCE
  Null   'Unknown source'
  Same   'Same or similar interaction as in the corresponding stable phase'
  REFLAV 'Laves phase convention: G(LAVES,X:X)=+3*GHSERXX+15000'
  91Din  'A.T. Dinsdale, Calphad, 15, 317-425(1991).'
  95She1 'H. Shen, W. Zhang, G. Liu, R. Wang, Z. Du, Report F-95-01,
          University of Science and Technology, Beijing, May 1995,
          SGTE unary database V.3.0, 1996; Dy'
  99Gho  'G. Ghosh, Metall. Mater. Trans. A, 30A, 1481-94(1999),
          SGTE unary database V.5.0, 2009; Ni'
  03Cac  'G. Cacciamani, S. De Negri, A. Saccone, R. Ferro,
          Intermetallics, 11, 1135-51(2003); Dy'
  09Li   'M. Li, W. Han, Calphad, 33, 517-20(2009); Dy-Ni'
!
