$
$ Database for Bi-Rb from F. Dziri et al. 2022.
$
$ F. Dziri, Y. Djaballah, E. Belbacha, A. Belgacem Bouzida,
$ J. Phase Equilib. Diffus., 43, 382-92(2022).
$
$ Dataset created 2023.05.21 by Bengt Hallstedt.
$
$ Modified from 13Liu. BiRb added and reoptimisation of parameters.
$
$ Associate liquid with BiRb and BiRb3 associates.
$
$ There is an inverse miscibility gap with a minimum at 1888 K and x(Rb)=0.72
$ (with an associate liquid!!).
$
$ Invariant equilibria differ by up to 2 K. Probably rounding errors.
$
$ ------------------------------------------------------------------------------
 TEMP-LIM 298.15 6000.00 !
$
$ELEMENT NAME  REF. STATE               ATOMIC MASS H298-H0    S298    !
$
 ELEMENT VA   VACUUM                      0.0          0.0      0.0    ! 
 ELEMENT BI   RHOMBOHEDRAL_A7           208.98      6426.6     56.735  !
 ELEMENT RB   BCC_A2                     85.4678    7489.      76.78   ! 
$ ------------------------------------------------------------------------------
$ Species
$
 SPECIE  BIRB                               BI1RB1 !
 SPECIE  BIRB3                              BI1RB3 !
$ ------------------------------------------------------------------------------
$ Phase definitions
$
 PHASE LIQUID:L % 1 1 !
 CONST LIQUID:L : BI BIRB BIRB3 RB : !
$
$ Fcc (cF4, Fm-3m) and MeX (cF8, Fm-3m)
$
 PHASE FCC_A1 %A 2 1 1 !
 CONST FCC_A1 : BI RB : VA : !
$
$ Bcc (cI2, Im-3m)
$
 PHASE BCC_A2 %B 2 1 3 !
 CONST BCC_A2 : BI RB% : VA : !
$
$ Hcp (hP2, P6_3/mmc) and Me2X (NiAs-type, hP4, P6_3/mmc, B8_1)
$
 PHASE HCP_A3 %A 2 1 0.5 !
 CONST HCP_A3 : BI RB : VA: !
$
$ Prototype alpha-As (hR2, R-3m)
$
 PHASE RHOMBOHEDRAL_A7 % 1 1 !
 CONST RHOMBOHEDRAL_A7 : BI : !
$
$ Prototype Cu2Mg (cF24, Fd-3m)
$
 PHASE BI2RB_C15 % 2 2 1 !
 CONST BI2RB_C15 : BI : RB : !
$
$ Prototype CsSb (mP32, P2_1/c, 14)
$
 PHASE BIRB % 2 1 1 !
 CONST BIRB : BI : RB : !
$
$ Prototype Rb5As4 (mC20, C2/m)
$
 PHASE BI4RB5 % 2 4 5 !
 CONST BI4RB5 : BI : RB : !
$
$ Prototype Eu3Ga2 (mC20, C2/c)
$
 PHASE BI2RB3 % 2 2 3 !
 CONST BI2RB3 : BI : RB : !
$
$ Prototype Na3As (hP8, P6_3/mmc) alpha-BiRb3
$
 PHASE BIRB3_D018 % 2 1 3 !
 CONST BIRB3_D018 : BI : RB : !
$
$ Prototype BiF3 (cF16, Fm-3m) beta-BiRb3
$
 PHASE BIRB3_D03 % 2 1 3 !
 CONST BIRB3_D03 : BI : RB : !
$ ------------------------------------------------------------------------------
$ Defaults
$
 DEFINE-SYSTEM-DEFAULT ELEMENT 2 !
 DEFAULT-COM DEFINE_SYSTEM_ELEMENT VA !
 TYPE-DEF % SEQ * !
 TYPE-DEF A GES AMEND_PHASE_DESCRIPTION @ MAGNETIC -3 0.28 !
 TYPE-DEF B GES AMEND_PHASE_DESCRIPTION @ MAGNETIC -1 0.4 !
 FUNCTION ZERO      298.15  0;                                         6000 N !
 FUNCTION UN_ASS    298.15  0;                                         6000 N !
 FUNCTION R         298.15  +8.31451;                                  6000 N !
$ ------------------------------------------------------------------------------
$ Element data
$ ------------------------------------------------------------------------------
$ Bi
$
$ RHOMBOHEDRAL_A7 and LIQUID modified in unary 5.0
$ DIAMOND_A4 added in unary 5.0
$
 PAR  G(RHOMBOHEDRAL_A7,BI),,           +GHSERBI;                3000 N 09SGUN !
 PAR  G(FCC_A1,BI:VA),,                 +GHSERBI+9900-12.5*T;    3000 N 91Din !
 PAR  G(BCC_A2,BI:VA),,                 +GHSERBI+11297-13.9*T;   3000 N 91Din !
 PAR  G(HCP_A3,BI:VA),,                 +GHSERBI+9900-11.8*T;    3000 N 91Din !
$PAR  G(DIAMOND_A4,BI),,                +GHSERBI
$            +11296.8+9.253655*T;                                3000 N 88Che2 !
$PAR  G(BCT_A5,BI),,                    +GHSERBI+4184.07;        3000 N 91Din !
$PAR  G(TETRAGONAL_A6,BI),,             +GHSERBI+4184.07;        3000 N 91Din !
$PAR  G(TET_ALPHA1_A6,BI),,             +GHSERBI+4234;           3000 N 91Din !
 PAR  G(LIQUID,BI),,                    +GLIQBI;                 3000 N 09SGUN ! 
$
 FUNCTION GHSERBI   298.15  -7817.776+128.418925*T-28.4096529*T*LN(T)
       +0.012338888*T**2-8.381598E-6*T**3;
       544.55  Y  +29293.369-379.605174*T+49.678*T*LN(T)
       -0.0730245*T**2+1.3052833E-5*T**3-3544705*T**(-1)+1.66309E+25*T**(-9);
       800.00  Y  -11085.609+182.955328*T-36.041*T*LN(T)
       +7.4641E-3*T**2-1.05047E-6*T**3+5175*T**(-1)+1.66309E+25*T**(-9);
      1200.00  Y  -7580.864+124.770814*T-27.196*T*LN(T)+1.66309E+25*T**(-9);
      3000.00  N !
 FUNCTION GLIQBI    298.15  +11246.017-20.636399*T+GHSERBI-5.9608E-19*T**7;
       544.55  Y  +40629.667-400.415652*T+49.678*T*LN(T)
       -0.0730245*T**2+1.3052833E-5*T**3-3544705*T**(-1);
       800.00  Y  +250.689+162.14485*T-36.041*T*LN(T)
       +0.0074641*T**2-1.05047E-6*T**3+5175*T**(-1);
      1200.00  Y  +3755.434+103.960336*T-27.196*T*LN(T);
      3000.00 N !
$ ------------------------------------------------------------------------------
$ Rb
$
 PAR  G(BCC_A2,RB:VA)           200.00  +GHSERRB;                2100 N 91Din !
 PAR  G(HCP_A3,RB:VA)           200.00  +GHSERRB+200+2*T;        2100 N 91Din !
 PAR  G(FCC_A1,RB:VA)           200.00  +GHSERRB+200+1.3*T;      2100 N 91Din !
 PAR  G(LIQUID,RB)              200.00  +GLIQRB;                 2100 N 91Din !
$
 FUNCTION GHSERRB   200.00  -21669.733+583.580988*T-115.282589*T*LN(T)
       +0.26277612*T**2-1.52236932E-04*T**3+385754*T**(-1);
       312.46  Y  -7823.397+117.050578*T-29.1775424*T*LN(T)
       +4.12369E-04*T**2-4.6822E-07*T**3-126310*T**(-1)-5.55029E+22*T**(-9);
       900.00  Y  -39488.142+450.974149*T-77.7006456*T*LN(T)
       +0.033795632*T**2-4.829082E-06*T**3+3778006*T**(-1)-5.55029E+22*T**(-9);
      1600.00  Y  -159742.511+1287.78947*T-191.262774*T*LN(T)
       +0.08161687*T**2-8.61653E-06*T**3+27738456*T**(-1)-5.55029E+22*T**(-9);
      2100.00  N !
 FUNCTION GLIQRB    200.00  +2217.552-7.110486*T+GHSERRB+1.44078E-17*T**7;
       312.46  Y  +2172.865-6.960316*T+GHSERRB+5.55029E+22*T**(-9);
      2100.00  N !
$ ------------------------------------------------------------------------------
$ Binary system
$
$ F. Dziri, Y. Djaballah, E. Belbacha, A. Belgacem Bouzida,
$ J. Phase Equilib. Diffus., 43, 382-92(2022).
$
$ Checked against paper. Checked at 6000 K.
$
$ Modified from 13Liu. BiRb added and reoptimisation of parameters.
$
$ Associate liquid with BiRb and BiRb3 associates.
$
$ There is an inverse miscibility gap with a minimum at 1888 K and x(Rb)=0.72
$ (with an associate liquid!!).
$
$ Invariant equilibria differ by up to 2 K. Probably rounding errors.
$
 PAR  G(LIQUID,BIRB),,                  +GLIQBI+GLIQRB
             -75457+12.54*T;,,                                        N 22Dzi !
 PAR  G(LIQUID,BIRB3),,                 +GLIQBI+3*GLIQRB
             -131290+20.53*T;,,                                       N 22Dzi !
 PAR  L(LIQUID,BI,RB;0),,               -35000+8*T;,,                 N 13Liu !
 PAR  L(LIQUID,BI,BIRB;0),,             -17011+9.89*T;,,              N 22Dzi !
 PAR  L(LIQUID,BI,BIRB3;0),,            -151233+123.25*T;,,           N 22Dzi !
 PAR  L(LIQUID,BI,BIRB3;1),,            -47709;,,                     N 22Dzi !
 PAR  L(LIQUID,BIRB,BIRB3;0),,          -34764+39.32*T;,,             N 22Dzi !
 PAR  L(LIQUID,BIRB,BIRB3;1),,          -8857;,,                      N 22Dzi !
 PAR  L(LIQUID,BIRB,BIRB3;2),,          -3389;,,                      N 22Dzi !
 PAR  L(LIQUID,BIRB3,RB;0),,            +37872-34.86*T;,,             N 22Dzi !
 PAR  L(LIQUID,BIRB3,RB;1),,            -1744;,,                      N 22Dzi !
$
 PAR  L(BCC_A2,BI,RB:VA;0),,            +UN_ASS;,,                    N !
$
 PAR  G(BI2RB_C15,BI:RB),,              +2*GHSERBI+GHSERRB
             -95752-1.36*T;,,                                         N 22Dzi !
 PAR  G(BIRB,BI:RB),,                   +GHSERBI+GHSERRB
             -71951-0.79*T;,,                                         N 22Dzi !
 PAR  G(BI4RB5,BI:RB),,                 +4*GHSERBI+5*GHSERRB
             -330937-3.59*T;,,                                        N 22Dzi !
 PAR  G(BI2RB3,BI:RB),,                 +2*GHSERBI+3*GHSERRB
             -182995-3.77*T;,,                                        N 22Dzi !
 PAR  G(BIRB3_D018,BI:RB),,             +GHSERBI+3*GHSERRB
             -138988+5.6*T;,,                                         N 22Dzi !
 PAR  G(BIRB3_D03,BI:RB),,              +GHSERBI+3*GHSERRB
             -138488+4.61*T;,,                                        N 22Dzi !
$ ------------------------------------------------------------------------------
$
$
 LIST-OF-REFERENCE
 NUMBER  SOURCE
  Null   'Unknown source'
  Same   'Same or similar interaction as in the corresponding stable phase'
  COST   'COST 507 database'
  88Che2 'P.-Y. Chevalier, Thermochim. Acta, 132, 111-16(1988),
          SGTE unary database V.5.0, 2009; Bi' 
  91Din  'A.T. Dinsdale, Calphad, 15, 317-425(1991).'
  09SGUN 'SGTE unary database V.5.0, 2009.'
  13Liu  'M. Liu, C. Li, Z. Du, C. Guo, C. Niu,
          Thermochim. Acta, 551, 27-32(2013); Bi-Rb'
  22Dzi  'F. Dziri, Y. Djaballah, E. Belbacha, A. Belgacem Bouzida,
          J. Phase Equilib. Diffus., 43, 382-92(2022); Bi-Rb'
!
