$
$ Database for Fe-Ti from Z. Liang et al. 2024.
$
$ Z. Liang, U. Kattner, K. Choudharry, F. Tavazza, C. Campbell,
$ J. Phase Equilib. Diffus., 45, 732-56(2024).
$
$ Dataset created 2024.01.04 by Bengt Hallstedt.
$
$ With a 4-sl bcc add-on model using option B. This model is used in the
$ Al-Fe-Ti system to model the L2_1 Heusler phase (in addition to A2/B2).
$
$ The B2 and C14 phases are quite a bit more stable here than in 09Key or
$ 98 Dum. Delta-G at 1273 K is about -35 kJ vs -22 kJ in 09Key and -23 kJ
$ in 98Dum. Delta-H at 298.15 K is about -40 kJ (B2) and -33 kJ (C14) vs
$ -20 to -25 kJ in 09Key/98Dum.
$
$ G(C14_LAVES,TI:FE:FE) is misprinted in the paper.
$
$ Hari Kumar: The TC term (for B2_BCC) is necessary to counter the effect of
$ magnetism of BCC_A2 on the Cp of the B2_BCC phase.
$
$ ------------------------------------------------------------------------------
 TEMP-LIM 298.15 6000.00 !
$
$ELEMENT NAME  REF. STATE               ATOMIC MASS H298-H0    S298    !
$
 ELEMENT VA   VACUUM                      0.0          0.0      0.0    ! 
 ELEMENT FE   BCC_A2                     55.847     4489.0     27.2797 ! 
 ELEMENT TI   HCP_A3                     47.88      4824.      30.72   ! 
$ ------------------------------------------------------------------------------
$ Phase definitions
$
 PHASE LIQUID:L % 1 1 !
 CONST LIQUID:L : FE TI : !
$
$ Fcc (cF4, Fm-3m) and MeX (cF8, Fm-3m)
$
 PHASE FCC_A1 %A 2 1 1 !
 CONST FCC_A1 : FE% TI : VA : !
$
$ Bcc (cI2, Im-3m)
$
 PHASE BCC_A2 %B 2 1 3 !
 CONST BCC_A2 : FE% TI% VA : VA : !
$
$ Disordered part of B2_BCC, identical to BCC_A2
$
 PHASE A2_BCC %B 2 1 3 !
 CONST A2_BCC : FE TI VA : VA : !
$
$ Prototype CsCl (B2, cP2, Pm-3m), NaTl (B32, cF16, Fd-3m),
$ BiF3 (D0_3, cF16, Fm-3m), AlCu2Mn (L2_1, cF16)
$
 PHASE BCC_4SL:B %BO 5 0.25 0.25 0.25 0.25 3 !
 CONST BCC_4SL:B : FE TI VA : FE TI VA : FE TI VA : FE TI VA : VA% :  !
$
$ Hcp (hP2, P6_3/mmc) and Me2X (NiAs-type, hP4, P6_3/mmc, B8_1)
$
 PHASE HCP_A3 %A 2 1 0.5 !
 CONST HCP_A3 : FE TI% : VA : !
$
$ Prototype MgZn2 (hP12, P6_3/mmc)
$
 PHASE C14_LAVES %A 3 1 1.5 0.5 !
 CONST C14_LAVES : FE TI% : FE% TI : FE% TI : !
$ ------------------------------------------------------------------------------
$ Defaults
$
 DEFINE-SYSTEM-DEFAULT ELEMENT 2 !
 DEFAULT-COM DEFINE_SYSTEM_ELEMENT VA !
 TYPE-DEF % SEQ * !
 TYPE-DEF A GES AMEND_PHASE_DESCRIPTION @ MAGNETIC -3 0.28 !
 TYPE-DEF B GES AMEND_PHASE_DESCRIPTION @ MAGNETIC -1 0.4 !
 TYPE-DEF O GES AMEND_PHASE_DESCRIPTION BCC_4SL DIS_PART A2_BCC !
 FUNCTION ZERO      298.15  0;                                         6000 N !
 FUNCTION UN_ASS    298.15  0;                                         6000 N !
 FUNCTION R         298.15  +8.31451;                                  6000 N !
$ ------------------------------------------------------------------------------
$ Element data
$ ------------------------------------------------------------------------------
$ Fe
$
$ ORTHORHOMBIC_A20 and TETRAGONAL_U added im unary 4.1
$
 PAR  G(BCC_A2,FE:VA),,                 +GHSERFE;,,                   N 91Din !
 PAR  TC(BCC_A2,FE:VA),,                 1043.00;,,                   N 91Din !
 PAR  BMAG(BCC_A2,FE:VA),,                  2.22;,,                   N 91Din !
 PAR  G(A2_BCC,FE:VA),,                 +GHSERFE+0.1;,,               N 91Din !
 PAR  TC(A2_BCC,FE:VA),,                 1043.00;,,                   N 91Din !
 PAR  BMAG(A2_BCC,FE:VA),,                  2.22;,,                   N 91Din !
 PAR  G(FCC_A1,FE:VA),,                 +GFCCFE;,,                    N 91Din !
 PAR  TC(FCC_A1,FE:VA),,                 -201.00;,,                   N 91Din !
 PAR  BMAG(FCC_A1,FE:VA),,                 -2.10;,,                   N 91Din !
 PAR  G(HCP_A3,FE:VA),,                 +GHCPFE;,,                    N 91Din !
$PAR  G(CBCC_A12,FE:VA),,               +GHSERFE+4745;,,              N 91Din !
$PAR  G(CUB_A13,FE:VA),,                +GHSERFE+3745;,,              N 91Din !
$PAR  G(ORTHORHOMBIC_A20,FE),,          +GHSERFE+5000;,,              N 99SGUN !
$PAR  G(TETRAGONAL_U,FE),,              +GHSERFE+5000;,,              N 99SGUN !
 PAR  G(LIQUID,FE),,                    +GLIQFE;,,                    N 91Din !
$
 PAR  L(BCC_A2,FE,VA:VA;0),,            +150000;,,                    N 24Lia !
 PAR  L(A2_BCC,FE,VA:VA;0),,            +150000;,,                    N 24Lia !
$
 PAR  G(C14_LAVES,FE:FE:FE),,           +3*GHSERFE+85102.28;,,        N 24Lia !
 PAR  TC(C14_LAVES,FE:FE:FE),,           +179.06;,,                   N 24Lia !
 PAR  BMAG(C14_LAVES,FE:FE:FE),,           +1.086;,,                  N 24Lia !
$
 FUNCTION GHSERFE   298.15  +1225.7+124.134*T-23.5143*T*LN(T)
       -0.00439752*T**2-5.8927E-08*T**3+77359*T**(-1);
      1811.00  Y  -25383.581+299.31255*T-46*T*LN(T)+2.29603E+31*T**(-9);
      6000.00  N !
 FUNCTION GFCCFE    298.15  -1462.4+8.282*T-1.15*T*LN(T)
       +6.4E-04*T**2+GHSERFE;
      1811.00  Y  -1713.815+0.940009*T+GHSERFE+4.9251E+30*T**(-9);
      6000.00  N !
 FUNCTION GHCPFE    298.15  -3705.78+12.591*T-1.15*T*LN(T)
       +6.4E-04*T**2+GHSERFE;
      1811.00  Y  -3957.195+5.249009*T+GHSERFE+4.9251E+30*T**(-9);
      6000.00  N !
 FUNCTION GLIQFE    298.15  +12040.17-6.55843*T+GHSERFE-3.67516E-21*T**7;
      1811.00  Y  -10838.83+291.302*T-46*T*LN(T);
      6000.00  N !
$ ------------------------------------------------------------------------------
$ Ti
$
$ BCT_A5 added in unary 3.0
$
 PAR  G(HCP_A3,TI:VA),,                 +GHSERTI;                4000 N 91Din !
 PAR  G(BCC_A2,TI:VA),,                 +GBCCTI;                 4000 N 91Din !
 PAR  G(A2_BCC,TI:VA),,                 +GBCCTI+0.1;             4000 N 91Din !
 PAR  G(FCC_A1,TI:VA),,                 +GHSERTI+6000-0.1*T;     4000 N 91Din !
$PAR  G(DIAMOND_A4,TI),,                +GHSERTI+25000;          4000 N 91Din !
$PAR  G(BCT_A5,TI),,                    +GHSERTI+4602.2;         3000 N SGCOST !
$PAR  G(CBCC_A12,TI:VA),,               +GHSERTI+4602.2;         4000 N 91Din !
$PAR  G(CUB_A13,TI:VA),,                +GHSERTI+7531.2;         4000 N 91Din !
 PAR  G(LIQUID,TI),,                    +GLIQTI;                 4000 N 91Din !
$
 PAR  L(BCC_A2,TI,VA:VA;0),,            +100000;,,                    N 24Lia !
 PAR  L(A2_BCC,TI,VA:VA;0),,            +100000;,,                    N 24Lia !
$
 PAR  G(C14_LAVES,TI:TI:TI),,           +3*GHSERTI+82207.64;,,        N 24Lia !
$
 FUNCTION GHSERTI   298.15  -8059.921+133.615208*T-23.9933*T*LN(T)
       -0.004777975*T**2+1.06716E-07*T**3+72636*T**(-1);
       900.00  Y  -7811.815+132.988068*T-23.9887*T*LN(T)
       -0.0042033*T**2-9.0876E-08*T**3+42680*T**(-1);
      1155.00  Y  +908.837+66.976538*T-14.9466*T*LN(T)
       -0.0081465*T**2+2.02715E-07*T**3-1477660*T**(-1);
      1941.00  Y  -124526.786+638.806871*T-87.2182461*T*LN(T)
       +0.008204849*T**2-3.04747E-07*T**3+36699805*T**(-1);
      4000.00  N !
 FUNCTION GBCCTI    298.15  -1272.064+134.71418*T-25.5768*T*LN(T)
       -6.63845E-04*T**2-2.78803E-07*T**3+7208*T**(-1);
      1155.00  Y  +6667.385+105.366379*T-22.3771*T*LN(T)
       +0.00121707*T**2-8.4534E-07*T**3-2002750*T**(-1);
      1941.00  Y  +26483.26-182.426471*T+19.0900905*T*LN(T)
       -0.02200832*T**2+1.228863E-06*T**3+1400501*T**(-1);
      4000.00  N !
 FUNCTION GLIQTI    298.15  +12194.415-6.980938*T+GHSERTI;
      1300.00  Y  +369519.198-2554.0225*T+342.059267*T*LN(T)
       -0.163409355*T**2+1.2457117E-05*T**3-67034516*T**(-1);
      1941.00  Y  -19887.066+298.7367*T-46.29*T*LN(T);
      4000.00  N !
$ ------------------------------------------------------------------------------
$ Va
$
 PAR  G(BCC_A2,VA:VA),,                 +30*T;,,                      N 09Sun !
 PAR  G(A2_BCC,VA:VA),,                 +30*T;,,                      N 09Sun !
$ ------------------------------------------------------------------------------
$ Binary system
$
$ Z. Liang, U. Kattner, K. Choudharry, F. Tavazza, C. Campbell,
$ J. Phase Equilib. Diffus., 45, 732-56(2024).
$
$ Checked against paper and author's tdb. Checked at 6000 K.
$
$ With a 4-sl bcc add-on model using option B. This model is used in the
$ Al-Fe-Ti system to model the L2_1 Heusler phase (in addition to A2/B2).
$
$ The B2 and C14 phases are quite a bit more stable here than in 09Key or
$ 98 Dum. Delta-G at 1273 K is about -35 kJ vs -22 kJ in 09Key and -23 kJ
$ in 98Dum. Delta-H at 298.15 K is about -40 kJ (B2) and -33 kJ (C14) vs
$ -20 to -25 kJ in 09Key/98Dum.
$
$ G(C14_LAVES,TI:FE:FE) is misprinted in the paper.
$
$ Hari Kumar: The TC term (for B2_BCC) is necessary to counter the effect of
$ magnetism of BCC_A2 on the Cp of the B2_BCC phase.
$
 PAR  L(LIQUID,FE,TI;0),,               -91606.53+0.6*T;,,            N 24Lia !
 PAR  L(LIQUID,FE,TI;1),,               +1630.14-1.94*T;,,            N 24Lia !
 PAR  L(LIQUID,FE,TI;2),,               +25822.6-7.7*T;,,             N 24Lia !
$
 PAR  L(FCC_A1,FE,TI:VA;0),,            -73000+5.3*T;,,               N 24Lia !
$
 PAR  L(BCC_A2,FE,TI:VA;0),,            -111660.2+29.79*T;,,          N 24Lia !
 PAR  L(BCC_A2,FE,TI:VA;1),,            -584.19-1.03*T;,,             N 24Lia !
 PAR  L(BCC_A2,FE,TI:VA;2),,            +46700.97-29.08*T;,,          N 24Lia !
 PAR  TC(BCC_A2,FE,TI:VA;0),,            +637.79;,,                   N 98Har !
$
 PAR  L(A2_BCC,FE,TI:VA;0),,            -111660.2+29.79*T;,,          N 24Lia !
 PAR  L(A2_BCC,FE,TI:VA;1),,            -584.19-1.03*T;,,             N 24Lia !
 PAR  L(A2_BCC,FE,TI:VA;2),,            +46700.97-29.08*T;,,          N 24Lia !
 PAR  TC(A2_BCC,FE,TI:VA;0),,            +637.79;,,                   N 98Har !
$
 PAR  G(BCC_4SL,FE:FE:FE:TI:VA),,       +GBFE3TI;,,                   N 24Lia !
 PAR  G(BCC_4SL,FE:FE:TI:TI:VA),,       +GB2FETI;,,                   N 24Lia !
 PAR  G(BCC_4SL,FE:TI:FE:TI:VA),,       +GB32FETI;,,                  N 24Lia !
 PAR  G(BCC_4SL,FE:TI:TI:TI:VA),,       +GBFETI3;,,                   N 24Lia !
 PAR  TC(BCC_4SL,FE:FE:FE:TI:VA),,      -1183.79446;,,                N 24Lia !
 PAR  TC(BCC_4SL,FE:FE:TI:TI:VA),,      -1821.18237;,,                N 24Lia !
 PAR  TC(BCC_4SL,FE:TI:FE:TI:VA),,      -1561.87894;,,                N 24Lia !
 PAR  TC(BCC_4SL,FE:TI:TI:TI:VA),,       -904.67488;,,                N 24Lia !
 PAR  BMAG(BCC_4SL,FE:FE:FE:TI:VA),,       -1.5015;,,                 N 24Lia !
 PAR  BMAG(BCC_4SL,FE:FE:TI:TI:VA),,       -2.5188;,,                 N 24Lia !
 PAR  BMAG(BCC_4SL,FE:TI:FE:TI:VA),,       -1.9669;,,                 N 24Lia !
 PAR  BMAG(BCC_4SL,FE:TI:TI:TI:VA),,       -0.9074;,,                 N 24Lia !
 PAR  L(BCC_4SL,FE,TI:FE:TI:TI:VA;0),,  +4455.29-5.1*T;,,             N 24Lia !
$
 PAR  L(HCP_A3,FE,TI:VA;0),,            -10000+15*T;,,                N 09Key !
$
 PAR  G(C14_LAVES,FE:FE:TI),,           +2.5*GHSERFE+0.5*GHSERTI
             +62700.69;,,                                             N 24Lia !
 PAR  G(C14_LAVES,FE:TI:FE),,           +1.5*GHSERFE+1.5*GHSERTI
             +58182.17;,,                                             N 24Lia !
 PAR  G(C14_LAVES,FE:TI:TI),,           +GHSERFE+2*GHSERTI
             +133792.9;,,                                             N 24Lia !
$ Parameter from paper below
$PAR  G(C14_LAVES,TI:FE:FE),,           -118381.65+341.17*T
$            -62.52*T*LN(T)-0.0262*T**2+4.31E-06*T**3
$            -29090*T**(-1);,,                                        N 24Lia !
$ Parameter from author's tdb below
 PAR  G(C14_LAVES,TI:FE:FE),,           -118381.65+343.82*T
             -62.52*T*LN(T)-0.0262*T**2+4.31E-06*T**3
             -29090*T**(-1);,,                                        N 24Lia !
 PAR  G(C14_LAVES,TI:FE:TI),,           +1.5*GHSERFE+1.5*GHSERTI
             -79440.4;,,                                              N 24Lia !
 PAR  G(C14_LAVES,TI:TI:FE),,           +0.5*GHSERFE+2.5*GHSERTI
             -26051.7;,,                                              N 24Lia !
 PAR  TC(C14_LAVES,FE:TI:FE),,           +376.71;,,                   N 24Lia !
 PAR  TC(C14_LAVES,TI:FE:FE),,           +208.95;,,                   N 24Lia !
 PAR  BMAG(C14_LAVES,FE:TI:FE),,           +2.284749;,,               N 24Lia !
 PAR  BMAG(C14_LAVES,TI:FE:FE),,           +1.267275;,,               N 24Lia !
 PAR  L(C14_LAVES,FE,TI:FE:FE;0),,      -119213.24;,,                 N 24Lia !
 PAR  L(C14_LAVES,FE,TI:FE:TI;0),,      -119213.24;,,                 N 24Lia !
 PAR  L(C14_LAVES,FE,TI:TI:FE;0),,      -119213.24;,,                 N 24Lia !
 PAR  L(C14_LAVES,FE,TI:TI:TI;0),,      -119213.24;,,                 N 24Lia !
 PAR  L(C14_LAVES,FE,TI:FE:FE;1),,      -43832.24;,,                  N 24Lia !
 PAR  L(C14_LAVES,FE,TI:FE:TI;1),,      -43832.24;,,                  N 24Lia !
 PAR  L(C14_LAVES,FE,TI:TI:FE;1),,      -43832.24;,,                  N 24Lia !
 PAR  L(C14_LAVES,FE,TI:TI:TI;1),,      -43832.24;,,                  N 24Lia !
 PAR  L(C14_LAVES,FE:FE,TI:FE;0),,      +169163.62;,,                 N 24Lia !
 PAR  L(C14_LAVES,FE:FE,TI:TI;0),,      +169163.62;,,                 N 24Lia !
 PAR  L(C14_LAVES,TI:FE,TI:FE;0),,      +169163.62;,,                 N 24Lia !
 PAR  L(C14_LAVES,TI:FE,TI:TI;0),,      +169163.62;,,                 N 24Lia !
 PAR  L(C14_LAVES,FE:FE:FE,TI;0),,      +56387.87;,,                  N 24Lia !
 PAR  L(C14_LAVES,FE:TI:FE,TI;0),,      +56387.87;,,                  N 24Lia !
 PAR  L(C14_LAVES,TI:FE:FE,TI;0),,      +56387.87;,,                  N 24Lia !
 PAR  L(C14_LAVES,TI:TI:FE,TI;0),,      +56387.87;,,                  N 24Lia !
 PAR  L(C14_LAVES,FE:FE,TI:FE;1),,      -239205.42;,,                 N 24Lia !
 PAR  L(C14_LAVES,FE:FE,TI:TI;1),,      -239205.42;,,                 N 24Lia !
 PAR  L(C14_LAVES,TI:FE,TI:FE;1),,      -239205.42;,,                 N 24Lia !
 PAR  L(C14_LAVES,TI:FE,TI:TI;1),,      -239205.42;,,                 N 24Lia !
 PAR  L(C14_LAVES,FE:FE:FE,TI;1),,      -79735.14;,,                  N 24Lia !
 PAR  L(C14_LAVES,FE:TI:FE,TI;1),,      -79735.14;,,                  N 24Lia !
 PAR  L(C14_LAVES,TI:FE:FE,TI;1),,      -79735.14;,,                  N 24Lia !
 PAR  L(C14_LAVES,TI:TI:FE,TI;1),,      -79735.14;,,                  N 24Lia !
$
 FUNCTION UB1FETI   298.15  -4580.07+2.34*T;                           6000 N !
 FUNCTION UB2FETI   298.15  +6138.31-1.18*T;                           6000 N !
 FUNCTION GBFE3TI   298.15  +2*UB1FETI+1.5*UB2FETI-7486.66+5.91*T;     6000 N !
 FUNCTION GB2FETI   298.15  +4*UB1FETI;                                6000 N !
 FUNCTION GB32FETI  298.15  +2*UB1FETI+3*UB2FETI;                      6000 N !
 FUNCTION GBFETI3   298.15  +2*UB1FETI+1.5*UB2FETI+12630.06+5.85*T;    6000 N !
$ ------------------------------------------------------------------------------
$
 ASSESSED_SYSTEM
  FE-TI(TDB -* +LIQUID +FCC_A1 +A2_BCC +BCC_4SL +HCP_A3 +C14_LAVES
  ;P3 TMM:300/2300 STP:.6/1273/1 STP:.01/1400/1 STP:0.02/1400/1) !
$
$
 LIST-OF-REFERENCE
 NUMBER  SOURCE
  Null   'Unknown source'
  REFLAV 'Laves phase convention: G(LAVES,X:X)=+3*GHSERXX+15000'
  SGCOST 'COST 507 database, SGTE unary database V.3.0, 1996; Al, B, Nd, Ti, Zn'
  91Din  'A.T. Dinsdale, Calphad, 15, 317-425(1991).'
  98Har  'K.C. Hari Kumar, unpublished, 1998; Fe-Ti'
  99SGUN 'SGTE unary database V.4.1, 1999.'
  09Key  'J. De Keyzer, G. Cacciamani, N. Dupin, P. Wollants,
          Calphad, 33, 109-23(2009); Fe-Ti, Fe-Ni-Ti'
  09Sun  'B. Sundman, I. Ohnuma, N. Dupin, U.R. Kattner, S.G. Fries,
          Acta Mater., 57, 2896-2908(2009); Al-Fe'
  24Lia  'Z. Liang, U. Kattner, K. Choudharry, F. Tavazza, C. Campbell,
          J. Phase Equilib. Diffus., 45, 732-56(2024); Fe-Ti'
!
