$
$ Database for Hf-N from M. Pang et al. 20018.
$
$ M. Pang, Y. Peng, P. Zhou, Y. Du, J. Mining Metall. B, 54B, 111-18(2018).
$
$ Dataset created 2018.09.08 by Bengt Hallstedt.
$ 2021.01.17: Modified for use with GES6.
$
$ Substitutional vacancies in fcc!
$
$ The compositions of Hf3N2 and Hf4N3 are incorrect in the phase diagrams
$ in the paper. Their parameters were (presumably) derived for these incorrect
$ compositions and are corrected here. As a consequence the phase diagram is
$ only approximately reproduced.
$
$ The fcc interaction was adjusted to reproduce the L + fcc = hcp equilibrium.
$ At low temperature the composition range of fcc is not quite reproduced.
$
$ ------------------------------------------------------------------------------
 TEMP-LIM 298.15 6000.00 !
$
$ELEMENT NAME  REF. STATE               ATOMIC MASS H298-H0    S298    !
$
 ELEMENT VA   VACUUM                      0.0          0.0      0.0    ! 
 ELEMENT HF   HCP_A3                    178.49      5845.0     43.56   ! 
 ELEMENT N    1/2_MOLE_N2(G)             14.007     4335.0     95.751  ! 
$ ------------------------------------------------------------------------------
$ Species
$
 SPECIE  N2                                 N2 !
 SPECIE  N3                                 N3 !
$ ------------------------------------------------------------------------------
$ Phase definitions
$
 PHASE LIQUID:L % 1 1 !
 CONST LIQUID:L : HF N : !
$
$ Fcc (cF4, Fm-3m) and MeX (cF8, Fm-3m)
$
 PHASE FCC_A1 %A 2 1 1 !
 CONST FCC_A1 : HF% VA : VA N% : !
$
$ Bcc (cI2, Im-3m)
$
 PHASE BCC_A2 %B 2 1 3 !
 CONST BCC_A2 : HF : VA% N : !
$
$ Hcp (hP2, P6_3/mmc) and Me2X (NiAs-type, hP4, P6_3/mmc, B8_1)
$
 PHASE HCP_A3 %A 2 1 0.5 !
 CONST HCP_A3 : HF : VA% N : !
$
$ Prototype TiS (hR6, R-3m, 166)
$
 PHASE HF3N2 % 2 3 2 !
 CONST HF3N2 : HF : N : !
$
$ Prototype Sc2Te3 (hR8, R-3m)
$
 PHASE HF4N3 % 2 4 3 !
 CONST HF4N3 : HF : N : !
$
 PHASE N2GAS % 1 1 !
 CONST N2GAS : N2 : !
$
 PHASE GAS:G % 1 1 !
 CONST GAS:G : N N2 N3 HF : !
$ ------------------------------------------------------------------------------
$ Defaults
$
 DEFINE-SYSTEM-DEFAULT ELEMENT 2 !
 DEFAULT-COM DEFINE_SYSTEM_ELEMENT VA !
 DEFAULT-COM REJECT_PHASE N2GAS !
 TYPE-DEF % SEQ * !
 TYPE-DEF A GES AMEND_PHASE_DESCRIPTION @ MAGNETIC -3 0.28 !
 TYPE-DEF B GES AMEND_PHASE_DESCRIPTION @ MAGNETIC -1 0.4 !
 FUNCTION ZERO      298.15  0;                                         6000 N !
 FUNCTION UN_ASS    298.15  0;                                         6000 N !
 FUNCTION R         298.15  +8.31451;                                  6000 N !
 FUNCTION RTLNP     298.15  +8.31451*T*LN(1E-05*P);                    6000 N !
$ ------------------------------------------------------------------------------
$ Element data
$ ------------------------------------------------------------------------------
$ Hf
$
$ HCP_A3 and BCC_A2 modified in unary 5.0
$ (upper T interval added + trailing decimals added)
$
 PAR  G(HCP_A3,HF:VA),,                 +GHSERHF;                3001 N 91Din !
 PAR  G(BCC_A2,HF:VA),,                 +GBCCHF;                 3001 N 91Din !
 PAR  G(FCC_A1,HF:VA),,                 +GHSERHF+10000-2.2*T;    3001 N 91Din !
 PAR  G(LIQUID,HF),,                    +GLIQHF;                 3001 N 91Din !
$
 PAR  G(GAS,HF),,                       +F11148T+RTLNP;,,             N 97SUB !
$
 FUNCTION GHSERHF   298.15  -6987.297+110.744026*T-22.7075*T*LN(T)
       -0.004146145*T**2-4.77E-10*T**3-22590*T**(-1);
      2506.00  Y  -1446776.329+6193.609991*T-787.5363829*T*LN(T)
       +0.1735215*T**2-7.575759E-06*T**3+5.01742495E+08*T**(-1);
      3000.00  Y  -34274.698+277.882368*T-44*T*LN(T);
      3001.00  N !
 FUNCTION GBCCHF    298.15  +5370.703+103.836026*T-22.8995*T*LN(T)
       -0.004206605*T**2+8.71923E-07*T**3-22590*T**(-1)-1.446E-10*T**4;
      2506.00  Y  +1912456.771-8624.20573*T+1087.6141247*T*LN(T)
       -0.286857065*T**2+1.3427829E-05*T**3-6.10085091E+08*T**(-1);
      3000.00  Y  -32498.178+276.723247*T-44*T*LN(T);
      3001.00  N !
 FUNCTION GLIQHF    298.15  +27402.256-10.953093*T+GHSERHF;
      1000.00  Y  +49731.499-149.91739*T+12.116812*T*LN(T)
       -0.021262021*T**2+1.376466E-06*T**3-4449699*T**(-1);
      2506.00  Y  -4247.217+265.470523*T-44*T*LN(T);
      3001.00  N !
$ Hf(g)
 FUNCTION F11148T   298.15  +617056.219-63.2709603*T-18.39562*T*LN(T)
       -0.0012918935*T**2-8.82478833E-07*T**3-52100.45*T**(-1);
       700.00  Y  +620483.245-117.717981*T-9.924584*T*LN(T)
       -0.010280685*T**2+8.59787167E-07*T**3-299415.5*T**(-1);
      1700.00  Y  +579429.545+154.489923*T-46.59529*T*LN(T)
       +0.0043662005*T**2-2.43450833E-07*T**3+8372780*T**(-1);
      4200.00  Y  +774112.735-449.953417*T+26.29293*T*LN(T)
       -0.007829545*T**2+1.4093445E-07*T**3-89758000*T**(-1);
      8800.00  Y  +240587.568+415.824682*T-69.61305*T*LN(T)
       -1.3868485E-04*T**2+2.49491833E-08*T**3+4.6926785E+08*T**(-1);
     10000.00  N !
$ ------------------------------------------------------------------------------
$ N
$
$ There is a small change in G(GAS,N) from SGSUB 1992 to 1994
$ G(GAS,N2) has a competely different expression in SGSUB 1994 and 1997
$ compared to the unary database.
$ G(GAS,N3) is considerably changed from SGSUB 1992 to 1994.
$
 PAR  G(N2GAS,N2),,                     +2*GHSERNN+RTLNP;,,           N 91Din !
 PAR  G(LIQUID,N),,                     +GHSERNN+29950+59.02*T;,,     N 91Din !
$
 PAR  G(FCC_A1,VA:N),,                  +GHSERNN+832016+91.07*T;,,    N 18Pan !
$
 PAR  G(GAS,N),,                        +F12658T+RTLNP;,,             N 97SUB !
 PAR  G(GAS,N2),,                       +2*GHSERNN+RTLNP;,,           N 91Din !
 PAR  G(GAS,N3),,                       +F12909T+RTLNP;,,             N 97SUB !
$
 FUNCTION GHSERNN   298.15  -3750.675-9.45425*T-12.7819*T*LN(T)
       -0.00176686*T**2+2.681E-09*T**3-32374*T**(-1);
       950.00  Y  -7358.85+17.2003*T-16.3699*T*LN(T)
       -6.5107E-04*T**2+3.0097E-08*T**3+563070*T**(-1);
      3350.00  Y  -16392.8+50.26*T-20.4695*T*LN(T)
       +2.39754E-04*T**2-8.333E-09*T**3+4596375*T**(-1);
      6000.00  N !
$ N(g)
 FUNCTION F12658T   298.15  +466446.153-13.3752574*T-20.89393*T*LN(T)
       +8.45521E-05*T**2-1.0018685E-08*T**3+2788.7865*T**(-1);
      2950.00  Y  +481259.035-52.5441353*T-16.37613*T*LN(T)
       -2.283738E-04*T**2-2.78997167E-08*T**3-7559105*T**(-1);
      6000.00  N !
$ N2(g) from SGSUB 1997
 FUNCTION F12845T   298.15  -8000.12556-8.81620364*T-27.22332*T*LN(T)
       -0.0012599175*T**2-5.39381E-07*T**3-38326.695*T**(-1);
       800.00  Y  -10569.6463+2.77534156*T-28.42384*T*LN(T)
       -0.003189275*T**2+2.06638E-07*T**3+416969.05*T**(-1);
      2200.00  Y  -22468.6305+71.8176271*T-37.55014*T*LN(T)
       -6.158995E-06*T**2-4.22547E-09*T**3+3427512*T**(-1);
      6000.00  N !
$ N3(g)
 FUNCTION F12909T   298.15  +426260.222-44.8788468*T-24.40177*T*LN(T)
       -0.02510581*T**2+3.41313667E-06*T**3+61652.95*T**(-1);
       800.00  Y  +409926.892+144.323862*T-52.34995*T*LN(T)
       -0.0035522355*T**2+2.39819667E-07*T**3+1869491.5*T**(-1);
      2200.00  Y  +398090.062+216.588607*T-61.96494*T*LN(T)
       -5.55378E-05*T**2+1.47712917E-09*T**3+4654831*T**(-1);
      6000.00  N !
$ ------------------------------------------------------------------------------
$ Va
$
 PAR  G(FCC_A1,VA:VA),,                 +100*T;,,                     N 18Pan !
$ ------------------------------------------------------------------------------
$ Binary system
$
$ M. Pang, Y. Peng, P. Zhou, Y. Du, J. Mining Metall. B, 54B, 111-18(2018).
$
$ Checked against paper. Checked at 6000 K.
$
$ Substitutional vacancies in fcc!
$
$ The compositions of Hf3N2 and Hf4N3 are incorrect in the phase diagrams
$ in the paper. Their parameters were (presumably) derived for these incorrect
$ compositions and are corrected here. As a consequence the phase diagram is
$ only approximately reproduced.
$
$ The fcc interaction was adjusted to reproduce the L + fcc = hcp equilibrium.
$ At low temperature the composition range of fcc is not quite reproduced.
$
 PAR  L(LIQUID,HF,N;0),,                -379059;,,                    N 18Pan !
$
 PAR  G(FCC_A1,HF:N),,                  -396864+299.124*T
             -49.636*T*LN(T)-0.002124*T**2+471912*T**(-1);,,          N 18Pan !
$ Original interaction in paper below
$PAR  L(FCC_A1,HF:N,VA;0),,             -43972;,,                     N 18Pan !
$ Adjusted interaction below
 PAR  L(FCC_A1,HF:N,VA;0),,             -23000;,,                     N 18Pan !
 PAR  L(FCC_A1,HF,VA:N;0),,             -1005710;,,                   N 18Pan !
$
 PAR  G(BCC_A2,HF:N),,                  +GHSERHF+3*GHSERNN
             +900000+60*T;,,                                          N 18Pan !
$
 PAR  G(HCP_A3,HF:N),,                  +GHSERHF+0.5*GHSERNN
             -204434+46.533*T;,,                                      N 18Pan !
 PAR  L(HCP_A3,HF:N,VA;0),,             -32931;,,                     N 18Pan !
$
$ Original parameter in paper below
$PAR  G(HF3N2,HF:N),,                   +3*GHSERHF+2*GHSERNN
$            -144517+31.818*T;,,                                      N 18Pan !
$ Corrected parameter below
 PAR  G(HF3N2,HF:N),,                   +3*GHSERHF+2*GHSERNN
             -785820+178*T;,,                                         N 18Pan !
$
$ Original parameter in paper below
$PAR  G(HF4N3,HF:N),,                   +4*GHSERHF+3*GHSERNN
$            -153938+34.445*T;,,                                      N 18Pan !
$ Corrected parameter below
 PAR  G(HF4N3,HF:N),,                   +4*GHSERHF+3*GHSERNN
             -1160501+266*T;,,                                        N 18Pan !
$ ------------------------------------------------------------------------------
$
$
 LIST-OF-REFERENCE
 NUMBER  SOURCE
  Null   'Unknown source'
  Same   'Same or similar interaction as in the corresponding stable phase'
  REFLAV 'Laves phase convention: G(LAVES,X:X)=+3*GHSERXX+15000'
  91Din  'A.T. Dinsdale, Calphad, 15, 317-425(1991).'
  97SUB  'SGTE substance database, version 1997'
  18Pan  'M. Pang, Y. Peng, P. Zhou, Y. Du,
          J. Mining Metall. B, 54B, 111-18(2018); Hf-N'
!
