$
$ Database for Li-Si from M.H. Braga et al. 2014
$
$ M.H. Braga, A. Debski, W. Gasior, J. Alloys Compd., 616, 581-93(2014).
$
$ Dataset created 2016.12.11 by Bengt Hallstedt.
$ 2021.01.24: Modified for use with GES6.
$
$ Solubility of Si in solid Li not considered.
$
$ Change from fractional to integar compositions of the compounds cause
$ changes by up to 4 K in some invariant equilibria.
$
$ ------------------------------------------------------------------------------
 TEMP-LIM 298.15 6000.00 !
$
$ELEMENT NAME  REF. STATE               ATOMIC MASS H298-H0    S298    !
$
 ELEMENT VA   VACUUM                      0.0          0.0      0.0    ! 
 ELEMENT LI   BCC_A2                      6.941     4632.00    29.12   ! 
 ELEMENT SI   DIAMOND_A4                 28.0855    3217.      18.81   ! 
$ ------------------------------------------------------------------------------
$ Phase definitions
$
 PHASE LIQUID:L % 1 1 !
 CONST LIQUID:L : LI SI : !
$
$ Fcc (cF4, Fm-3m) and MeX (cF8, Fm-3m)
$
 PHASE FCC_A1 %A 2 1 1 !
 CONST FCC_A1 : LI SI : VA : !
$
$ Bcc (cI2, Im-3m)
$
 PHASE BCC_A2 %B 2 1 3 !
 CONST BCC_A2 : LI% SI : VA : !
$
$ Hcp (hP2, P6_3/mmc) and Me2X (NiAs-type, hP4, P6_3/mmc, B8_1)
$
 PHASE HCP_A3 % 2 1 0.5 !
 CONST HCP_A3 : LI SI : VA : !
$
$ Prototype C (cF8, Fd-3m)
$
 PHASE DIAMOND_A4 % 1 1 !
 CONST DIAMOND_A4 : SI : !
$
$ Prototype Li17Si4 (cF420, F-43m)
$
 PHASE LI17SI4 % 2 17 4 !
 CONST LI17SI4 : LI : SI : !
$
$ Prototype Li21Si5 (cF416, F-43m)
$
 PHASE LI21SI5 % 2 21 5 !
 CONST LI21SI5 : LI : SI : !
$
$ Prototype Li33Si8 (mP82, Pm)
$
 PHASE LI33SI8 % 2 33 8 !
 CONST LI33SI8 : LI : SI : !
$
$ Prototype Li13Si4 (mP34, Pm)
$
 PHASE LI13SI4 % 2 13 4 !
 CONST LI13SI4 : LI : SI : !
$
$ Prototype Li7Si3 (hP60, P3_212)
$
 PHASE LI7SI3 % 2 7 3 !
 CONST LI7SI3 : LI : SI : !
$
$ Prototype Li12Si7 (oP152, Pnma)
$
 PHASE LI12SI7 % 2 12 7 !
 CONST LI12SI7 : LI : SI : !
$
$ Prototype GeLi (tI32, I4_1/a)
$
 PHASE LISI % 2 1 1 !
 CONST LISI : LI : SI : !
$ ------------------------------------------------------------------------------
$ Defaults
$
 DEFINE-SYSTEM-DEFAULT ELEMENT 2 !
 DEFAULT-COM DEFINE_SYSTEM_ELEMENT VA !
 TYPE-DEF % SEQ * !
 TYPE-DEF A GES AMEND_PHASE_DESCRIPTION @ MAGNETIC -3 0.28 !
 TYPE-DEF B GES AMEND_PHASE_DESCRIPTION @ MAGNETIC -1 0.4 !
 FUNCTION ZERO      298.15  0;                                         6000 N !
 FUNCTION UN_ASS    298.15  0;                                         6000 N !
 FUNCTION R         298.15  +8.31451;                                  6000 N !
$ ------------------------------------------------------------------------------
$ Element data
$ ------------------------------------------------------------------------------
$ Li
$
 PAR  G(BCC_A2,LI:VA)           200.00  +GHSERLI;                3000 N 91Din !
 PAR  G(FCC_A1,LI:VA)           200.00  +GHSERLI-108+1.3*T;      3000 N 91Din !
 PAR  G(HCP_A3,LI:VA)           200.00  +GHSERLI-154+2*T;        3000 N 91Din !
 PAR  G(LIQUID,LI)              200.00  +GLIQLI;                 3000 N 91Din !
$
 FUNCTION GHSERLI   200.00  -10583.817+217.637482*T-38.940488*T*LN(T)
       +0.035466931*T**2-1.9869816E-05*T**3+159994*T**(-1);
       453.60  Y  -559579.123+10547.8799*T-1702.88865*T*LN(T)
       +2.25832944*T**2-5.71066077E-04*T**3+33885874*T**(-1);
       500.00  Y  -9062.994+179.278285*T-31.2283718*T*LN(T)
       +0.002633221*T**2-4.38058E-07*T**3-102387*T**(-1);
      3000.00  N !
 FUNCTION GLIQLI    200.00  +2700.205-5.795621*T+GHSERLI;
       250.00  Y  +12015.027-362.187078*T+61.6104424*T*LN(T)
       -0.182426463*T**2+6.3955671E-05*T**3-559968*T**(-1);
       453.60  Y  -6057.31+172.652183*T-31.2283718*T*LN(T)
       +0.002633221*T**2-4.38058E-07*T**3-102387*T**(-1);
       500.00  Y  +3005.684-6.626102*T+GHSERLI;
      3000.00  N !
$ ------------------------------------------------------------------------------
$ Si
$
 PAR  G(DIAMOND_A4,SI),,                +GHSERSI;                3600 N 91Din !
 PAR  G(FCC_A1,SI:VA),,                 +GHSERSI+51000-21.8*T;   3600 N 91Din !
 PAR  G(BCC_A2,SI:VA),,                 +GHSERSI+47000-22.5*T;   3600 N 91Din !
 PAR  G(HCP_A3,SI:VA),,                 +GHSERSI+49200-20.8*T;   3600 N 91Din !
$PAR  G(CBCC_A12,SI:VA),,               +GHSERSI+50208-20.377*T; 3600 N 91Din !
$PAR  G(CUB_A13,SI:VA),,                +GHSERSI+47279-20.377*T; 3600 N 91Din !
 PAR  G(LIQUID,SI),,                    +GLIQSI;                 3600 N 91Din !
$
 FUNCTION GHSERSI   298.15  -8162.609+137.236859*T-22.8317533*T*LN(T)
       -0.001912904*T**2-3.552E-09*T**3+176667*T**(-1);
      1687.00  Y  -9457.642+167.281367*T-27.196*T*LN(T)-4.20369E+30*T**(-9);
      3600.00  N !
 FUNCTION GLIQSI    298.15  +50696.36-30.099439*T+GHSERSI+2.09307E-21*T**7;
      1687.00  Y  +40370.523+137.722298*T-27.196*T*LN(T);
      3600.00  N !
 FUNCTION GBCCSI    298.15  +GHSERSI+47000-22.5*T;               3600 N 91Din !
$ ------------------------------------------------------------------------------
$ Binary system
$
$ M.H. Braga, A. Debski, W. Gasior, J. Alloys Compd., 616, 581-93(2014).
$
$ Checked against paper and author's tdb. Checked at 6000 K.
$
$ Solubility of Si in solid Li not considered.
$
$ Change from fractional to integar compositions of the compounds cause
$ changes by up to 4 K in some invariant equilibria.
$
 PAR  L(LIQUID,LI,SI;0),,               -115035+23*T;,,               N 14Bra !
 PAR  L(LIQUID,LI,SI;1),,               -55980+17*T;,,                N 14Bra !
 PAR  L(LIQUID,LI,SI;2),,               +9764;,,                      N 14Bra !
 PAR  L(LIQUID,LI,SI;3),,               +35653;,,                     N 14Bra !
$
 PAR  G(LI17SI4,LI:SI),,                +17*GHSERLI+4*GHSERSI
             -479178+104.937*T;,,                                     N 14Bra !
 PAR  G(LI21SI5,LI:SI),,                +21*GHSERLI+5*GHSERSI
             -589758+119.808*T;,,                                     N 14Bra !
 PAR  G(LI33SI8,LI:SI),,                +33*GHSERLI+8*GHSERSI
             -944865.5+196.39*T;,,                                    N 14Bra !
 PAR  G(LI13SI4,LI:SI),,                +13*GHSERLI+4*GHSERSI
             -428519+70.55*T;,,                                       N 14Bra !
 PAR  G(LI7SI3,LI:SI),,                 +7*GHSERLI+3*GHSERSI
             -267000+31.1*T;,,                                        N 14Bra !
 PAR  G(LI12SI7,LI:SI),,                +12*GHSERLI+7*GHSERSI
             -471523+47.31*T;,,                                       N 14Bra !
 PAR  G(LISI,LI:SI),,                   +GHSERLI+GHSERSI
             -39578+4.3198*T;,,                                       N 14Bra !
$ ------------------------------------------------------------------------------
$
$
 LIST-OF-REFERENCE
 NUMBER  SOURCE
  Null   'Unknown source'
  Same   'Same or similar interaction as in the corresponding stable phase'
  91Din  'A.T. Dinsdale, Calphad, 15, 317-425(1991).'
  97SUB  'SGTE substance database, version 1997'
  14Bra  'M.H. Braga, A. Debski, W. Gasior,
          J. Alloys Compd., 616, 581-93(2014); Li-Si'
!
