$
$ Database for Pt-Zr from Y. Gao et al. 2010.
$
$ Y. Gao, C. Guo, C. Li, Z. Du, Int. J. Mater. Res., 101, 819-26(2010).
$
$ Dataset created 2018.12.28 by Bengt Hallstedt.
$ 2021.02.05: Modified for use with GES6.
$
$ The liquid interaction has a very large temperature dependence.
$
$ There is an inverse miscibility gap with a minimum at 5746 K and x(Zr)=0.33.
$
$ ------------------------------------------------------------------------------
 TEMP-LIM 298.15 6000.00 !
$
$ELEMENT NAME  REF. STATE               ATOMIC MASS H298-H0    S298    !
$
 ELEMENT VA   VACUUM                      0.0          0.0      0.0    ! 
 ELEMENT PT   FCC_A1                    195.08      5723.712   41.6308 !
 ELEMENT ZR   HCP_A3                     91.22      5566.27    39.1809 ! 
$ ------------------------------------------------------------------------------
$ Phase definitions
$
 PHASE LIQUID:L % 1 1 !
 CONST LIQUID:L : PT ZR : !
$
$ Fcc (cF4, Fm-3m) and MeX (cF8, Fm-3m)
$
 PHASE FCC_A1 %A 2 1 1 !
 CONST FCC_A1 : PT% ZR : VA : !
$
$ Bcc (cI2, Im-3m)
$
 PHASE BCC_A2 %B 2 1 3 !
 CONST BCC_A2 : PT ZR% : VA : !
$
$ Disordered part of B2_BCC, identical to BCC_A2
$
 PHASE A2_BCC %B 2 1 3 !
 CONST A2_BCC : PT ZR% : VA : !
$
$ Prototype CsCl (cP2, Pm-3m)
$
 PHASE B2_BCC %BO 3 0.5 0.5 3 !
 CONST B2_BCC : PT% ZR : PT ZR% : VA : !
$
$ Hcp (hP2, P6_3/mmc) and Me2X (NiAs-type, hP4, P6_3/mmc, B8_1)
$
 PHASE HCP_A3 %A 2 1 0.5 !
 CONST HCP_A3 : PT ZR% : VA : !
$
$ Disordered part of HCP_D024, identical to HCP_A3
$
 PHASE A3_HCP %A 2 1 0.5 !
 CONST A3_HCP : PT ZR% : VA : !
$
$ Prototype Ni3Ti (hP16, P6_3/mmc), Pt3Zr
$
 PHASE D024_HCP %AZ 3 0.75 0.25 0.5 !
 CONST D024_HCP : PT% ZR : PT ZR% : VA : !
$
$ unknown structure
$
 PHASE PT4ZR % 2 4 1 !
 CONST PT4ZR : PT% ZR : PT ZR% : !
$
$ Prototype Ni10Zr7 (oC68, Cmce)
$
 PHASE PT10ZR7 % 2 10 7 !
 CONST PT10ZR7 : PT : ZR : !
$
$ Prototype Pd4Pu3 (hR14, R-3)
$
 PHASE PT4ZR3 % 2 4 3 !
 CONST PT4ZR3 : PT% ZR : PT ZR% : !
$
$ Prototype CrB (oC8, Cmcm)
$
 PHASE PTZR_B33 % 2 1 1 !
 CONST PTZR_B33 : PT% ZR : PT ZR% : !
$
$ Prototype Mn5Si3 (hP16, P6_3/mcm)
$
 PHASE PT3ZR5_D88 % 2 3 5 !
 CONST PT3ZR5_D88 : PT% ZR : PT ZR% : !
$ ------------------------------------------------------------------------------
$ Defaults
$
 DEFINE-SYSTEM-DEFAULT ELEMENT 2 !
 DEFAULT-COM DEFINE_SYSTEM_ELEMENT VA !
 TYPE-DEF % SEQ * !
 TYPE-DEF A GES AMEND_PHASE_DESCRIPTION @ MAGNETIC -3 0.28 !
 TYPE-DEF B GES AMEND_PHASE_DESCRIPTION @ MAGNETIC -1 0.4 !
 TYPE-DEF O GES AMEND_PHASE_DESCRIPTION B2_BCC DIS_PART A2_BCC !
 TYPE-DEF Z GES AMEND_PHASE_DESCRIPTION D024_HCP DIS_PART A3_HCP !
 FUNCTION ZERO      298.15  0;                                         6000 N !
 FUNCTION UN_ASS    298.15  0;                                         6000 N !
 FUNCTION R         298.15  +8.31451;                                  6000 N !
$ ------------------------------------------------------------------------------
$ Element data
$ ------------------------------------------------------------------------------
$ Pt
$
 PAR  G(FCC_A1,PT:VA),,                 +GHSERPT;                4000 N 91Din !
 PAR  G(BCC_A2,PT:VA),,                 +GHSERPT+15000-2.4*T;    4000 N 91Din !
 PAR  G(A2_BCC,PT:VA),,                 +GHSERPT+15000-2.4*T;    4000 N 91Din !
 PAR  G(HCP_A3,PT:VA),,                 +GHSERPT+2500+0.1*T;     4000 N 91Din !
 PAR  G(A3_HCP,PT:VA),,                 +GHSERPT+2500+0.1*T;     4000 N 91Din !
 PAR  G(LIQUID,PT),,                    +GLIQPT;                 4000 N 91Din !
$
 PAR  G(PT4ZR,PT:PT),,                  +5*GHSERPT+15000;,,           N 10Gao !
 PAR  G(PT4ZR3,PT:PT),,                 +7*GHSERPT+21000;,,           N 10Gao !
 PAR  G(PTZR_B33,PT:PT),,               +2*GHSERPT+6000;,,            N 10Gao !
 PAR  G(PT3ZR5_D88,PT:PT),,             +8*GHSERPT+24000;,,           N 10Gao !
$
 FUNCTION GHSERPT   298.15  -7595.631+124.388275*T-24.5526*T*LN(T)
       -0.00248297*T**2-2.0138E-08*T**3+7974*T**(-1);
      1300.00  Y  -9253.174+161.529615*T-30.2527*T*LN(T)
       +0.002321665*T**2-6.56946E-07*T**3-272106*T**(-1);
      2041.50  Y  -222048.216+1019.35892*T-136.192996*T*LN(T)
       +0.020454938*T**2-7.59259E-07*T**3+71539020*T**(-1);
      4000.00  N !
 FUNCTION GLIQPT    298.15  +20114.016-9.275183*T+GHSERPT;
       600.00  Y  +19023.491+32.94182*T-12.3403769*T*LN(T)
       -0.011551507*T**2+9.31516E-07*T**3-601426*T**(-1);
      2041.50  Y  +1404.468+205.858962*T-36.5*T*LN(T);
      4000.00  N !
 FUNCTION GBCCPT    298.15  +GHSERPT+15000-2.4*T;                      6000 N !
$ ------------------------------------------------------------------------------
$ Zr
$
$ CUB_A13, CBCC_A12, ORTHORHOMBIC_A20 and TETRAGONAL_U added in unary 4.1
$
 PAR  G(HCP_A3,ZR:VA)           130.00  +GHSERZR;,,                   N 91Din !
 PAR  G(A3_HCP,ZR:VA)           130.00  +GHSERZR;,,                   N 91Din !
 PAR  G(BCC_A2,ZR:VA)           130.00  +GBCCZR;,,                    N 91Din !
 PAR  G(A2_BCC,ZR:VA)           130.00  +GBCCZR;,,                    N 91Din !
$PAR  G(OMEGA,ZR)               130.00  +GOMEZR;,,                    N 91Din !
 PAR  G(FCC_A1,ZR:VA)           130.00  +GHSERZR+7600-0.9*T;,,        N 91Din !
$PAR  G(CBCC_A12,ZR:VA)         130.00  +GHSERZR+4602.2;,,            N 99SGUN !
$PAR  G(CUB_A13,ZR:VA)          130.00  +GHSERZR+7531.2;,,            N 99SGUN !
$PAR  G(ORTHORHOMBIC_A20,ZR)    130.00  +GBCCZR+5000;,,               N 99SGUN !
$PAR  G(TETRAGONAL_U,ZR)        130.00  +GBCCZR+5000;,,               N 99SGUN !
 PAR  G(LIQUID,ZR)              130.00  +GLIQZR;,,                    N 91Din !
$
 PAR  G(PT4ZR,ZR:ZR),,                  +5*GHSERZR+15000;,,           N 10Gao !
 PAR  G(PT4ZR3,ZR:ZR),,                 +7*GHSERZR+21000;,,           N 10Gao !
 PAR  G(PTZR_B33,ZR:ZR),,               +2*GHSERZR+6000;,,            N 10Gao !
 PAR  G(PT3ZR5_D88,ZR:ZR),,             +8*GHSERZR+24000;,,           N 10Gao !
$
 FUNCTION GHSERZR   130.00  -7827.595+125.64905*T-24.1618*T*LN(T)
       -0.00437791*T**2+34971*T**(-1);
      2128.00  Y  -26085.921+262.724183*T-42.144*T*LN(T)-1.342896E+31*T**(-9);
      6000.00  N !
 FUNCTION GBCCZR    130.00  -525.539+124.9457*T-25.607406*T*LN(T)
       -3.40084E-04*T**2-9.729E-09*T**3+25233*T**(-1)-7.6143E-11*T**4;
      2128.00  Y  -4620.034+1.55998*T+GHSERZR+1.4103476E+32*T**(-9);
      6000.00  N !
 FUNCTION GOMEZR    130.00  -8878.082+144.432234*T-26.8556*T*LN(T)
       -0.002799446*T**2+38376*T**(-1);
      2128.00  Y  -3414.603+2.566675*T+GHSERZR+8.517346E+31*T**(-9);
      6000.00  N !
 FUNCTION GLIQZR    130.00  +18147.69-9.080812*T+GHSERZR+1.6275E-22*T**7;
      2128.00  Y  -8281.26+253.812609*T-42.144*T*LN(T);
      6000.00  N !
$ ------------------------------------------------------------------------------
$ Binary system
$
$ Y. Gao, C. Guo, C. Li, Z. Du, Int. J. Mater. Res., 101, 819-26(2010).
$
$ Checked against paper. Checked at 6000 K.
$
$ The liquid interaction has a very large temperature dependence.
$
$ There is an inverse miscibility gap with a minimum at 5746 K and x(Zr)=0.33.
$
 PAR  L(LIQUID,PT,ZR;0),,               -381696.4+82.4086*T;,,        N 10Gao !
 PAR  L(LIQUID,PT,ZR;1),,               -201685.7+37.841*T;,,         N 10Gao !
 PAR  L(LIQUID,PT,ZR;2),,               -107963.4+19.1476*T;,,        N 10Gao !
$
 PAR  L(FCC_A1,PT,ZR:VA;0),,            -304715.9+47.9044*T;,,        N 10Gao !
 PAR  L(FCC_A1,PT,ZR:VA;1),,            -268542.1+36.0033*T;,,        N 10Gao !
$
 PAR  L(BCC_A2,PT,ZR:VA;0),,            -199998.6+26.3774*T;,,        N 10Gao !
 PAR  L(BCC_A2,PT,ZR:VA;1),,            +23552.3-1.198*T;,,           N 10Gao !
 PAR  L(BCC_A2,PT,ZR:VA;2),,            +58261.8-14.7125*T;,,         N 10Gao !
$
 PAR  L(A2_BCC,PT,ZR:VA;0),,            -199998.6+26.3774*T;,,        N 10Gao !
 PAR  L(A2_BCC,PT,ZR:VA;1),,            +23552.3-1.198*T;,,           N 10Gao !
 PAR  L(A2_BCC,PT,ZR:VA;2),,            +58261.8-14.7125*T;,,         N 10Gao !
$
 PAR  G(B2_BCC,PT:ZR:VA),,              -110000;,,                    N 10Gao !
 PAR  G(B2_BCC,ZR:PT:VA),,              -110000;,,                    N 10Gao !
 PAR  L(B2_BCC,PT,ZR:PT:VA;0),,         -335575.7;,,                  N 10Gao !
 PAR  L(B2_BCC,PT:PT,ZR:VA;0),,         -335575.7;,,                  N 10Gao !
 PAR  L(B2_BCC,PT,ZR:ZR:VA;0),,         +316823.7-37.3064*T;,,        N 10Gao !
 PAR  L(B2_BCC,ZR:PT,ZR:VA;0),,         +316823.7-37.3064*T;,,        N 10Gao !
 PAR  L(B2_BCC,PT,ZR:ZR:VA;1),,         -96562+1.5988*T;,,            N 10Gao !
 PAR  L(B2_BCC,ZR:PT,ZR:VA;1),,         -96562+1.5988*T;,,            N 10Gao !
 PAR  L(B2_BCC,PT,ZR:ZR:VA;2),,         -51577.2;,,                   N 10Gao !
 PAR  L(B2_BCC,ZR:PT,ZR:VA;2),,         -51577.2;,,                   N 10Gao !
$
 PAR  L(HCP_A3,PT,ZR:VA;0),,            -188858.9+25.4561*T;,,        N 10Gao !
 PAR  L(HCP_A3,PT,ZR:VA;1),,            -28766.4;,,                   N 10Gao !
$
 PAR  L(A3_HCP,PT,ZR:VA;0),,            -188858.9+25.4561*T;,,        N 10Gao !
 PAR  L(A3_HCP,PT,ZR:VA;1),,            -28766.4;,,                   N 10Gao !
$
 PAR  G(D024_HCP,PT:ZR:VA),,            +UH1PTZR;,,                   N 10Gao !
 PAR  G(D024_HCP,ZR:PT:VA),,            -UH1PTZR;,,                   N 10Gao !
 PAR  L(D024_HCP,PT,ZR:PT:VA;0),,       +4*UH1PTZR+3*UH2PTZR;,,       N 10Gao !
 PAR  L(D024_HCP,PT,ZR:PT:VA;1),,       +3*UH3PTZR;,,                 N 10Gao !
 PAR  L(D024_HCP,PT,ZR:ZR:VA;0),,       -UH1PTZR+3*UH2PTZR;,,         N 10Gao !
 PAR  L(D024_HCP,PT,ZR:ZR:VA;1),,       +3*UH3PTZR;,,                 N 10Gao !
 PAR  L(D024_HCP,PT:PT,ZR:VA;0),,       +UH2PTZR;,,                   N 10Gao !
 PAR  L(D024_HCP,PT:PT,ZR:VA;1),,       +UH3PTZR;,,                   N 10Gao !
 PAR  L(D024_HCP,ZR:PT,ZR:VA;0),,       +UH1PTZR+UH2PTZR;,,           N 10Gao !
 PAR  L(D024_HCP,ZR:PT,ZR:VA;1),,       +UH3PTZR;,,                   N 10Gao !
$
 PAR  G(PT4ZR,PT:ZR),,                  +4*GHSERPT+GHSERZR
             -454005.4+71.234*T;,,                                    N 10Gao !
 PAR  G(PT4ZR,ZR:PT),,                  +4*GHSERZR+GHSERPT
             +484005.4-71.234*T;,,                                    N 10Gao !
 PAR  L(PT4ZR,PT:PT,ZR;0),,             +7593.5-18.1748*T;,,          N 10Gao !
 PAR  L(PT4ZR,ZR:PT,ZR;0),,             +7593.5-18.1748*T;,,          N 10Gao !
$
 PAR  G(PT10ZR7,PT:ZR),,                +10*GHSERPT+7*GHSERZR
             -1725875+264.423*T;,,                                    N 10Gao !
$
 PAR  G(PT4ZR3,PT:ZR),,                 +4*GHSERPT+3*GHSERZR
             -706880.9+106.6171*T;,,                                  N 10Gao !
 PAR  G(PT4ZR3,ZR:PT),,                 +4*GHSERZR+3*GHSERPT
             +748880.9-106.6171*T;,,                                  N 10Gao !
 PAR  L(PT4ZR3,PT,ZR:PT;0),,            -109750.7+9.5218*T;,,         N 10Gao !
 PAR  L(PT4ZR3,PT,ZR:ZR;0),,            -109750.7+9.5218*T;,,         N 10Gao !
 PAR  L(PT4ZR3,PT:PT,ZR;0),,            +406206;,,                    N 10Gao !
 PAR  L(PT4ZR3,ZR:PT,ZR;0),,            +406206;,,                    N 10Gao !
$
 PAR  G(PTZR_B33,PT:ZR),,               +GHSERPT+GHSERZR
             -191486.6+29.5907*T;,,                                   N 10Gao !
 PAR  G(PTZR_B33,ZR:PT),,               +GHSERPT+GHSERZR
             -191486.6+29.5907*T;,,                                   N 10Gao !
 PAR  L(PTZR_B33,PT,ZR:PT;0),,          +38628.1+2.2804*T;,,          N 10Gao !
 PAR  L(PTZR_B33,PT:PT,ZR;0),,          +38628.1+2.2804*T;,,          N 10Gao !
 PAR  L(PTZR_B33,PT,ZR:PT;1),,          -64638.1+3.6354*T;,,          N 10Gao !
 PAR  L(PTZR_B33,PT:PT,ZR;1),,          -64638.1+3.6354*T;,,          N 10Gao !
 PAR  L(PTZR_B33,PT,ZR:ZR;0),,          +38628.1+2.2804*T;,,          N 10Gao !
 PAR  L(PTZR_B33,ZR:PT,ZR;0),,          +38628.1+2.2804*T;,,          N 10Gao !
 PAR  L(PTZR_B33,PT,ZR:ZR;1),,          -64638.1+3.6354*T;,,          N 10Gao !
 PAR  L(PTZR_B33,ZR:PT,ZR;1),,          -64638.1+3.6354*T;,,          N 10Gao !
$
 PAR  G(PT3ZR5_D88,PT:ZR),,             +3*GHSERPT+5*GHSERZR
             -611968.6+88.1934*T;,,                                   N 10Gao !
 PAR  G(PT3ZR5_D88,ZR:PT),,             +3*GHSERZR+5*GHSERPT
             +659968.6-88.1934*T;,,                                   N 10Gao !
 PAR  L(PT3ZR5_D88,PT,ZR:PT;0),,        +40550.9+35.67116*T;,,        N 10Gao !
 PAR  L(PT3ZR5_D88,PT,ZR:ZR;0),,        +40550.9+35.67116*T;,,        N 10Gao !
$
 FUNCTION UH1PTZR   298.15  -129176.1+17.2106*T;                       6000 N !
 FUNCTION UH2PTZR   298.15  -8780.1-4.041*T;                           6000 N !
 FUNCTION UH3PTZR   298.15  +41010.3-1.914*T;                          6000 N !
$ ------------------------------------------------------------------------------
$
$
 LIST-OF-REFERENCE
 NUMBER  SOURCE
  Null   'Unknown source'
  Same   'Same or similar interaction as in the corresponding stable phase'
  91Din  'A.T. Dinsdale, Calphad, 15, 317-425(1991).'
  99SGUN 'SGTE unary database V.4.1, 1999.'
  10Gao  'Y. Gao, C. Guo, C. Li, Z. Du,
          Int. J. Mater. Res., 101, 819-26(2010); Pt-Zr'
!
