$
$ Database for Al-Bi from S.S. Kim and T.H. Sanders, Jr. 2006.
$
$ S.S. Kim, T.H. Sanders, Jr.,
$ Modelling Simul. Mater. Sci. Eng., 14, 1181-88(2006).
$
$ Dataset created 2019.05.01 by Bengt Hallstedt.
$ 2020.12.20: Modified for use with GES6.
$ 2023.02.24: Unary Bi changed from V4.4 to V5.0.
$
$ ------------------------------------------------------------------------------
 TEMP-LIM 298.15 6000.00 !
$
$ELEMENT NAME  REF. STATE               ATOMIC MASS H298-H0    S298    !
$
 ELEMENT VA   VACUUM                      0.0          0.0      0.0    ! 
 ELEMENT AL   FCC_A1                     26.98154   4540.      28.30   ! 
 ELEMENT BI   RHOMBOHEDRAL_A7           208.98      6426.6     56.735  !
$ ------------------------------------------------------------------------------
$ Phase definitions
$
 PHASE LIQUID:L % 1 1 !
 CONST LIQUID:L : AL BI : !
$
$ Fcc (cF4, Fm-3m) and MeX (cF8, Fm-3m)
$
 PHASE FCC_A1 %A 2 1 1 !
 CONST FCC_A1 : AL% BI : VA : !
$
$ Bcc (cI2, Im-3m)
$
 PHASE BCC_A2 %B 2 1 3 !
 CONST BCC_A2 : AL BI : VA : !
$
$ Hcp (hP2, P6_3/mmc) and Me2X (NiAs-type, hP4, P6_3/mmc, B8_1)
$
 PHASE HCP_A3 %A 2 1 0.5 !
 CONST HCP_A3 : AL BI : VA : !
$
$ Prototype alpha-As (hR2, R-3m)
$
 PHASE RHOMBOHEDRAL_A7 % 1 1 !
 CONST RHOMBOHEDRAL_A7 : BI : !
$ ------------------------------------------------------------------------------
$ Defaults
$
 DEFINE-SYSTEM-DEFAULT ELEMENT 2 !
 DEFAULT-COM DEFINE_SYSTEM_ELEMENT VA !
 TYPE-DEF % SEQ * !
 TYPE-DEF A GES AMEND_PHASE_DESCRIPTION @ MAGNETIC -3 0.28 !
 TYPE-DEF B GES AMEND_PHASE_DESCRIPTION @ MAGNETIC -1 0.4 !
 FUNCTION ZERO      298.15  0;                                         6000 N !
 FUNCTION UN_ASS    298.15  0;                                         6000 N !
 FUNCTION R         298.15  +8.31451;                                  6000 N !
$ ------------------------------------------------------------------------------
$ Element data
$ ------------------------------------------------------------------------------
$ Al
$
$ BCT_A5 and DIAMOND_A4 added in unary 3.0
$
 PAR  G(FCC_A1,AL:VA),,                 +GHSERAL;                2900 N 91Din !
 PAR  G(BCC_A2,AL:VA),,                 +GHSERAL+10083-4.813*T;  2900 N 91Din !
 PAR  G(HCP_A3,AL:VA),,                 +GHSERAL+5481-1.8*T;     2900 N 91Din !
$PAR  G(CBCC_A12,AL:VA),,               +GHSERAL
$            +10083.4-4.813*T;                                   2900 N 91Din !
$PAR  G(CUB_A13,AL:VA),,                +GHSERAL
$            +10920.44-4.8116*T;                                 2900 N 91Din !
$PAR  G(BCT_A5,AL),,                    +GHSERAL+10083-4.813*T;  2900 N SGCOST !
$PAR  G(DIAMOND_A4,AL),,                +GHSERAL+30*T;           2900 N SGCOST !
 PAR  G(LIQUID,AL),,                    +GLIQAL;                 2900 N 91Din !
$
 FUNCTION GHSERAL   298.15  -7976.15+137.093038*T-24.3671976*T*LN(T)
       -0.001884662*T**2-8.77664E-07*T**3+74092*T**(-1);
       700.00  Y  -11276.24+223.048446*T-38.5844296*T*LN(T)
       +0.018531982*T**2 -5.764227E-06*T**3+74092*T**(-1);
       933.47  Y  -11278.361+188.684136*T-31.748192*T*LN(T)
       -1.230622E+28*T**(-9);
      2900.00  N !
 FUNCTION GLIQAL    298.15  +11005.045-11.84185*T+GHSERAL+7.9337E-20*T**7;
       933.47  Y  -795.991+177.430209*T-31.748192*T*LN(T);
      2900.00  N !
$ ------------------------------------------------------------------------------
$ Bi
$
$ RHOMBOHEDRAL_A7 and LIQUID modified in unary 5.0
$ DIAMOND_A4 added in unary 5.0
$
 PAR  G(RHOMBOHEDRAL_A7,BI),,           +GHSERBI;                3000 N 09SGUN !
 PAR  G(FCC_A1,BI:VA),,                 +GHSERBI+9900-12.5*T;    3000 N 91Din !
 PAR  G(BCC_A2,BI:VA),,                 +GHSERBI+11297-13.9*T;   3000 N 91Din !
 PAR  G(HCP_A3,BI:VA),,                 +GHSERBI+9900-11.8*T;    3000 N 91Din !
$PAR  G(DIAMOND_A4,BI),,                +GHSERBI
$            +11296.8+9.253655*T;                                3000 N 88Che2 !
$PAR  G(BCT_A5,BI),,                    +GHSERBI+4184.07;        3000 N 91Din !
$PAR  G(TETRAGONAL_A6,BI),,             +GHSERBI+4184.07;        3000 N 91Din !
$PAR  G(TET_ALPHA1_A6,BI),,             +GHSERBI+4234;           3000 N 91Din !
 PAR  G(LIQUID,BI),,                    +GLIQBI;                 3000 N 09SGUN ! 
$
 FUNCTION GHSERBI   298.15  -7817.776+128.418925*T-28.4096529*T*LN(T)
       +0.012338888*T**2-8.381598E-6*T**3;
       544.55  Y  +29293.369-379.605174*T+49.678*T*LN(T)
       -0.0730245*T**2+1.3052833E-5*T**3-3544705*T**(-1)+1.66309E+25*T**(-9);
       800.00  Y  -11085.609+182.955328*T-36.041*T*LN(T)
       +7.4641E-3*T**2-1.05047E-6*T**3+5175*T**(-1)+1.66309E+25*T**(-9);
      1200.00  Y  -7580.864+124.770814*T-27.196*T*LN(T)+1.66309E+25*T**(-9);
      3000.00  N !
 FUNCTION GLIQBI    298.15  +11246.017-20.636399*T+GHSERBI-5.9608E-19*T**7;
       544.55  Y  +40629.667-400.415652*T+49.678*T*LN(T)
       -0.0730245*T**2+1.3052833E-5*T**3-3544705*T**(-1);
       800.00  Y  +250.689+162.14485*T-36.041*T*LN(T)
       +0.0074641*T**2-1.05047E-6*T**3+5175*T**(-1);
      1200.00  Y  +3755.434+103.960336*T-27.196*T*LN(T);
      3000.00 N !
$ ------------------------------------------------------------------------------
$ Binary system
$
$ S.S. Kim, T.H. Sanders, Jr.,
$ Modelling Simul. Mater. Sci. Eng., 14, 1181-88(2006).
$
$ Checked against paper. Checked at 6000 K.
$
 PAR  L(LIQUID,AL,BI;0),,               +75351.7-52.8*T;,,            N 06Kim !
 PAR  L(LIQUID,AL,BI;1),,               +20421.2-3.7*T;,,             N 06Kim !
$
 PAR  L(FCC_A1,AL,BI:VA;0),,            +50000;,,                     N 98Sun !
$
$ Metastable
$
 PAR  L(BCC_A2,AL,BI:VA;0),,            +50000;,,                     N Same !
 PAR  L(HCP_A3,AL,BI:VA;0),,            +50000;,,                     N Same !
$ ------------------------------------------------------------------------------
$
 ASSESSED_SYSTEM
  AL-BI(TDB -* +LIQ +FCC_A1 +RHOMB_A7
  ;G5 MAJ:LIQ/BI C_S:LIQ/AL ;P3 TMM:300/1500 STP:.1/950) !
$
$
 LIST-OF-REFERENCE
 NUMBER  SOURCE
  Null   'Unknown source'
  Same   'Same or similar interaction as in the corresponding stable phase'
  COST   'COST 507 database'
  SGCOST 'COST 507 database, SGTE unary database V.3.0, 1996; Al, B, Nd, Ti, Zn'
  88Che2 'P.-Y. Chevalier, Thermochim. Acta, 132, 111-16(1988),
          SGTE unary database V.5.0, 2009; Bi' 
  91Din  'A.T. Dinsdale, Calphad, 15, 317-425(1991).'
  98Sun  'B. Sundman, fcc interaction added, 1998; Al-Bi'
  06Kim  'S.S. Kim, T.H. Sanders, Jr.,
          Modelling Simul. Mater. Sci. Eng., 14, 1181-88(2006); Al-Bi'
  09SGUN 'SGTE unary database V.5.0, 2009.'
!
