$
$ Database for Ba-B from S. Shang et al. 2007
$
$ S. Shang, T. Wang, Z.-K. Liu, Calphad, 31, 286-91(2007).
$
$ Dataset created 2017.10.08 by Bengt Hallstedt.
$ 2020.12.22: Modified for use with GES6.
$
$ The paper also includes new expressions for alpha-B and beta-B based on
$ ab initio calculations. These are not included here.
$
$ SGSOL (Dec16c) includes alpha-B, but not gaseous Ba and B.
$
$ ------------------------------------------------------------------------------
 TEMP-LIM 298.15 6000.00 !
$
$ELEMENT NAME  REF. STATE               ATOMIC MASS H298-H0    S298    !
$
 ELEMENT VA   VACUUM                      0.0          0.0      0.0    ! 
 ELEMENT B    BETA_RHOMBO_B              10.81      1222.0      5.9    ! 
 ELEMENT BA   BCC_A2                    137.33      6910.0     62.50   ! 
$ ------------------------------------------------------------------------------
$ Species
$
 SPECIE  B2                                 B2 !
 SPECIE  BA2                                BA2 !
$ ------------------------------------------------------------------------------
$ Phase definitions
$
 PHASE LIQUID:L % 1 1 !
 CONST LIQUID:L : B BA : !
$
$ Fcc (cF4, Fm-3m) and MeX (cF8, Fm-3m)
$
 PHASE FCC_A1 %A 2 1 1 !
 CONST FCC_A1 : BA : VA : !
$
$ Bcc (cI2, Im-3m)
$
 PHASE BCC_A2 %B 2 1 3 !
 CONST BCC_A2 : BA : VA : !
$
$ Hcp (hP2, P6_3/mmc) and Me2X (NiAs-type, hP4, P6_3/mmc, B8_1)
$
 PHASE HCP_A3 %A 2 1 0.5 !
 CONST HCP_A3 : BA : VA : !
$
$ Prototype beta-B (hR105, R-3m)
$
 PHASE BETA_RHOMBO_B % 1 1 !
 CONST BETA_RHOMBO_B : B : !
$
$ Prototype CaB6 (cP7, Pm-3m)
$
 PHASE BAB6_D21 % 2 1 6 !
 CONST BAB6_D21 : BA : B : !
$
 PHASE GAS:G % 1 1 !
 CONST GAS:G : B B2 BA BA2 : !
$ ------------------------------------------------------------------------------
$ Defaults
$
 DEFINE-SYSTEM-DEFAULT ELEMENT 2 !
 DEFAULT-COM DEFINE_SYSTEM_ELEMENT VA !
 TYPE-DEF % SEQ * !
 TYPE-DEF A GES AMEND_PHASE_DESCRIPTION @ MAGNETIC -3 0.28 !
 TYPE-DEF B GES AMEND_PHASE_DESCRIPTION @ MAGNETIC -1 0.4 !
 FUNCTION ZERO      298.15  0;                                         6000 N !
 FUNCTION UN_ASS    298.15  0;                                         6000 N !
 FUNCTION R         298.15  +8.31451;                                  6000 N !
 FUNCTION RTLNP     298.15  +8.31451*T*LN(1E-05*P);                    6000 N !
$ ------------------------------------------------------------------------------
$ Element data
$ ------------------------------------------------------------------------------
$ B
$
$ FCC_A1, HCP_A3, DIAMOND_A4 and GRAPHITE added in unary 3.0
$ BCC_A2 added in unary 4.1
$ GRAPHITE revised in unary 4.4 (using the value from COST 507)
$ FCC_A1, BCC_A2 and HCP_A3 removed in unary 5.0
$ ALPHA_RHOMBO_B added in unary 5.0
$
$ FCC_A1, BCC_A2 and HCP_A3 still in SGSOL 5.0
$ The value for FCC_A1 in COST (and SGTE) is possibly incorrect.
$
 PAR  G(BETA_RHOMBO_B,B),,              +GHSERBB;,,                   N 91Din !
$PAR  G(ALPHA_RHOMBO_B,B),,             +GALPBB;,,                    N 09SGUN !
$PAR  G(FCC_A1,B:VA),,                  +GHSERBB+43514-12.217*T;,,    N SGCOST !
$PAR  G(FCC_A1,B:VA),,                  +GHSERBB+50208-13.472*T;,,    N 94Hal !
$PAR  G(BCC_A2,B:VA),,                  +GHSERBB+43514-12.217*T;,,    N 94Hal !
$PAR  G(HCP_A3,B:VA),,                  +GHSERBB+50208-9.706*T;,,     N SGCOST !
$PAR  G(GRAPHITE_A9,B),,                +GHSERBB+10000-2*T;,,         N SGCOST !
$PAR  G(GRAPHITE_A9,B),,                +GHSERBB+5000;,,              N 96SGUN !
$PAR  G(DIAMOND_A4,B),,                 +GHSERBB+10;,,                N 99SGUN !
$PAR  G(DIAMOND_A4,B),,                 +GHSERBB+20;,,                N COST !
$PAR  G(DIAMOND_A4,B),,                 +GHSERBB;,,                   N 96SGUN !
 PAR  G(LIQUID,B),,                     +GLIQBB;,,                    N 91Din !
$
 PAR  G(GAS,B),,                        +F1389T+RTLNP;,,              N 97SUB !
 PAR  G(GAS,B2),,                       +F1921T+RTLNP;,,              N 97SUB !
$
 FUNCTION GHSERBB   298.15  -7735.284+107.111864*T-15.6641*T*LN(T)
       -0.006864515*T**2+6.18878E-07*T**3+370843*T**(-1);
      1100.00  Y  -16649.474+184.801744*T-26.6047*T*LN(T)
       -7.9809E-04*T**2-2.556E-08*T**3+1748270*T**(-1);
      2348.00  Y  -36667.582+231.336244*T-31.5957527*T*LN(T)
       -0.00159488*T**2+1.34719E-07*T**3+11205883*T**(-1);
      3000.00  Y  -21530.653+222.396264*T-31.4*T*LN(T);
      6000.00  N !
 FUNCTION GALPBB    298.15  -6076.24+86.648762*T-12.942464*T*LN(T)
       -7.089468E-3*T**2+0.659896E-6*T**3-45*T**(-1);
      1400.00  Y  +28477.506-106.789208*T+12.1072478*T*LN(T)
       -13.316875E-3*T**2+0.706895E-6*T**3-8002403*T**(-1);
      3000.00  Y  -25699.64+225.127135*T-31.4*T*LN(T);
      6000.00  N !
 FUNCTION GLIQBB    298.15  +48458.559-20.268025*T+GHSERBB;
       500.00  Y  +41119.703+82.101722*T-14.9827763*T*LN(T)
       -0.007095669*T**2+5.07347E-07*T**3+335484*T**(-1);
      2348.00  Y  +28842.012+200.94731*T-31.4*T*LN(T);
      3000.00  Y  +50372.665-21.448954*T+GHSERBB;
      6000.00  N !
 FUNCTION GFCCBB    298.15  +GHSERBB+43514-12.217*T;                   6000 N !
$ B(g)
 FUNCTION F1389T    298.15 +558741.08-13.3403636*T-20.91611*T*LN(T)
       +7.20885E-05*T**2-5.63569667E-09*T**3+4306.9065*T**(-1);
      4800.00  Y  +593321.479-80.4363028*T-13.38924*T*LN(T)
       -5.13201E-04*T**2-2.51243833E-09*T**3-26985320*T**(-1);
     10000.00  N !
$ B2(g)
 FUNCTION F1921T    298.15 +829926.969-93.2007048*T-13.63395*T*LN(T)
       -0.033960835*T**2+7.30767333E-06*T**3-67153.4*T**(-1);
       600.00  Y  +815354.412+137.902601*T-49.68482*T*LN(T)
       +0.00543292*T**2-7.11178167E-07*T**3+1030739.5*T**(-1);
      1400.00  Y  +823475.255+55.7356689*T-37.91694*T*LN(T)
       -0.001645613*T**2+5.37223333E-08*T**3+105366.3*T**(-1);
      6000.00  N !
$ ------------------------------------------------------------------------------
$ Ba
$
 PAR  G(BCC_A2,BA:VA),,                 +GHSERBA;                4000 N 91Din !
 PAR  G(HCP_A3,BA:VA),,                 +GHSERBA+2000+1.3*T;     4000 N 91Din !
 PAR  G(FCC_A1,BA:VA),,                 +GHSERBA+1800+0.6*T;     4000 N 91Din !
 PAR  G(LIQUID,BA),,                    +GLIQBA;                 4000 N 91Din !
$
 PAR  G(GAS,BA;0),,                     +F2140T+RTLNP;,,              N 97SUB !
 PAR  G(GAS,BA2;0),,                    +F2335T+RTLNP;,,              N 97SUB !
$
 FUNCTION GHSERBA   298.15  -17685.226+233.78606*T-42.889*T*LN(T)
       -0.0018314*T**2-9.5E-11*T**3+705880*T**(-1);
      1000.00  Y  -64873.614+608.188389*T-94.2824199*T*LN(T)
       +0.019504772*T**2-1.051353E-06*T**3+8220192*T**(-1);
      2995.00  Y  +8083.889+136.780042*T-32.2*T*LN(T);
      4000.00  N !
 FUNCTION GLIQBA    298.15  -9738.988+229.540143*T-43.4961089*T*LN(T)
       -0.002346416*T**2+9.91223E-07*T**3+723016*T**(-1);
      1000.00  Y  -7381.093+235.49642*T-45.103*T*LN(T)
       +0.002154*T**2+2.7E-11*T**3-365*T**(-1);
      2995.00  Y  +3856.393-4.568042*T+GHSERBA;
      4000.00  N !
$ Ba(g) :
 FUNCTION F2140T    298.15  +178685.405-28.7519074*T-21.15208*T*LN(T)
       +4.6163325E-04*T**2-1.00440133E-07*T**3+6531.67*T**(-1);
      1000.00  Y  +156541.304+187.123918*T-52.09573*T*LN(T)
       +0.019772705*T**2-2.37413833E-06*T**3+2988594.5*T**(-1);
      1900.00  Y  +444158.608-1453.56939*T+163.8061*T*LN(T)
       -0.05237755*T**2+2.155975E-06*T**3-68947450*T**(-1);
      2600.00  Y  +354853.605-1163.84325*T+129.0623*T*LN(T)
       -0.047641765*T**2+2.12269167E-06*T**3-30187880*T**(-1);
      3400.00  Y  -502647.818+1933.17624*T-252.1979*T*LN(T)
       +0.027795155*T**2-6.79449667E-07*T**3+3.319067E+08*T**(-1);
      5300.00  Y  +229718.753+82.4114532*T-35.20435*T*LN(T)
       -8.066315E-04*T**2+2.79384333E-08*T**3-1.3210115E+08*T**(-1);
      9600.00  Y  +456203.156-193.244064*T-5.828403*T*LN(T)
       -0.00239021*T**2+4.210795E-08*T**3-4.457588E+08*T**(-1);
     10000.00  N !
$ Ba2(g) :
 FUNCTION F2335T    298.15  +343727.221+33.4913114*T-51.13698*T*LN(T)
       +0.03220523*T**2-6.47438E-06*T**3-72907.6*T**(-1);
       600.00  Y  +356118.558-158.369248*T-21.31458*T*LN(T)
       +2.0490545E-04*T**2-1.36280533E-08*T**3-1040998.5*T**(-1);
      3000.00  N !
$ ------------------------------------------------------------------------------
$ Binary system
$
$ S. Shang, T. Wang, Z.-K. Liu, Calphad, 31, 286-91(2007).
$
$ Checked against paper and SGSOL Dec16c. Checked at 6000 K.
$
$ The paper also includes new expressions for alpha-B and beta-B based on
$ ab initio calculations. These are not included here.
$
$ SGSOL (Dec16c) includes alpha-B, but not gaseous Ba and B.
$
 PAR  L(LIQUID,B,BA;0),,                +ZERO;,,                      N 07Sha !
$
 PAR  G(BAB6_D21,BA:B),,                +GHSERBA+6*GHSERBB+7*GBAB6;,, N 07Sha !
$
 FUNCTION GBAB6     298.15  -39106.662-25.092558*T+3.772010*T*LN(T);
      6000.00  N !
$ ------------------------------------------------------------------------------
$
$
 LIST-OF-REFERENCE
 NUMBER  SOURCE
  Null   'Unknown source'
  REFLAV 'Laves phase convention: G(LAVES,X:X)=+3*GHSERXX+15000'
  COST   'COST 507 database'
  SGCOST 'COST 507 database, SGTE unary database V.3.0, 1996; Al, B, Nd, Ti, Zn'
  91Din  'A.T. Dinsdale, Calphad, 15, 317-425(1991).'
  94Hal  'B. Hallemans, P. Wollants, J.R. Roos,
          Z. Metallkd., 85, 676-82(1994), SGTE unary database V.4.1, 1999; B'
  96SGUN 'SGTE unary database V.3.0, 1996.'
  97SUB  'SGTE substance database, version 1997'
  99SGUN 'SGTE unary database V.4.1, 1999.'
  07Sha  'S. Shang, T. Wang, Z.-K. Liu, Calphad, 31, 286-91(2007); Ba-B'
  09SGUN 'SGTE unary database V.5.0, 2009.'
!
