$
$ Database for Fe-Ga from P.E.A. Turchi et al. 2004.
$
$ P.E.A. Turchi, L. Kaufman, Z.-K. Liu, S. Zhou,
$ LLNL Report, UCRL-TR-206658, 2004.
$
$ Dataset created 2022.04.24 by Bengt Hallstedt.
$
$ The modelling is rather simplified. A2-B2 order-disorder is not modelled.
$ L1_2, D0_3 and D0_19 are modelled as Fe3Ga.
$
$ ------------------------------------------------------------------------------
 TEMP-LIM 298.15 6000.00 !
$
$ELEMENT NAME  REF. STATE               ATOMIC MASS H298-H0    S298    !
$
 ELEMENT VA   VACUUM                      0.0          0.0      0.0    ! 
 ELEMENT FE   BCC_A2                     55.847     4489.0     27.2797 ! 
 ELEMENT GA   ORTHORHOMBIC_A11           69.72      5572.0     40.7271 ! 
$ ------------------------------------------------------------------------------
$ Phase definitions
$
 PHASE LIQUID:L % 1 1 !
 CONST LIQUID:L : FE GA : !
$
$ Fcc (cF4, Fm-3m) and MeX (cF8, Fm-3m)
$
 PHASE FCC_A1 %A 2 1 1 !
 CONST FCC_A1 : FE% GA : VA : !
$
$ Bcc (cI2, Im-3m)
$
 PHASE BCC_A2 %B 2 1 3 !
 CONST BCC_A2 : FE% GA : VA : !
$
$ Hcp (hP2, P6_3/mmc) and Me2X (NiAs-type, hP4, P6_3/mmc, B8_1)
$
 PHASE HCP_A3 %A 2 1 0.5 !
 CONST HCP_A3 : FE GA : VA : !
$
$ alpha-Ga (oC8, Cmce)
$
 PHASE ORTHORHOMBIC_A11 % 1 1 !
 CONST ORTHORHOMBIC_A11 : GA : !
$
$ Prototype AuCu3 (cP4, Pm-3m), L1_2, low T
$ Prototype CdMg3 (hP8, P6_3/mmc), D0_19, high T
$ Prototype BiF3 (cF16, Fm-3m), D0_3, high T Fe-rich
$
 PHASE FE3GA % 2 3 1 !
 CONST FE3GA : FE : GA : !
$
$ Prototype Fe6Ga5 (mC44, C2/m), low T
$ Prototype GaMn (hR26, R-3m), high T
$
 PHASE FE6GA5 % 2 6 5 !
 CONST FE6GA5 : FE : GA : !
$
$ Prototype Fe3Ga4 (mC42, C2/m)
$
 PHASE FE3GA4 % 2 3 4 !
 CONST FE3GA4 : FE : GA : !
$
$ Prototype In3Ir (tP16, P4_2/mnm)
$
 PHASE FEGA3 % 2 1 3 !
 CONST FEGA3 : FE : GA : !
$ ------------------------------------------------------------------------------
$ Defaults
$
 DEFINE-SYSTEM-DEFAULT ELEMENT 2 !
 DEFAULT-COM DEFINE_SYSTEM_ELEMENT VA !
 TYPE-DEF % SEQ * !
 TYPE-DEF A GES AMEND_PHASE_DESCRIPTION @ MAGNETIC -3 0.28 !
 TYPE-DEF B GES AMEND_PHASE_DESCRIPTION @ MAGNETIC -1 0.4 !
 FUNCTION ZERO      298.15  0;                                         6000 N !
 FUNCTION UN_ASS    298.15  0;                                         6000 N !
 FUNCTION R         298.15  +8.31451;                                  6000 N !
$ ------------------------------------------------------------------------------
$ Element data
$ ------------------------------------------------------------------------------
$ Fe
$
$ ORTHORHOMBIC_A20 and TETRAGONAL_U added im unary 4.1
$
 PAR  G(BCC_A2,FE:VA),,                 +GHSERFE;,,                   N 91Din !
 PAR  TC(BCC_A2,FE:VA),,                 1043.00;,,                   N 91Din !
 PAR  BM(BCC_A2,FE:VA),,                    2.22;,,                   N 91Din !
 PAR  G(FCC_A1,FE:VA),,                 +GFCCFE;,,                    N 91Din !
 PAR  TC(FCC_A1,FE:VA),,                 -201.00;,,                   N 91Din !
 PAR  BM(FCC_A1,FE:VA),,                   -2.10;,,                   N 91Din !
 PAR  G(HCP_A3,FE:VA),,                 +GHCPFE;,,                    N 91Din !
$PAR  G(CBCC_A12,FE:VA),,               +GHSERFE+4745;,,              N 91Din !
$PAR  G(CUB_A13,FE:VA),,                +GHSERFE+3745;,,              N 91Din !
$PAR  G(ORTHORHOMBIC_A20,FE),,          +GHSERFE+5000;,,              N 99SGUN !
$PAR  G(TETRAGONAL_U,FE),,              +GHSERFE+5000;,,              N 99SGUN !
 PAR  G(LIQUID,FE),,                    +GLIQFE;,,                    N 91Din !
$
 FUNCTION GHSERFE   298.15  +1225.7+124.134*T-23.5143*T*LN(T)
       -0.00439752*T**2-5.8927E-08*T**3+77359*T**(-1);
      1811.00  Y  -25383.581+299.31255*T-46*T*LN(T)+2.29603E+31*T**(-9);
      6000.00  N !
 FUNCTION GFCCFE    298.15  -1462.4+8.282*T-1.15*T*LN(T)
       +6.4E-04*T**2+GHSERFE;
      1811.00  Y  -1713.815+0.940009*T+GHSERFE+4.9251E+30*T**(-9);
      6000.00  N !
 FUNCTION GHCPFE    298.15  -3705.78+12.591*T-1.15*T*LN(T)
       +6.4E-04*T**2+GHSERFE;
      1811.00  Y  -3957.195+5.249009*T+GHSERFE+4.9251E+30*T**(-9);
      6000.00  N !
 FUNCTION GLIQFE    298.15  +12040.17-6.55843*T+GHSERFE-3.67516E-21*T**7;
      1811.00  Y  -10838.83+291.302*T-46*T*LN(T);
      6000.00  N !
$ ------------------------------------------------------------------------------
$ Ga
$
$ DIAMOND_A4 added in unary 5.0
$
$ Changed name from ORTHORHOMBIC_GA to ORTHORHOMBIC_A11
$
 PAR  G(ORTHORHOMBIC_A11,GA)    200.00  +GHSERGA;                4000 N 91Din !
 PAR  G(FCC_A1,GA:VA)           200.00  +GHSERGA+3800-10.2*T;    4000 N 91Din !
 PAR  G(BCC_A2,GA:VA)           200.00  +GHSERGA+4500-11.7*T;    4000 N 91Din !
 PAR  G(HCP_A3,GA:VA)           200.00  +GHSERGA+4500-9.5*T;     4000 N 91Din !
$PAR  G(DIAMOND_A4,GA)          200.00  +GHSERGA+20900-2*T;      4000 N 09SGUN !
$PAR  G(BCT_A5,GA)              200.00  +GHSERGA+3846-9.8*T;     4000 N 91Din !
$PAR  G(TETRAGONAL_A6,GA)       200.00  +GHSERGA+3500-10*T;      4000 N 91Din !
 PAR  G(LIQUID,GA)              200.00  +GLIQGA;                 4000 N 91Din !
$
 FUNCTION GHSERGA   200.00  -21312.331+585.263691*T-108.228783*T*LN(T)
       +0.227155636*T**2-1.18575257E-04*T**3+439954*T**(-1);
       302.91  Y  -7055.643+132.73019*T-26.0692906*T*LN(T)
       +1.506E-04*T**2-4.0173E-08*T**3-118332*T**(-1)+1.64547E+23*T**(-9);
      4000.00  N !
 FUNCTION GLIQGA    200.00  +5491.298-18.073995*T+GHSERGA-7.0171E-17*T**7;
       302.91  Y  +5666.455-18.681147*T+GHSERGA-1.64547E+23*T**(-9);
      4000.00  N !
 FUNCTION GFCCGA    200.00  +GHSERGA+3800-10.2*T;                      4000 N !
 FUNCTION GBCCGA    200.00  +GHSERGA+4500-11.7*T;                      4000 N !
$ ------------------------------------------------------------------------------
$ Binary system
$
$ P.E.A. Turchi, L. Kaufman, Z.-K. Liu, S. Zhou,
$ LLNL Report, UCRL-TR-206658, 2004.
$
$ Checked against paper. Checked at 6000 K.
$
$ The modelling is rather simplified. A2-B2 order-disorder is not modelled.
$ L1_2, D0_3 and D0_19 are modelled as Fe3Ga.
$
 PAR  L(LIQUID,FE,GA;0),,               -92000+18*T;,,                N 04Tur !
 PAR  L(LIQUID,FE,GA;1),,               -10000+3*T;,,                 N 04Tur !
$
 PAR  L(FCC_A1,FE,GA:VA;0),,            -100500+28*T;,,               N 04Tur !
 PAR  L(FCC_A1,FE,GA:VA;1),,            +21000-24*T;,,                N 04Tur !
$
 PAR  L(BCC_A2,FE,GA:VA;0),,            -112000+28*T;,,               N 04Tur !
 PAR  L(BCC_A2,FE,GA:VA;1),,            +31000-24*T;,,                N 04Tur !
$
 PAR  G(FE3GA,FE:GA),,                  +3*GHSERFE+GHSERGA
             -100400+14.8*T;,,                                        N 04Tur !
 PAR  G(FE6GA5,FE:GA),,                 +6*GHSERFE+5*GHSERGA
             -368500+36.3*T;,,                                        N 04Tur !
 PAR  G(FE3GA4,FE:GA),,                 +3*GHSERFE+4*GHSERGA
             -245000+18.9*T;,,                                        N 04Tur !
 PAR  G(FEGA3,FE:GA),,                  +GHSERFE+3*GHSERGA
             -112000+0.4*T;,,                                         N 04Tur !
$
$ Metastable
$
 PAR  L(HCP_A3,FE,GA:VA;0),,            -100500+28*T;,,               N Same !
 PAR  L(HCP_A3,FE,GA:VA;1),,            +21000-24*T;,,                N Same !
$ ------------------------------------------------------------------------------
$
$
 LIST-OF-REFERENCE
 NUMBER  SOURCE
  Null   'Unknown source'
  Same   'Same or similar interaction as in the corresponding stable phase'
  REFLAV 'Laves phase convention: G(LAVES,X:X)=+3*GHSERXX+15000'
  91Din  'A.T. Dinsdale, Calphad, 15, 317-425(1991).'
  99SGUN 'SGTE unary database V.4.1, 1999.'
  04Tur  'P.E.A. Turchi, L. Kaufman, Z.-K. Liu, S. Zhou,
          LLNL Report, UCRL-TR-206658, 2004; Fe-Ga'
  09SGUN 'SGTE unary database V.5.0, 2009.'
!
