$
$ Database for Au-Pb from J. Wang et al. 2004 (Included in LB Vol. 5)
$
$ J. Wang, H.S. Liu, Z.P. Jin, Calphad, 28, 91-95(2004).
$
$ Dataset created 2013.08.04 by Bengt Hallstedt.
$ 2020.12.22: Modified for use with GES6.
$
$ Rounding errors when changing from fractional stoichiometries cause
$ differences in invariant equilibria by up to 0.2 K, except for the
$ AuPb2 + AuPb3 + fcc-Pb equilibrium, which changes by 3.2 K compared to LB
$ and 0.8 K compared to the paper. I.e. the number of decimals used for
$ the composition of Au2Pb and AuPb2 is less in LB than in the paper.
$
$ ------------------------------------------------------------------------------
 TEMP-LIM 298.15 6000.00 !
$
$ELEMENT NAME  REF. STATE               ATOMIC MASS H298-H0    S298    !
$
 ELEMENT VA   VACUUM                      0.0          0.0      0.0    ! 
 ELEMENT AU   FCC_A1                    196.9665    6016.592   47.4884 ! 
 ELEMENT PB   FCC_A1                    207.2       6870.      64.80   ! 
$ ------------------------------------------------------------------------------
$ Phase definitions
$
 PHASE LIQUID:L % 1 1 !
 CONST LIQUID:L : AU PB : !
$
$ Fcc (cF4) and MeX (cF8)
$
 PHASE FCC_A1 %A 2 1 1 !
 CONST FCC_A1 : AU% PB% : VA : !
$
$ Bcc (cI2, Im-3m)
$
 PHASE BCC_A2 %B 2 1 3 !
 CONST BCC_A2 : AU PB : VA : !
$
$ Hcp (hP2, P6_3/mmc) and Me2X (NiAs-type, hP4, P6_3/mmc, B8_1)
$
 PHASE HCP_A3 %A 2 1 0.5 !
 CONST HCP_A3 : AU PB : VA : !
$
$ Prototype Cu2Mg (cF24, Fd-3m)
$
 PHASE AU2PB_C15 % 2 2 1 !
 CONST AU2PB_C15 : AU : PB : !
$
$ Prototype Al2Cu (tI12, I4/mcm)
$
 PHASE AUPB2_C16 % 2 1 2 !
 CONST AUPB2_C16 : AU : PB : !
$
$ Prototype alpha-V3S (tI32, I-42m)
$
 PHASE AUPB3 % 2 1 3 !
 CONST AUPB3 : AU : PB : !
$ ------------------------------------------------------------------------------
$ Defaults
$
 DEFINE-SYSTEM-DEFAULT ELEMENT 2 !
 DEFAULT-COM DEFINE_SYSTEM_ELEMENT VA !
 TYPE-DEF % SEQ * !
 TYPE-DEF A GES AMEND_PHASE_DESCRIPTION @ MAGNETIC -3 0.28 !
 TYPE-DEF B GES AMEND_PHASE_DESCRIPTION @ MAGNETIC -1 0.4 !
 FUNCTION ZERO      298.15  0;                                         6000 N !
 FUNCTION UN_ASS    298.15  0;                                         6000 N !
 FUNCTION R         298.15  +8.31451;                                  6000 N !
$ ------------------------------------------------------------------------------
$ Element data
$ ------------------------------------------------------------------------------
$ Au
$
$ DHCP added in unary 5.0
$
$ DHCP replaced by the value from 92Ans in SGSOL 5.0
$
$ The DHCP phase is labelled D0_24 in 03Liu and alpha-prime in 92Ans. The
$ phase is present between the fcc and hcp phases in the Au-Sn and Au-In
$ systems. The value for DHCP from 92Ans was used to model these systems,
$ thus this value must be included in the unary database and not the 04Du
$ value.
$
 PAR  G(FCC_A1,AU:VA),,                 +GHSERAU;                3200 N 91Din !
 PAR  G(HCP_A3,AU:VA),,                 +GHSERAU+240.75+1.6*T;   3200 N 91Din !
 PAR  G(BCC_A2,AU:VA),,                 +GHSERAU+4250-1.1*T;     3200 N 91Din !
$PAR  G(DHCP,AU),,                      +GHSERAU+125+0.79*T;     3200 N 92Ans !
$PAR  G(DHCP,AU),,                      +GHSERAU+5000;           3200 N 04Du !
 PAR  G(LIQUID,AU),,                    +GHSERAU
             +12552-9.385866*T;                                  3200 N 91Din !
$
 FUNCTION GHSERAU   298.15  -6938.856+106.830098*T-22.75455*T*LN(T)
       -0.00385924*T**2+3.79625E-07*T**3-25097*T**(-1);
       929.40  Y  -93586.481+1021.69543*T-155.706745*T*LN(T)
       +0.08756015*T**2-1.1518713E-05*T**3+10637210*T**(-1);
      1337.33  Y  +314067.829-2016.37825*T+263.252259*T*LN(T)
       -0.118216828*T**2+8.923844E-06*T**3-67999832*T**(-1);
      1735.80  Y  -12133.783+165.272524*T-30.9616*T*LN(T);
      3200.00  N !
$ ------------------------------------------------------------------------------
$ Pb
$
$ RHOMBOHEDRAL_A7 and TETRAGONAL_A6 added in unary 3.0
$ RHOMBOHEDRAL_A7, TETRAGONAL_A6 and TET_ALPHA1_A6 revised in unary 4.1
$ RHOMBO_A10 added in unary 5.0
$
 PAR  G(FCC_A1,PB:VA),,                 +GHSERPB;                2100 N 91Din !
 PAR  G(BCC_A2,PB:VA),,                 +GHSERPB+2400-1.1*T;     2100 N 91Din !
 PAR  G(HCP_A3,PB:VA),,                 +GHSERPB+300+T;          2100 N 91Din !
$PAR  G(BCT_A5,PB),,                    +GHSERPB+489+3.52*T;     2100 N 91Din !
$PAR  G(TETRAGONAL_A6,PB),,             +GHSERPB+4493.235;       2100 N 98Boa !
$PAR  G(TETRAGONAL_A6,PB),,             +GHSERPB+473.23+3.5531*T
$            -0.0396834*T*LN(T)+2.1489E-05*T**2;                 2100 N 96SGUN !
$PAR  G(TET_ALPHA1_A6,PB),,             +GHSERPB
$            +1903.3-2.0602*T;                                   2100 N 98Boa !
$PAR  G(TET_ALPHA1_A6,PB),,             +GHSERPB+183.2+0.45314*T
$            -0.0396834*T*LN(T)+2.149E-06*T**2;                  2100 N 91Din !
$PAR  G(RHOMBOHEDRAL_A7,PB),,           +GHSERPB+300+T;          2100 N 99SGUN !
$PAR  G(RHOMBOHEDRAL_A7,PB),,           +GHSERPB+4900+3.52*T;    2100 N 96SGUN !
$PAR  G(RHOMBO_A10,PB),,                +GHSERPB+10;             2100 N 09SGUN !
 PAR  G(LIQUID,PB),,                    +GLIQPB;                 2100 N 91Din !
$
 FUNCTION GHSERPB   298.15  -7650.085+101.700244*T-24.5242231*T*LN(T)
       -0.00365895*T**2-2.4395E-07*T**3;
       600.61  Y  -10531.095+154.243182*T-32.4913959*T*LN(T)
       +0.00154613*T**2+8.05448E+25*T**(-9);
      1200.00  Y  +4157.616+53.139072*T-18.9640637*T*LN(T)
       -0.002882943*T**2+9.8144E-08*T**3-2696755*T**(-1)+8.05448E+25*T**(-9);
      2100.00  N !
 FUNCTION GLIQPB    298.15  +4672.124-7.750683*T+GHSERPB-6.019E-19*T**7;
       600.61  Y  +4853.137-8.067136*T+GHSERPB-8.05448E+25*T**(-9);
      2100.00  N !
$ ------------------------------------------------------------------------------
$ Binary system
$
$ From J. Wang et al. 2004 (Included in LB Vol. 5)
$
$ J. Wang, H.S. Liu, Z.P. Jin, Calphad, 28, 91-95(2004).
$
$ Checked against LB and paper. Checked at 6000 K.
$
$ Rounding errors when changing from fractional stoichiometries cause
$ differences in invariant equilibria by up to 0.2 K, except for the
$ AuPb2 + AuPb3 + fcc-Pb equilibrium, which changes by 3.2 K compared to LB
$ and 0.8 K compared to the paper. I.e. the number of decimals used for
$ the composition of Au2Pb and AuPb2 is less in LB than in the paper.
$
 PAR  L(LIQUID,AU,PB;0),,               -17577.988+105.97303*T
             -14.435179*T*LN(T);,,                                    N 04Wan !
 PAR  L(LIQUID,AU,PB;1),,               +2673.2826-5.379358*T;,,      N 04Wan !
$
 PAR  L(FCC_A1,AU,PB:VA;0),,            +30000;,,                     N 04Wan !
$
 PAR  G(AU2PB_C15,AU:PB),,              +2*GHSERAU+GHSERPB
             -9030+1.5*T;,,                                           N 04Wan !
 PAR  G(AUPB2_C16,AU:PB),,              +GHSERAU+2*GHSERPB
             -8400+4.35*T;,,                                          N 04Wan !
 PAR  G(AUPB3,AU:PB),,                  +GHSERAU+3*GHSERPB
             -7600+2.24*T;,,                                          N 04Wan !
$
$ Metastable
$
 PAR  L(BCC_A2,AU,PB:VA;0),,            +30000;,,                     N Same !
 PAR  L(HCP_A3,AU,PB:VA;0),,            +30000;,,                     N Same !
$ ------------------------------------------------------------------------------
$
 ASSESSED_SYSTEM
  AU-PB(TDB -* +LIQ +FCC_A1 +AU2PB_C15 +AUPB2_C16 +AUPB3
  ;P3 TMM:300/1500 STP:.9/1000) !
$
$
 LIST-OF-REFERENCE
 NUMBER  SOURCE
  Null   'Unknown source'
  Same   'Same or similar interaction as in the corresponding stable phase'
  COST   'COST 507 database'
  91Din  'A.T. Dinsdale, Calphad, 15, 317-425(1991).'
  92Ans  'I. Ansara, J.-Ph. Nabot, Calphad, 16, 13-18(1992); Au'
  96SGUN 'SGTE unary database V.3.0, 1996.'
  98Boa  'D. Boa, I. Ansara, Thermochim. Acta, 314, 79-86(1998),
          SGTE unary database V.4.1, 1999; In, Pb'
  99SGUN 'SGTE unary database V.4.1, 1999.'
  04Du   'Z. Du, C. Guo, D. Lu, J. Alloys Compd., 364, 117-20(2004),
          SGTE unary database V.5.0, 2009; Au'
  04Wan  'J. Wang, H.S. Liu, Z.P. Jin, Calphad, 28, 91-95(2004); Au-Pb'
  09SGUN 'SGTE unary database V.5.0, 2009.'
!
