$
$ Database for Mg-Tm from Z. Du et al. 2004 (included in LB Vol. 5)
$
$ Z. Du, H. Liu, G. Ling, J. Alloys Compd., 373, 151-55(2004).
$
$ Dataset created 2010.09.26 by Bengt Hallstedt.
$ 2021.01.24: Modified for use with GES6.
$
$ ------------------------------------------------------------------------------
 TEMP-LIM 298.15 6000.00 !
$
$ELEMENT NAME  REF. STATE               ATOMIC MASS H298-H0    S298    !
$
 ELEMENT VA   VACUUM                      0.0          0.0      0.0    ! 
 ELEMENT MG   HCP_A3                     24.305     4998.      32.671  !
 ELEMENT TM   HCP_A3                    168.9342    7397.312   74.01496! 
$ ------------------------------------------------------------------------------
$ Phase definitions
$
 PHASE LIQUID:L % 1 1 !
 CONST LIQUID:L : MG TM : !
$
$ Fcc (cF4, Fm-3m) and MeX (cF8, Fm-3m)
$
 PHASE FCC_A1 %A 2 1 1 !
 CONST FCC_A1 : MG : VA : !
$
$ Bcc (cI2, Im-3m)
$
 PHASE BCC_A2 %B 2 1 3 !
 CONST BCC_A2 : MG TM : VA : !
$
$ Hcp (hP2, P6_3/mmc) and Me2X (NiAs-type, hP4, P6_3/mmc, B8_1)
$
 PHASE HCP_A3 %A 2 1 0.5 !
 CONST HCP_A3 : MG TM : VA : !
$
$ Prototype alpha-Mn (cI58, I-43m)
$ Pauling file lists Re24Ti5 as prototype
$
 PHASE MG24TM5_A12 % 2 24 5 !
 CONST MG24TM5_A12 : MG : TM : !
$
$ Prototype MgZn2 (hP12, P6_3/mmc)
$
 PHASE MG2TM_C14 % 2 2 1 !
 CONST MG2TM_C14 : MG : TM : !
$
$ Prototype CsCl (cP2, Pm-3m)
$
 PHASE MGTM_B2 % 2 1 1 !
 CONST MGTM_B2 : MG% VA : MG TM% : !
$ ------------------------------------------------------------------------------
$ Defaults
$
 DEFINE-SYSTEM-DEFAULT ELEMENT 2 !
 DEFAULT-COM DEFINE_SYSTEM_ELEMENT VA !
 TYPE-DEF % SEQ * !
 TYPE-DEF A GES AMEND_PHASE_DESCRIPTION @ MAGNETIC -3 0.28 !
 TYPE-DEF B GES AMEND_PHASE_DESCRIPTION @ MAGNETIC -1 0.4 !
 FUNCTION ZERO      298.15  0;                                         6000 N !
 FUNCTION UN_ASS    298.15  0;                                         6000 N !
 FUNCTION R         298.15  +8.31451;                                  6000 N !
$ ------------------------------------------------------------------------------
$ Element data
$ ------------------------------------------------------------------------------
$ Mg
$
 PAR  G(FCC_A1,MG:VA),,                 +GHSERMG+2600-0.9*T;     3000 N 91Din !
 PAR  G(BCC_A2,MG:VA),,                 +GHSERMG+3100-2.1*T;     3000 N 91Din !
 PAR  G(HCP_A3,MG:VA),,                 +GHSERMG;                3000 N 91Din !
$PAR  G(CBCC_A12,MG:VA),,               +GHSERMG
$            +4602.4-3.011*T;                                    3000 N 91Din !
$PAR  G(CUB_A13,MG:VA),,                +GHSERMG+5000-3*T;       3000 N 91Din !
 PAR  G(LIQUID,MG),,                    +GLIQMG;                 3000 N 91Din !
$
 PAR  G(MGTM_B2,MG:MG),,                +2*GBCCMG;,,                  N 04Du !
 PAR  G(MGTM_B2,VA:MG),,                +GHSERMG+5000;,,              N 04Du !
$
 FUNCTION GHSERMG   298.15  -8367.34+143.675547*T-26.1849782*T*LN(T)
       +4.858E-04*T**2-1.393669E-06*T**3+78950*T**(-1);
       923.00  Y  -14130.185+204.716215*T-34.3088*T*LN(T)+1.038192E+28*T**(-9);
      3000.00  N !
 FUNCTION GLIQMG    298.15  +8202.243-8.83693*T+GHSERMG-8.0176E-20*T**7;
       923.00  Y  -5439.869+195.324057*T-34.3088*T*LN(T);
      3000.00  N !
 FUNCTION GBCCMG    298.15  +GHSERMG+3100-2.1*T;                       3000 N !
$ ------------------------------------------------------------------------------
$ Tm
$
$ BCC_A2 from 04Du not included in unary
$
 PAR  G(HCP_A3,TM:VA),,                 +GHSERTM;                2300 N 91Din !
 PAR  G(BCC_A2,TM:VA),,                 +GHSERTM+5000;           2300 N 04Du !
 PAR  G(LIQUID,TM),,                    +GLIQTM;                 2300 N 91Din !
$
 PAR  G(MGTM_B2,VA:TM),,                +GHSERTM+5000;,,              N 04Du !
$
 FUNCTION GHSERTM   298.15  -10016.715+151.037648*T-34.3664974*T*LN(T)
       +0.012110965*T**2-3.831156E-06*T**3+95982*T**(-1);
       700.00  Y  -14701.965+147.957496*T-32.1951269*T*LN(T)
       +4.44753E-04*T**2-3.96694E-07*T**3+1091664*T**(-1);
      1600.00  Y  -8669.227+97.98144*T-25.1816969*T*LN(T)-0.003384563*T**2;
      1818.00  Y  +727125.608-4147.40063*T+534.082763*T*LN(T)
       -0.19093039*T**2+1.1689185E-05*T**3-1.8038222E+08*T**(-1);
      2300.00  N !
 FUNCTION GLIQTM    298.15  +13199.249-6.557671*T+GHSERTM;
       600.00  Y  +22640.028-126.738485*T+6.8744933*T*LN(T)
       -0.025487085*T**2+2.288172E-06*T**3-1585412*T**(-1);
      1818.00  Y  -10090.305+214.184413*T-41.37976*T*LN(T);
      2300.00  N !
$ ------------------------------------------------------------------------------
$ Binary system
$
$ From Z. Du et al. 2004 (included in LB Vol. 5)
$
$ Z. Du, H. Liu, G. Ling, J. Alloys Compd., 373, 151-55(2004).
$
$ Checked against LB and paper. Checked at 6000 K.
$
 PAR  L(LIQUID,MG,TM;0),,               -10189.8+0.4816*T;,,          N 04Du !
 PAR  L(LIQUID,MG,TM;1),,               -10170.7+3.7747*T;,,          N 04Du !
$
 PAR  L(BCC_A2,MG,TM:VA;0),,            -13419.5-0.4114*T;,,          N 04Du !
 PAR  L(BCC_A2,MG,TM:VA;1),,            +12002.3+3.1397*T;,,          N 04Du !
$
 PAR  L(HCP_A3,MG,TM:VA;0),,            +31550.2-22.4156*T;,,         N 04Du !
 PAR  L(HCP_A3,MG,TM:VA;1),,            +30249.5-24.6832*T;,,         N 04Du !
 PAR  L(HCP_A3,MG,TM:VA;2),,            -57025.8+37.5596*T;,,         N 04Du !
$
 PAR  G(MGTM_B2,MG:TM),,                +GHSERMG+GHSERTM
             -19596.6+7.1138*T;,,                                     N 04Du !
 PAR  L(MGTM_B2,MG,VA:MG;0),,           -4765.8+19.2605*T;,,          N 04Du !
 PAR  L(MGTM_B2,MG,VA:TM;0),,           -4765.8+19.2605*T;,,          N 04Du !
 PAR  L(MGTM_B2,MG:MG,TM;0),,           -15482.4+27.1264*T;,,         N 04Du !
 PAR  L(MGTM_B2,VA:MG,TM;0),,           -15482.4+27.1264*T;,,         N 04Du !
$
 PAR  G(MG24TM5_A12,MG:TM),,            +24*GHSERMG+5*GHSERTM
             -145383.6+47.0748*T;,,                                   N 04Du !
 PAR  G(MG2TM_C14,MG:TM),,              +2*GHSERMG+GHSERTM
             -28324.8+12.5275*T;,,                                    N 04Du !
$ ------------------------------------------------------------------------------
$
 ASSESSED_SYSTEM
   MG-TM(TDB -* +LIQUID +HCP_A3 +BCC_A2 +MGTM_B2 +MG24TM5_A12 +MG2TM_C14
   ;P3 *) !
$
$
 LIST-OF-REFERENCE
 NUMBER  SOURCE
  Null   'Unknown source'
  COST   'COST 507 database'
  91Din  'A.T. Dinsdale, Calphad, 15, 317-425(1991).'
  04Du   'Z. Du, H. Liu, G. Ling,
          J. Alloys Compd., 373, 151-55(2004); Tm, Mg-Tm'
!
