$
$ Database for Gd-Si from M. Huang et al. 2007
$
$ M. Huang, D.L. Schlagel, F.A. Schmidt, T.A. Lograsso,
$ J. Alloys Compd., 441, 94-100(2007).
$
$ Dataset created 2010.10.10 by Bengt Hallstedt.
$ 2021.01.03: Modified for use with GES6.
$
$ There are differences up to a few K in the invariant temperatures,
$ probably because old data were used for Gd in the paper.
$
$ There is an inverse miscibility gap with a minimum at 4429 K and x(Si)=0.77.
$
$ ------------------------------------------------------------------------------
 TEMP-LIM 298.15 6000.00 !
$
$ELEMENT NAME  REF. STATE               ATOMIC MASS H298-H0    S298    !
$
 ELEMENT VA   VACUUM                      0.0          0.0      0.0    ! 
 ELEMENT GD   HCP_A3                    157.25      9087.648   68.0894 ! 
 ELEMENT SI   DIAMOND_A4                 28.0855    3217.      18.81   ! 
$ ------------------------------------------------------------------------------
$ Phase definitions
$
 PHASE LIQUID:L % 1 1 !
 CONST LIQUID:L : GD SI : !
$
$ Fcc (cF4, Fm-3m) and MeX (cF8, Fm-3m)
$
 PHASE FCC_A1 %A 2 1 1 !
 CONST FCC_A1 : GD SI : VA : !
$
$ Bcc (cI2, Im-3m)
$
 PHASE BCC_A2 %B 2 1 3 !
 CONST BCC_A2 : GD% SI : VA : !
$
$ Hcp (hP2, P6_3/mmc) and Me2X (NiAs-type, hP4, P6_3/mmc, B8_1)
$
 PHASE HCP_A3 %A 2 1 0.5 !
 CONST HCP_A3 : GD% SI : VA: !
$
$ Prototype C (cF8, Fd-3m)
$
 PHASE DIAMOND_A4 % 1 1 !
 CONST DIAMOND_A4 : SI : !
$
$ Prototype Mn5Si3 (hP16, P6_3/mcm)
$
 PHASE GD5SI3_D88 % 2 5 3 !
 CONST GD5SI3_D88 : GD : SI : !
$
$ Prototype Ge4Sm5 (oP36, Pnma)
$
 PHASE GD5SI4 % 2 5 4 !
 CONST GD5SI4 : GD : SI : !
$
$ Prototype FeB (oP8, Pnma)
$
 PHASE GDSI_B27 % 2 1 1 !
 CONST GDSI_B27 : GD : SI : !
$
$ Prototype AlB2 (hP3, P6/mmm)
$
 PHASE GD3SI5_C32 % 2 3 5 !
 CONST GD3SI5_C32 : GD : SI : !
$
$ Prototype Si2Th (tI12, I4_1/amd) and GdSi1.4 ? (oI12, Imma)
$
 PHASE GDSI2 % 2 1 2 !
 CONST GDSI2 : GD : SI : !
$ ------------------------------------------------------------------------------
$ Defaults
$
 DEFINE-SYSTEM-DEFAULT ELEMENT 2 !
 DEFAULT-COM DEFINE_SYSTEM_ELEMENT VA !
 TYPE-DEF % SEQ * !
 TYPE_DEF A GES AMEND_PHASE_DESCRIPTION @ MAGNETIC -3 0.28 !
 TYPE_DEF B GES AMEND_PHASE_DESCRIPTION @ MAGNETIC -1 0.4 !
 FUNCTION ZERO      298.15  0;                                         6000 N !
 FUNCTION UN_ASS    298.15  0;                                         6000 N !
 FUNCTION R         298.15  +8.31451;                                  6000 N !
$ ------------------------------------------------------------------------------
$ Element data
$ ------------------------------------------------------------------------------
$ Gd
$
$ HCP_A3, BCC_A2 and LIQUID revised in unary 3.0
$ Small correction made to top two temperature ranges of bcc_A2 to ensure 
$ continuity in Gibbs energy, AD, Dec 2002
$ FCC_A1 added in unary 4.4
$
 PAR  G(HCP_A3,GD:VA)           200.00  +GHSERGD;                3600 N 95She2 !
 PAR  TC(HCP_A3,GD:VA)          200.00    293.4;                 3600 N 95She2 !
 PAR  BMAGN(HCP_A3,GD:VA)       200.00      3.0;                 3600 N 95She2 !
$PAR  TC(HCP_A3,GD:VA)          200.00    291.8;                 3600 N 91Din !
$PAR  BMAGN(HCP_A3,GD:VA)       200.00      3.0;                 3600 N 91Din !
 PAR  G(FCC_A1,GD:VA)           200.00  +GHSERGD+500;            3600 N 00Zin !
 PAR  G(BCC_A2,GD:VA)           200.00  +GBCCGD;                 3600 N 95She2 !
 PAR  G(LIQUID,GD)              200.00  +GLIQGD;                 3600 N 95She2 !
$
 FUNCTION GHSERGD   200.00  -6834.5855+97.13101*T-24.7214131*T*LN(T)
       -0.00285240521*T**2-3.14674076E-07*T**3-8665.73348*T**(-1);
      1000.00  Y  -6483.25362+95.6919924*T-24.6598297*T*LN(T)
       -0.00185225011*T**2-6.61211607E-07*T**3;
      1508.15  Y  -123124.992+699.125537*T-101.800197*T*LN(T)
       +0.0150644246*T**2-6.39165948E-07*T**3+29356890.3*T**(-1);
      3600.00  N !
 FUNCTION GBCCGD    200.00  +3233.80866-2.11184585*T+GHSERGD;
      1000.00  Y  +152792.743-1349.58873*T+180.097094*T*LN(T)
       -0.119550229*T**2+1.17915728E-05*T**3-22038836*T**(-1);
      1508.15  Y  -15783.7618+202.222183*T-38.960425*T*LN(T);
      1586.15  Y  -19850.5562+224.818035*T-41.904333*T*LN(T)
       +8.58222759E-04*T**2-3.77570269E-08*T**3+995428.573*T**(-1);
      3600.00  N !
 FUNCTION GLIQGD    200.00  +13060.0262-8.32179974*T+GHSERGD;
      1000.00  Y  +146262.037-1208.70685*T+159.352082*T*LN(T)
       -0.108247135*T**2+1.06945505E-05*T**3-19678357*T**(-1);
      1508.15  Y  -5397.314+192.336215*T-38.5075*T*LN(T);
      3600.00  N !
$ ------------------------------------------------------------------------------
$ Si
$
 PAR  G(DIAMOND_A4,SI),,                +GHSERSI;                3600 N 91Din !
 PAR  G(FCC_A1,SI:VA),,                 +GHSERSI+51000-21.8*T;   3600 N 91Din !
 PAR  G(BCC_A2,SI:VA),,                 +GHSERSI+47000-22.5*T;   3600 N 91Din !
 PAR  G(HCP_A3,SI:VA),,                 +GHSERSI+49200-20.8*T;   3600 N 91Din !
$PAR  G(CBCC_A12,SI:VA),,               +GHSERSI+50208-20.377*T; 3600 N 91Din !
$PAR  G(CUB_A13,SI:VA),,                +GHSERSI+47279-20.377*T; 3600 N 91Din !
 PAR  G(LIQUID,SI),,                    +GLIQSI;                 3600 N 91Din !
$
 FUNCTION GHSERSI   298.15  -8162.609+137.236859*T-22.8317533*T*LN(T)
       -0.001912904*T**2-3.552E-09*T**3+176667*T**(-1);
      1687.00  Y  -9457.642+167.281367*T-27.196*T*LN(T)-4.20369E+30*T**(-9);
      3600.00  N !
 FUNCTION GLIQSI    298.15  +50696.36-30.099439*T+GHSERSI+2.09307E-21*T**7;
      1687.00  Y  +40370.523+137.722298*T-27.196*T*LN(T);
      3600.00  N !
 FUNCTION GBCCSI    298.15  +GHSERSI+47000-22.5*T;               3600 N 91Din !
$ ------------------------------------------------------------------------------
$ Binary system
$
$ M. Huang, D.L. Schlagel, F.A. Schmidt, T.A. Lograsso,
$ J. Alloys Compd., 441, 94-100(2007).
$
$ Checked against paper. Checked at 6000 K.
$
$ There are differences up to a few K in the invariant temperatures,
$ probably because old data were used for Gd in the paper.
$
$ There is an inverse miscibility gap with a minimum at 4429 K and x(Si)=0.77.
$
 PAR  L(LIQUID,GD,SI;0),,               -265000+60*T;,,               N 07Hua !
 PAR  L(LIQUID,GD,SI;1),,               +60000-25*T;,,                N 07Hua !
$
 PAR  L(BCC_A2,GD,SI:VA;0),,            -5000;,,                      N 07Hua !
 PAR  L(HCP_A3,GD,SI:VA;0),,            -10000;,,                     N 07Hua !
$
 PAR  G(GD5SI3_D88,GD:SI),,             +5*GHSERGD+3*GHSERSI
             -615144+105.52*T;,,                                      N 07Hua !
 PAR  G(GD5SI4,GD:SI),,                 +5*GHSERGD+4*GHSERSI
             -747000+128.97*T;,,                                      N 07Hua !
 PAR  G(GDSI_B27,GD:SI),,               +GHSERGD+GHSERSI
             -175000+30.68*T;,,                                       N 07Hua !
 PAR  G(GD3SI5_C32,GD:SI),,             +3*GHSERGD+5*GHSERSI
             -636424+113.52*T;,,                                      N 07Hua !
 PAR  G(GDSI2,GD:SI),,                  +GHSERGD+2*GHSERSI
             -229665+42.75*T;,,                                       N 07Hua !
$
$ Metastable
$
 PAR  L(FCC_A1,GD,Si:VA;0),,            -10000;,,                     N Same !
$ ------------------------------------------------------------------------------
$
$
 LIST-OF-REFERENCE
 NUMBER  SOURCE
  Null   'Unknown source'
  Same   'Same or similar interaction as in the corresponding stable phase'
  REFLAV 'Laves phase convention: G(LAVES,X:X)=+3*GHSERXX+15000'
  COST   'COST 507 database'
  91Din  'A.T. Dinsdale, Calphad, 15, 317-425(1991).'
  95She2 'H. Shen, W. Zhang, G. Liu, R. Wang, Z. Du, Report F-95-02,
          University of Science and Technology, Beijing, May 1995,
          SGTE unary database V.3.0, 1996; Gd'
  00Zin  'M. Zinkevich, N. Mattern, H. J Seifert,
          J. Phase Equilib., 21, 385-94(2000),
          SGTE unary database V.4.4, 2001; Gd'
  07Hua  'M. Huang, D.L. Schlagel, F.A. Schmidt, T.A. Lograsso,
          J. Alloys Compd., 441, 94-100(2007); Gd-Si'
!
