$
$ Database for Zr-Te from C. Dong et al. 2021.
$
$ C. Dong, J. Wang, B. Hu, L. Zhu, Q. Wu, Y. Du, Calphad, 74, 102281(2021).
$
$ Dataset created 2021.09.19 by Bengt Hallstedt.
$
$ ------------------------------------------------------------------------------
 TEMP-LIM 298.15 6000.00 !
$
$ELEMENT NAME  REF. STATE               ATOMIC MASS H298-H0    S298    !
$
 ELEMENT VA   VACUUM                      0.0          0.0      0.0    ! 
 ELEMENT TE   HEXAGONAL_A8              127.60      6080.      49.221  ! 
 ELEMENT ZR   HCP_A3                     91.22      5566.27    39.1809 ! 
$ ------------------------------------------------------------------------------
$ Phase definitions
$
 PHASE LIQUID:L % 1 1 !
 CONST LIQUID:L : TE ZR : !
$
$ Fcc (cF4, Fm-3m) and MeX (cF8, Fm-3m)
$
 PHASE FCC_A1 %A 2 1 1 !
 CONST FCC_A1 : ZR : VA : !
$
$ Bcc (cI2, Im-3m)
$
 PHASE BCC_A2 %B 2 1 3 !
 CONST BCC_A2 : ZR : VA : !
$
$ Hcp (hP2, P6_3/mmc) and Me2X (NiAs-type, hP4, P6_3/mmc, B8_1)
$
 PHASE HCP_A3 %A 2 1 0.5 !
 CONST HCP_A3 : ZR : VA : !
$
$ Prototype gamma-Se (hP3, P3_121)
$ The phase is named HEXAGONAL_A8 in the SGTE unary database and
$ TRIGONAL_A8 in LB.
$
 PHASE HEXAGONAL_A8 % 1 1 !
 CONST HEXAGONAL_A8 : TE : !
$
$ Prototype Ni3P (tI32, I-4)
$
 PHASE ZR3TE_D0E % 2 3 1 !
 CONST ZR3TE_D0E : ZR : TE : !
$
$ Prototype Ti5Te4 (tI18, I4/m)
$
 PHASE ZR5TE4 % 2 5 4 !
 CONST ZR5TE4 : ZR : TE : !
$
$ Prototype WC (hP2, P-6m2)
$
 PHASE ZRTE_BH % 2 1 1 !
 CONST ZRTE_BH : ZR : TE : !
$
$ Prototype NiAs (hP4, P6_3/mmc)
$
 PHASE ZRTE2_B81 % 3 1 1 1 !
 CONST ZRTE2_B81 : ZR% VA : ZR TE% : TE : !
$
$ Prototype ZrSe3 (mP8, P2_1/m)
$
 PHASE ZRTE3 % 2 1 3 !
 CONST ZRTE3 : ZR : TE : !
$
$ Prototype HfTe5 (oC24, Cmcm)
$
 PHASE ZRTE5 % 2 1 5 !
 CONST ZRTE5 : ZR : TE : !
$ ------------------------------------------------------------------------------
$ Defaults
$
 DEFINE-SYSTEM-DEFAULT ELEMENT 2 !
 DEFAULT-COM DEFINE_SYSTEM_ELEMENT VA !
 TYPE-DEF % SEQ * !
 TYPE-DEF A GES AMEND_PHASE_DESCRIPTION @ MAGNETIC -3 0.28 !
 TYPE-DEF B GES AMEND_PHASE_DESCRIPTION @ MAGNETIC -1 0.4 !
 FUNCTION ZERO      298.15  0;                                         6000 N !
 FUNCTION UN_ASS    298.15  0;                                         6000 N !
 FUNCTION R         298.15  +8.31451;                                  6000 N !
$ ------------------------------------------------------------------------------
$ Element data
$ ------------------------------------------------------------------------------
$ Te
$
$ HEXAGONAL_A8 and LIQUID revised in unary 3.0
$
 PAR  G(HEXAGONAL_A8,TE),,              +GHSERTE;                1600 N 95Dav !
 PAR  G(LIQUID,TE),,                    +GLIQTE;                 1600 N 95Dav !
$
 PAR  G(ZRTE2_B81,VA:TE:TE),,           +2*GHSERTE+128955;,,          N 21Don !
$
 FUNCTION GHSERTE   298.15  -10544.679+183.372894*T-35.6687*T*LN(T)
       +0.01583435*T**2-5.240417E-06*T**3+155015*T**(-1);
       722.66  Y  +9160.595-129.265373*T+13.004*T*LN(T)
       -0.0362361*T**2+5.006367E-06*T**3-1286810*T**(-1);
      1150.00  Y  -12781.349+174.901226*T-32.5596*T*LN(T);
      1600.00  N !
 FUNCTION GLIQTE    298.15  -17554.731+685.877639*T-126.318*T*LN(T)
       +0.2219435*T**2-9.42075E-05*T**3+827930*T**(-1);
       626.49  Y  -3165763.48+46756.357*T-7196.41*T*LN(T)
       +7.09775*T**2-0.00130692833*T**3+2.58051E+08*T**(-1);
       722.66  Y  +180326.959-1500.57909*T+202.743*T*LN(T)
       -0.142016*T**2+1.6129733E-05*T**3-24238450*T**(-1);
      1150.00  Y  +19110.036-26.1929273*T+GHSERTE;
      1600.00  N !
$ ------------------------------------------------------------------------------
$ Zr
$
$ CUB_A13, CBCC_A12, ORTHORHOMBIC_A20 and TETRAGONAL_U added in unary 4.1
$
 PAR  G(HCP_A3,ZR:VA)           130.00  +GHSERZR;,,                   N 91Din !
 PAR  G(BCC_A2,ZR:VA)           130.00  +GBCCZR;,,                    N 91Din !
$PAR  G(OMEGA,ZR)               130.00  +GOMEZR;,,                    N 91Din !
 PAR  G(FCC_A1,ZR:VA)           130.00  +GHSERZR+7600-0.9*T;,,        N 91Din !
$PAR  G(CBCC_A12,ZR:VA)         130.00  +GHSERZR+4602.2;,,            N 99SGUN !
$PAR  G(CUB_A13,ZR:VA)          130.00  +GHSERZR+7531.2;,,            N 99SGUN !
$PAR  G(ORTHORHOMBIC_A20,ZR)    130.00  +GBCCZR+5000;,,               N 99SGUN !
$PAR  G(TETRAGONAL_U,ZR)        130.00  +GBCCZR+5000;,,               N 99SGUN !
 PAR  G(LIQUID,ZR)              130.00  +GLIQZR;,,                    N 91Din !
$
 FUNCTION GHSERZR   130.00  -7827.595+125.64905*T-24.1618*T*LN(T)
       -0.00437791*T**2+34971*T**(-1);
      2128.00  Y  -26085.921+262.724183*T-42.144*T*LN(T)-1.342896E+31*T**(-9);
      6000.00  N !
 FUNCTION GBCCZR    130.00  -525.539+124.9457*T-25.607406*T*LN(T)
       -3.40084E-04*T**2-9.729E-09*T**3+25233*T**(-1)-7.6143E-11*T**4;
      2128.00  Y  -4620.034+1.55998*T+GHSERZR+1.4103476E+32*T**(-9);
      6000.00  N !
 FUNCTION GOMEZR    130.00  -8878.082+144.432234*T-26.8556*T*LN(T)
       -0.002799446*T**2+38376*T**(-1);
      2128.00  Y  -3414.603+2.566675*T+GHSERZR+8.517346E+31*T**(-9);
      6000.00  N !
 FUNCTION GLIQZR    130.00  +18147.69-9.080812*T+GHSERZR+1.6275E-22*T**7;
      2128.00  Y  -8281.26+253.812609*T-42.144*T*LN(T);
      6000.00  N !
$ ------------------------------------------------------------------------------
$ Binary system
$
$ C. Dong, J. Wang, B. Hu, L. Zhu, Q. Wu, Y. Du, Calphad, 74, 102281(2021).
$
$ Checked against paper and authors' tdb. Checked at 6000 K.
$
$ Parameters for Zr5Te4 and ZrTe are misprinted in the paper.
$
 PAR  L(LIQUID,TE,ZR;0),,               -161604-39.994*T;,,           N 21Don !
 PAR  L(LIQUID,TE,ZR;1),,               -57002-21.796*T;,,            N 21Don !
 PAR  L(LIQUID,TE,ZR;2),,               -23537+10*T;,,                N 21Don !
$
 PAR  G(ZR3TE_D0E,ZR:TE),,              +3*GHSERZR+GHSERTE
             -194100+8.288*T;,,                                       N 21Don !
 PAR  G(ZR5TE4,ZR:TE),,                 +5*GHSERZR+4*GHSERTE
             -740313+21.447*T;,,                                      N 21Don !
 PAR  G(ZRTE_BH,ZR:TE),,                +GHSERZR+GHSERTE
             -176672+5.094*T;,,                                       N 21Don !
$
 PAR  G(ZRTE2_B81,ZR:TE:TE),,           +GHSERZR+2*GHSERTE
             -268767+5.85*T;,,                                        N 21Don !
 PAR  G(ZRTE2_B81,ZR:ZR:TE),,           +2*GHSERZR+GHSERTE
             -124074+10.2*T;,,                                        N 21Don !
 PAR  G(ZRTE2_B81,VA:ZR:TE),,           +GHSERZR+GHSERTE;,,           N 21Don !
 PAR  L(ZRTE2_B81,VA:TE,ZR:TE;0),,      -174783+14.283*T;,,           N 21Don !
 PAR  L(ZRTE2_B81,ZR:TE,ZR:TE;0),,      -239694+13.323*T;,,           N 21Don !
 PAR  L(ZRTE2_B81,ZR:TE,ZR:TE;1),,      -78966+12.225*T;,,            N 21Don !
$
 PAR  G(ZRTE3,ZR:TE),,                  +GHSERZR+3*GHSERTE
             -282640+0.84*T;,,                                        N 21Don !
 PAR  G(ZRTE5,ZR:TE),,                  +GHSERZR+5*GHSERTE
             -296532+10.422*T;,,                                      N 21Don !
$ ------------------------------------------------------------------------------
$
$
 LIST-OF-REFERENCE
 NUMBER  SOURCE
  Null   'Unknown source'
  Same   'Same or similar interaction as in the corresponding stable phase'
  COST   'COST 507 database'
  91Din  'A.T. Dinsdale, Calphad, 15, 317-425(1991).'
  95Dav  'A.V. Davydov, M.H. Rand, B.B. Argent, Calphad, 19, 375-87(1995),
          SGTE unary database V.3.0, 1996; Te'
  99SGUN 'SGTE unary database V.4.1, 1999.'
  21Don  'C. Dong, J. Wang, B. Hu, L. Zhu, Q. Wu, Y. Du,
          Calphad, 74, 102281(2021); Zr-Te'
!
