$
$ Database for Ni-Se from O. Zobac et al. 2021.
$
$ O. Zobac, K. Buchlovska, J. Pavlu, A. Kroupa,
$ J. Phase Equilib. Diffus., 42, 468-78(2021).
$
$ Dataset created 2023.11.23 by Bengt Hallstedt.
$
$ Associate liquid model with NiSe associates.
$
$ NiSe2 becomes stable again above 5440 K.
$
$ The NiSe phase widens towards low temperature. This does not seem probable.
$
$ ------------------------------------------------------------------------------
 TEMP-LIM 298.15 6000.00 !
$
$ELEMENT NAME  REF. STATE               ATOMIC MASS H298-H0    S298    !
$
 ELEMENT VA   VACUUM                      0.0          0.0      0.0    ! 
 ELEMENT NI   FCC_A1                     58.69      4787.0     29.7955 ! 
 ELEMENT SE   HEXAGONAL_A8               78.96      5514.512   41.9655 ! 
$ ------------------------------------------------------------------------------
$ Species
$
 SPECIE  NISE                               NI1SE1 !
$ ------------------------------------------------------------------------------
$ Phase definitions
$
 PHASE LIQUID:L % 1 1 !
 CONST LIQUID:L : NI NISE SE : !
$
$ Fcc (cF4, Fm-3m) and MeX (cF8, Fm-3m)
$
 PHASE FCC_A1 %A 2 1 1 !
 CONST FCC_A1 : NI : VA : !
$
$ Bcc (cI2, Im-3m)
$
 PHASE BCC_A2 %B 2 1 3 !
 CONST BCC_A2 : NI : VA : !
$
$ Hcp (hP2, P6_3/mmc) and Me2X (NiAs-type, hP4, P6_3/mmc, B8_1)
$
 PHASE HCP_A3 %A 2 1 0.5 !
 CONST HCP_A3 : NI : VA : !
$
$ gamma-Se (hP3, P3_121)
$
 PHASE HEXAGONAL_A8 % 1 1 !
 CONST HEXAGONAL_A8 : SE : !
$
$ Prototype Ni3S2 (hR5, R32)
$
 PHASE NI3SE2_D5E % 2 3 2 !
 CONST NI3SE2_D5E : NI : SE : !
$
$ Pearson cF*
$
 PHASE NI3SE2_HT % 2 0.595 0.405 !
 CONST NI3SE2_HT : NI : SE : !
$
$ Prototype Ni6Se5 (oP88, Pca2_1)
$
 PHASE NI6SE5 % 2 6 5 !
 CONST NI6SE5 : NI : SE : !
$
$ Prototype NiAs (hP4, P6_3/mmc)
$
 PHASE NISE_B81 % 2 1 1 !
 CONST NISE_B81 : NI% SE : SE : !
$
$ Prototype FeS2-beta (cP12, Pa-3)
$
 PHASE NISE2_C2 % 2 1 2 !
 CONST NISE2_C2 : NI : SE : !
$ ------------------------------------------------------------------------------
$ Defaults
$
 DEFINE-SYSTEM-DEFAULT ELEMENT 2 !
 DEFAULT-COM DEFINE_SYSTEM_ELEMENT VA !
 TYPE-DEF % SEQ * !
 TYPE-DEF A GES AMEND_PHASE_DESCRIPTION @ MAGNETIC -3 0.28 !
 TYPE-DEF B GES AMEND_PHASE_DESCRIPTION @ MAGNETIC -1 0.4 !
 FUNCTION ZERO      298.15  0;                                         6000 N !
 FUNCTION UN_ASS    298.15  0;                                         6000 N !
 FUNCTION R         298.15  +8.31451;                                  6000 N !
$ ------------------------------------------------------------------------------
$ Element data
$ ------------------------------------------------------------------------------
$ Ni
$
$ FCC_A1 and LIQUID modified in unary 5.0 (slight change in upper T interval)
$ BCT_A5 added in unary 5.0
$
 PAR  G(FCC_A1,NI:VA),,                 +GHSERNI;                3000 N 91Din !
 PAR  TC(FCC_A1,NI:VA),,                  633.00;                3000 N 91Din !
 PAR  BM(FCC_A1,NI:VA),,                    0.52;                3000 N 91Din !
 PAR  G(BCC_A2,NI:VA),,                 +GHSERNI
             +8715.084-3.556*T;                                  3000 N 91Din !
 PAR  TC(BCC_A2,NI:VA),,                  575.00;                3000 N 91Din !
 PAR  BM(BCC_A2,NI:VA),,                    0.85;                3000 N 91Din !
 PAR  G(HCP_A3,NI:VA),,                 +GHSERNI+1046+1.255*T;   3000 N 91Din !
 PAR  TC(HCP_A3,NI:VA),,                  633.00;                3000 N 91Din !
 PAR  BM(HCP_A3,NI:VA),,                    0.52;                3000 N 91Din !
$PAR  G(BCT_A5,NI),,                    +GHSERNI+10023-4.556*T;  3000 N 99Gho !
$PAR  G(CUB_A13,NI:VA),,                +GHSERNI+2092;           3000 N 91Din !
$PAR  G(CBCC_A12,NI:VA),,               +GHSERNI+3556;           3000 N 91Din !
 PAR  G(LIQUID,NI),,                    +GLIQNI;                 3000 N 91Din !
$
 FUNCTION GHSERNI   298.15  -5179.159+117.854*T-22.096*T*LN(T)-0.0048407*T**2;
      1728.00  Y  -27840.62+279.134977*T-43.1*T*LN(T)+1.12754E+31*T**(-9);
      3000.00  N !
 FUNCTION GLIQNI    298.15  +16414.686-9.397*T+GHSERNI-3.82318E-21*T**7;
      1728.00  Y  -9549.817+268.597977*T-43.1*T*LN(T);
      3000.00  N !
 FUNCTION GBCCNI    298.15  +GHSERNI+8715.084-3.556*T;                 3000 N !
 FUNCTION GHCPNI    298.15  +GHSERNI+1046+1.255*T;                     3000 N !
$ ------------------------------------------------------------------------------
$ Se
$
 PAR  G(HEXAGONAL_A8,SE),,              +GHSERSE;                1000 N 91Din !
 PAR  G(LIQUID,SE),,                    +GLIQSE;                 1000 N 91Din !
$
 PAR  G(NISE_B81,SE:SE),,               +2*GHSERSE+30000;,,           N 21Zob !
$
 FUNCTION GHSERSE   298.15  -9376.371+174.205877*T-33.6527*T*LN(T)
       +0.02424314*T**2-1.5318461E-05*T**3+102249*T**(-1);
       494.00  Y  -37546.134+507.111538*T-81.2006585*T*LN(T)
       +0.037144892*T**2-5.611026E-06*T**3+2614263*T**(-1);
       800.00  Y  -12193.47+197.770166*T-35.1456*T*LN(T);
      1000.00  N !
 FUNCTION GLIQSE    298.15  +50533.347-1178.28824*T+194.107439*T*LN(T)
       -0.390268991*T**2+1.19219297E-04*T**3-2224398*T**(-1); 
       494.00  Y  -5228.304+183.72559*T-35.1456*T*LN(T);
      1000.00  N !
$ ------------------------------------------------------------------------------
$ Binary system
$
$ O. Zobac, K. Buchlovska, J. Pavlu, A. Kroupa,
$ J. Phase Equilib. Diffus., 42, 468-78(2021).
$
$ Checked against paper. Checked at 6000 K.
$
$ Associate liquid model with NiSe associates.
$
$ NiSe2 becomes stable again above 5440 K.
$
$ The NiSe phase widens towards low temperature. This does not seem probable.
$
 PAR  G(LIQUID,NISE),,                  +GHSERNI+GHSERSE-45942;,,     N 21Zob !
 PAR  L(LIQUID,NI,SE;0),,               +19852;,,                     N 21Zob !
 PAR  L(LIQUID,NI,SE;1),,               +54858;,,                     N 21Zob !
 PAR  L(LIQUID,NI,SE;2),,               -44864;,,                     N 21Zob !
 PAR  L(LIQUID,NI,NISE;0),,             -1094;,,                      N 21Zob !
 PAR  L(LIQUID,NISE,SE;0),,             +5945;,,                      N 21Zob !
 PAR  L(LIQUID,NISE,SE;1),,             -1140;,,                      N 21Zob !
 PAR  L(LIQUID,NISE,SE;2),,             +12856;,,                     N 21Zob !
$
 PAR  G(NI3SE2_D5E,NI:SE),,             +3*GHSERNI+2*GHSERSE
             -154175+50*T;,,                                          N 21Zob !
 PAR  G(NI3SE2_HT,NI:SE),,              +0.595*GHSERNI+0.405*GHSERSE
             -29900+8.6*T;,,                                          N 21Zob !
 PAR  G(NI6SE5,NI:SE),,                 +6*GHSERNI+5*GHSERSE
             -370386.5+112.86*T;,,                                    N 21Zob !
$
 PAR  G(NISE_B81,NI:SE),,               +GHSERNI+GHSERSE
             -72740+22.56*T;,,                                        N 21Zob !
 PAR  L(NISE_B81,NI,SE:SE;0),,          -50000+70*T;,,                N 21Zob !
 PAR  L(NISE_B81,NI,SE:SE;1),,          -70000-12*T;,,                N 21Zob !
 PAR  L(NISE_B81,NI,SE:SE;2),,          -50000-12.6*T;,,              N 21Zob !
$
 PAR  G(NISE2_C2,NI:SE),,               +3*GNISE2;,,                  N 21Zob !
$
 FUNCTION GNISE2    298.15  -40218+176.7*T-31.32987*T*LN(T)
       +0.005135*T**2-1.616E-06*T**3+185915.26*T**(-1); 
      6000.00  N !
$ ------------------------------------------------------------------------------
$
$
 LIST-OF-REFERENCE
 NUMBER  SOURCE
  Null   'Unknown source'
  Same   'Same or similar interaction as in the corresponding stable phase'
  COST   'COST 507 database'
  91Din  'A.T. Dinsdale, Calphad, 15, 317-425(1991).'
  99Gho  'G. Ghosh, Metall. Mater. Trans. A, 30A, 1481-94(1999),
          SGTE unary database V.5.0, 2009; Ni'
  21Zob  'O. Zobac, K. Buchlovska, J. Pavlu, A. Kroupa,
          J. Phase Equilib. Diffus., 42, 468-78(2021); Ni-Se'
!
