$
$ Database for Au-As from P.J. Spencer 1998 (Included in LB Vol. 1)
$
$ P.J. Spencer, unpublished, 1998.
$
$ Dataset created 2013.07.14 by Bengt Hallstedt.
$ 2020.12.22: Modified for use with GES6.
$
$ ------------------------------------------------------------------------------
 TEMP-LIM 298.15 6000.00 !
$
$ELEMENT NAME  REF. STATE               ATOMIC MASS H298-H0    S298    !
$
 ELEMENT VA   VACUUM                      0.0          0.0      0.0    ! 
 ELEMENT AS   RHOMBOHEDRAL_A7            74.922     5117.032   35.6895 ! 
 ELEMENT AU   FCC_A1                    196.9665    6016.592   47.4884 ! 
$ ------------------------------------------------------------------------------
$ Phase definitions
$
 PHASE LIQUID:L % 1 1 !
 CONST LIQUID:L : AS AU : !
$
$ Fcc (cF4) and MeX (cF8)
$
 PHASE FCC_A1 %A 2 1 1 !
 CONST FCC_A1 : AS AU% : VA : !
$
$ Bcc (cI2, Im-3m)
$
 PHASE BCC_A2 %B 2 1 3 !
 CONST BCC_A2 : AS AU : VA : !
$
$ Hcp (hP2, P6_3/mmc) and Me2X (NiAs-type, hP4, P6_3/mmc, B8_1)
$
 PHASE HCP_A3 %A 2 1 0.5 !
 CONST HCP_A3 : AS AU : VA : !
$
$ Prototype alpha-As (hR2, R-3m)
$
 PHASE RHOMBOHEDRAL_A7 % 1 1 !
 CONST RHOMBOHEDRAL_A7 : AS : !
$ ------------------------------------------------------------------------------
$ Defaults
$
 DEFINE-SYSTEM-DEFAULT ELEMENT 2 !
 DEFAULT-COM DEFINE_SYSTEM_ELEMENT VA !
 TYPE-DEF % SEQ * !
 TYPE-DEF A GES AMEND_PHASE_DESCRIPTION @ MAGNETIC -3 0.28 !
 TYPE-DEF B GES AMEND_PHASE_DESCRIPTION @ MAGNETIC -1 0.4 !
 FUNCTION ZERO      298.15  0;                                         6000 N !
 FUNCTION UN_ASS    298.15  0;                                         6000 N !
 FUNCTION R         298.15  +8.31451;                                  6000 N !
$ ------------------------------------------------------------------------------
$ Element data
$ ------------------------------------------------------------------------------
$ As
$
$ RED_P added in unary 4.4
$
 PAR  G(RHOMBOHEDRAL_A7,AS),,           +GHSERAS;                1200 N 91Din !
 PAR  G(FCC_A1,AS:VA),,                 +GHSERAS+24874-14.74*T;  1200 N 91Din !
 PAR  G(BCC_A2,AS:VA),,                 +GHSERAS+24874-16.1*T;   1200 N 91Din !
 PAR  G(HCP_A3,AS:VA),,                 +GHSERAS+24874-14*T;     1200 N 91Din !
$PAR  G(RED_P,AS),,                     +GHSERAS+5782-3.85466*T; 1200 N 94Ans !
 PAR  G(LIQUID,AS),,                    +GHSERAS
             +24442.9-22.424679*T;                               1200 N 91Din !
$
 FUNCTION GHSERAS   298.15  -7270.447+122.211069*T-23.3144*T*LN(T)
       -0.00271613*T**2+11600*T**(-1);
      1090.00  Y  -10454.913+163.457433*T-29.216037*T*LN(T);
      1200.00  N !
 FUNCTION GLIQAS    298.15  +GHSERAS+24442.9-22.424679*T;              6000 N !
 FUNCTION GHCPAS    298.15  +GHSERAS+24874-14*T;                       6000 N !
$ ------------------------------------------------------------------------------
$ Au
$
$ DHCP added in unary 5.0
$
$ DHCP replaced by the value from 92Ans in SGSOL 5.0
$
$ The DHCP phase is labelled D0_24 in 03Liu and alpha-prime in 92Ans. The
$ phase is present between the fcc and hcp phases in the Au-Sn and Au-In
$ systems. The value for DHCP from 92Ans was used to model these systems,
$ thus this value must be included in the unary database and not the 04Du
$ value.
$
 PAR  G(FCC_A1,AU:VA),,                 +GHSERAU;                3200 N 91Din !
 PAR  G(HCP_A3,AU:VA),,                 +GHSERAU+240.75+1.6*T;   3200 N 91Din !
 PAR  G(BCC_A2,AU:VA),,                 +GHSERAU+4250-1.1*T;     3200 N 91Din !
$PAR  G(DHCP,AU),,                      +GHSERAU+125+0.79*T;     3200 N 92Ans !
$PAR  G(DHCP,AU),,                      +GHSERAU+5000;           3200 N 04Du !
 PAR  G(LIQUID,AU),,                    +GHSERAU
             +12552-9.385866*T;                                  3200 N 91Din !
$
 FUNCTION GHSERAU   298.15  -6938.856+106.830098*T-22.75455*T*LN(T)
       -0.00385924*T**2+3.79625E-07*T**3-25097*T**(-1);
       929.40  Y  -93586.481+1021.69543*T-155.706745*T*LN(T)
       +0.08756015*T**2-1.1518713E-05*T**3+10637210*T**(-1);
      1337.33  Y  +314067.829-2016.37825*T+263.252259*T*LN(T)
       -0.118216828*T**2+8.923844E-06*T**3-67999832*T**(-1);
      1735.80  Y  -12133.783+165.272524*T-30.9616*T*LN(T);
      3200.00  N !
$ ------------------------------------------------------------------------------
$ Binary system
$
$ From P.J. Spencer 1998 (Included in LB Vol. 1)
$
$ P.J. Spencer, unpublished, 1998.
$
$ Checked against LB. Checked at 6000 K.
$
 PAR  L(LIQUID,AS,AU;0),,               +18160.759-14.327686*T;,,    N 98Spe10 !
 PAR  L(LIQUID,AS,AU;1),,               -13132.906+13.229781*T;,,    N 98Spe10 !
 PAR  L(LIQUID,AS,AU;2),,               -4928.2804;,,                N 98Spe10 !
$
 PAR  L(FCC_A1,AS,AU:VA;0),,            +80*T;,,                     N 98Spe10 !
$
$ Metastable
$
 PAR  L(BCC_A2,AS,AU:VA;0),,            +80*T;,,                      N Same !
 PAR  L(HCP_A3,AS,AU:VA;0),,            +80*T;,,                      N Same !
$ ------------------------------------------------------------------------------
$
 ASSESSED_SYSTEM
  AS-AU(TDB -* +LIQ +FCC_A1 +RHOMB_A7 ;P3 TMM:300/1500 STP:.5/1000) !
$
$
 LIST-OF-REFERENCE
 NUMBER  SOURCE
  Null   'Unknown source'
  Same   'Same or similar interaction as in the corresponding stable phase'
  COST   'COST 507 database'
  91Din  'A.T. Dinsdale, Calphad, 15, 317-425(1991).'
  92Ans  'I. Ansara, J.-Ph. Nabot, Calphad, 16, 13-18(1992); Au'
  94Ans  'I. Ansara, C. Chatillon, H.L. Lukas, T. Nishizawa, H. Ohtani,
          K. Ishida, M. Hillert, B. Sundman, B.B. Argent, A. Watson,
          T.G. Chart, T. Anderson, Calphad, 18, 177-222(1994),
		  SGTE unary database V.4.4, 2001; As, P'
  98Spe10 'P.J. Spencer, unpublished, 1998; As-Au'
  04Du   'Z. Du, C. Guo, D. Lu, J. Alloys Compd., 364, 117-20(2004),
          SGTE unary database V.5.0, 2009; Au'
!
