$
$ Database for Co-Zr from J. Sun et al. 2023.
$
$ J. Sun, C. Guo, C. Li, Z. Du, Metall. Mater. Trans. A, 54, 3021-44(2023).
$
$ Dataset created 2024.01.21 by Bengt Hallstedt.
$
$ Modified from 10Dur. Changed C15 interaction to match new Co lattice
$ stability. C15 is a bit more narrow than in 10Dur.
$
$ B2_BCC is ordered in spite of a positive ordering energy.
$
$ ------------------------------------------------------------------------------
 TEMP-LIM 298.15 6000.00 !
$
$ELEMENT NAME  REF. STATE               ATOMIC MASS H298-H0    S298    !
$
 ELEMENT VA   VACUUM                      0.0          0.0      0.0    ! 
 ELEMENT CO   HCP_A3                     58.9332    4765.567   30.0400 ! 
 ELEMENT ZR   HCP_A3                     91.22      5566.27    39.1809 ! 
$ ------------------------------------------------------------------------------
$ Phase definitions
$
 PHASE LIQUID:L % 1 1 !
 CONST LIQUID:L : CO ZR : !
$
$ Fcc (cF4, Fm-3m) and MeX (cF8, Fm-3m)
$
 PHASE FCC_A1 %A 2 1 1 !
 CONST FCC_A1 : CO% ZR : VA : !
$
$ Bcc (cI2, Im-3m)
$
 PHASE BCC_A2 %B 2 1 3 !
 CONST BCC_A2 : CO ZR% : VA : !
$
$ Disordered part of B2_BCC, identical to BCC_A2 (except Va)
$
 PHASE A2_BCC %B 2 1 3 !
 CONST A2_BCC : CO VA ZR : VA : !
$
$ Prototype CsCl (cP2, Pm-3m)
$
 PHASE B2_BCC %BO 3 0.5 0.5 3 !
 CONST B2_BCC : CO% VA ZR : CO VA ZR% : VA : !
$
$ Hcp (hP2, P6_3/mmc) and Me2X (NiAs-type, hP4, P6_3/mmc, B8_1)
$
 PHASE HCP_A3 %A 2 1 0.5 !
 CONST HCP_A3 : CO% ZR% : VA : !
$
$ Pearson oP*, Pban
$
 PHASE CO11ZR2 % 2 11 2 !
 CONST CO11ZR2 : CO : ZR : !
$
$ Prototype Mn23Th6 (cF116, Fm-3m)
$
 PHASE CO23ZR6_D8A % 2 23 6 !
 CONST CO23ZR6_D8A : CO : ZR : !
$
$ Prototype Cu2Mg (cF24, Fd-3m)
$
 PHASE C15_LAVES % 2 2 1 !
 CONST C15_LAVES : CO% ZR : CO ZR% : !
$
$ Prototype Al2Cu (tI12, I4/mcm)
$
 PHASE COZR2_C16 % 2 1 2 !
 CONST COZR2_C16 : CO% ZR : ZR : !
$
$ Prototype Re3B (oC16, Cmcm)
$ Strukturbericht E1_a suggested in the paper, but may not be generally
$ recognised
$
 PHASE COZR3 % 3 1 1 2 !
 CONST COZR3 : CO% ZR : CO ZR% : ZR : !
$ ------------------------------------------------------------------------------
$ Defaults
$
 DEFINE-SYSTEM-DEFAULT ELEMENT 2 !
 DEFAULT-COM DEFINE_SYSTEM_ELEMENT VA !
 TYPE-DEF % SEQ * !
 TYPE-DEF A GES AMEND_PHASE_DESCRIPTION @ MAGNETIC -3 0.28 !
 TYPE-DEF B GES AMEND_PHASE_DESCRIPTION @ MAGNETIC -1 0.4 !
 TYPE-DEF O GES AMEND_PHASE_DESCRIPTION B2_BCC DIS_PART A2_BCC !
 FUNCTION ZERO      298.15  0;                                         6000 N !
 FUNCTION UN_ASS    298.15  0;                                         6000 N !
 FUNCTION R         298.15  +8.31451;                                  6000 N !
$ ------------------------------------------------------------------------------
$ Element data
$ ------------------------------------------------------------------------------
$ Co
$
 PAR  G(HCP_A3,CO:VA),,                 +GHSERCO;,,                   N 91Din !
 PAR  TC(HCP_A3,CO:VA),,                 1396.00;,,                   N 91Din !
 PAR  BM(HCP_A3,CO:VA),,                    1.35;,,                   N 91Din !
 PAR  G(FCC_A1,CO:VA),,                 +GHSERCO
             +427.591-0.615248*T;,,                                   N 91Din !
 PAR  TC(FCC_A1,CO:VA),,                 1396.00;,,                   N 91Din !
 PAR  BM(FCC_A1,CO:VA),,                    1.35;,,                   N 91Din !
 PAR  G(BCC_A2,CO:VA),,                 +GHSERCO+2938-0.7138*T;,,     N 91Din !
 PAR  TC(BCC_A2,CO:VA),,                 1450.00;,,                   N 91Din !
 PAR  BM(BCC_A2,CO:VA),,                    1.35;,,                   N 91Din !
 PAR  G(A2_BCC,CO:VA),,                 +GHSERCO+2938-0.7138*T;,,     N 91Din !
 PAR  TC(A2_BCC,CO:VA),,                 1450.00;,,                   N 91Din !
 PAR  BM(A2_BCC,CO:VA),,                    1.35;,,                   N 91Din !
$PAR  G(CBCC_A12,CO:VA),,               +GHSERCO+4155;,,              N 91Din !
$PAR  G(CUB_A13,CO:VA),,                +GHSERCO+3155;,,              N 91Din !
 PAR  G(LIQUID,CO),,                    +GLIQCO;,,                    N 91Din !
$
 PAR  L(A2_BCC,CO,VA:VA;0),,            +165000;,,                    N 10Dur !
 PAR  G(B2_BCC,CO:VA:VA),,              +B2COVA;,,                    N 10Dur !
 PAR  G(B2_BCC,VA:CO:VA),,              +B2COVA;,,                    N 10Dur !
$
 PAR  G(C15_LAVES,CO:CO),,              +3*GHSERCO+63136.8;,,         N 22Wei !
$
 FUNCTION GHSERCO   298.15  +310.241+133.36601*T-25.0861*T*LN(T)
       -0.002654739*T**2-1.7348E-07*T**3+72527*T**(-1);
      1768.00  Y  -17197.666+253.28374*T-40.5*T*LN(T)+9.3488E+30*T**(-9);
      6000.00  N !
 FUNCTION GLIQCO    298.15  +15085.037-8.931932*T+GHSERCO-2.19801E-21*T**7;
      1768.00  Y  -846.61+243.599944*T-40.5*T*LN(T);
      6000.00  N !
 FUNCTION B2COVA    298.15  +107100;                                   6000 N !
$ ------------------------------------------------------------------------------
$ Zr
$
$ CUB_A13, CBCC_A12, ORTHORHOMBIC_A20 and TETRAGONAL_U added in unary 4.1
$
 PAR  G(HCP_A3,ZR:VA)           130.00  +GHSERZR;,,                   N 91Din !
 PAR  G(BCC_A2,ZR:VA)           130.00  +GBCCZR;,,                    N 91Din !
 PAR  G(A2_BCC,ZR:VA)           130.00  +GBCCZR;,,                    N 91Din !
$PAR  G(OMEGA,ZR)               130.00  +GOMEZR;,,                    N 91Din !
 PAR  G(FCC_A1,ZR:VA)           130.00  +GHSERZR+7600-0.9*T;,,        N 91Din !
$PAR  G(CBCC_A12,ZR:VA)         130.00  +GHSERZR+4602.2;,,            N 99SGUN !
$PAR  G(CUB_A13,ZR:VA)          130.00  +GHSERZR+7531.2;,,            N 99SGUN !
$PAR  G(ORTHORHOMBIC_A20,ZR)    130.00  +GBCCZR+5000;,,               N 99SGUN !
$PAR  G(TETRAGONAL_U,ZR)        130.00  +GBCCZR+5000;,,               N 99SGUN !
 PAR  G(LIQUID,ZR)              130.00  +GLIQZR;,,                    N 91Din !
$
 PAR  L(A2_BCC,VA,ZR:VA;0),,            +320000;,,                    N 10Dur !
 PAR  G(B2_BCC,VA:ZR:VA),,              +B2ZRVA;,,                    N 10Dur !
 PAR  G(B2_BCC,ZR:VA:VA),,              +B2ZRVA;,,                    N 10Dur !
$
 PAR  G(C15_LAVES,ZR:ZR),,              +3*GHSERZR+15000;,,           N REFLAV !
 PAR  G(COZR2_C16,ZR:ZR),,              +3*GHSERZR+87000;,,           N 10Dur !
 PAR  G(COZR3,ZR:ZR:ZR),,               +4*GHSERZR+16000+14*T;,,      N 10Dur !
$
 FUNCTION GHSERZR   130.00  -7827.595+125.64905*T-24.1618*T*LN(T)
       -0.00437791*T**2+34971*T**(-1);
      2128.00  Y  -26085.921+262.724183*T-42.144*T*LN(T)-1.342896E+31*T**(-9);
      6000.00  N !
 FUNCTION GBCCZR    130.00  -525.539+124.9457*T-25.607406*T*LN(T)
       -3.40084E-04*T**2-9.729E-09*T**3+25233*T**(-1)-7.6143E-11*T**4;
      2128.00  Y  -4620.034+1.55998*T+GHSERZR+1.4103476E+32*T**(-9);
      6000.00  N !
 FUNCTION GOMEZR    130.00  -8878.082+144.432234*T-26.8556*T*LN(T)
       -0.002799446*T**2+38376*T**(-1);
      2128.00  Y  -3414.603+2.566675*T+GHSERZR+8.517346E+31*T**(-9);
      6000.00  N !
 FUNCTION GLIQZR    130.00  +18147.69-9.080812*T+GHSERZR+1.6275E-22*T**7;
      2128.00  Y  -8281.26+253.812609*T-42.144*T*LN(T);
      6000.00  N !
 FUNCTION B2ZRVA    298.15  +88400;                                     6000 N !
$ ------------------------------------------------------------------------------
$ Va
$
 PAR  G(A2_BCC,VA:VA),,                 +30*T;,,                      N 10Dur !
$ ------------------------------------------------------------------------------
$ Binary system
$
$ J. Sun, C. Guo, C. Li, Z. Du, Metall. Mater. Trans. A, 54, 3021-44(2023).
$
$ Checked against paper. Checked at 6000 K.
$
$ Modified from 10Dur. Changed C15 interaction to match new Co lattice
$ stability. C15 is a bit more narrow than in 10Dur.
$
$ B2_BCC is ordered in spite of a positive ordering energy.
$
 PAR  L(LIQUID,CO,ZR;0),,               -153092+14.484*T;,,           N 10Dur !
 PAR  L(LIQUID,CO,ZR;1),,               -12768;,,                     N 10Dur !
 PAR  L(LIQUID,CO,ZR;2),,               +34316-5.594*T;,,             N 10Dur !
$
 PAR  L(FCC_A1,CO,ZR:VA;0),,            -60000;,,                     N 10Dur !
 PAR  L(FCC_A1,CO,ZR:VA;1),,            -4000;,,                      N 10Dur !
$
 PAR  L(BCC_A2,CO,ZR:VA;0),,            -55065;,,                     N 10Dur !
 PAR  L(BCC_A2,CO,ZR:VA;1),,            +3500;,,                      N 10Dur !
 PAR  L(A2_BCC,CO,ZR:VA;0),,            -55065;,,                     N 10Dur !
 PAR  L(A2_BCC,CO,ZR:VA;1),,            +3500;,,                      N 10Dur !
$
 PAR  G(B2_BCC,CO:ZR:VA),,              +B2COZR;,,                    N 10Dur !
 PAR  G(B2_BCC,ZR:CO:VA),,              +B2COZR;,,                    N 10Dur !
 PAR  TC(B2_BCC,CO:ZR:VA),,             -1175;,,                      N 10Dur !
 PAR  TC(B2_BCC,ZR:CO:VA),,             -1175;,,                      N 10Dur !
 PAR  L(B2_BCC,CO,ZR:CO:VA;0),,         +LCOZRCO;,,                   N 10Dur !
 PAR  L(B2_BCC,CO:CO,ZR:VA;0),,         +LCOZRCO;,,                   N 10Dur !
 PAR  L(B2_BCC,CO,ZR:ZR:VA;0),,         +LCOZRZR;,,                   N 10Dur !
 PAR  L(B2_BCC,ZR:CO,ZR:VA;0),,         +LCOZRZR;,,                   N 10Dur !
$
 PAR  L(HCP_A3,CO,ZR:VA;0),,            -47428;,,                     N 10Dur !
 PAR  L(HCP_A3,CO,ZR:VA;1),,            -5961;,,                      N 10Dur !
$
 PAR  G(CO11ZR2,CO:ZR),,                +11*GHSERCO+2*GHSERZR
             -299728+21.294*T;,,                                      N 10Dur !
 PAR  G(CO23ZR6_D8A,CO:ZR),,            +23*GHSERCO+6*GHSERZR
             -823571+26.506*T;,,                                      N 10Dur !
$
 PAR  G(C15_LAVES,CO:ZR),,              +2*GHSERCO+GHSERZR
             -118425+2.355*T;,,                                       N 10Dur !
 PAR  G(C15_LAVES,ZR:CO),,              +2*GHSERZR+GHSERCO
             +118425-2.355*T+30000;,,                                 N 10Dur !
 PAR  L(C15_LAVES,CO:CO,ZR;0),,         -94668+12.75*T;,,             N 23Sun !
 PAR  L(C15_LAVES,CO:CO,ZR;1),,         +28668;,,                     N 23Sun !
$
 PAR  G(COZR2_C16,CO:ZR),,              +GHSERCO+2*GHSERZR
             -91215+0.969*T;,,                                        N 10Dur !
 PAR  L(COZR2_C16,CO,ZR:ZR;0),,         -35000;,,                     N 10Dur !
$
 PAR  G(COZR3,CO:CO:ZR),,               +2*GHSERCO+2*GHSERZR
             -160540+6.012*T;,,                                       N 10Dur !
 PAR  G(COZR3,CO:ZR:ZR),,               +GHSERCO+3*GHSERZR
             -98944+7.28*T;,,                                         N 10Dur !
 PAR  G(COZR3,ZR:CO:ZR),,               +GHSERCO+3*GHSERZR
             -98944+7.28*T;,,                                         N 10Dur !
 PAR  L(COZR3,CO,ZR:CO:ZR;0),,          +8166;,,                      N 10Dur !
 PAR  L(COZR3,CO:CO,ZR:ZR;0),,          +8166;,,                      N 10Dur !
 PAR  L(COZR3,CO,ZR:ZR:ZR;0),,          -2214;,,                      N 10Dur !
 PAR  L(COZR3,ZR:CO,ZR:ZR;0),,          -2214;,,                      N 10Dur !
$
 FUNCTION B2COZR    298.15  +6112+7.137*T;                              6000 N !
 FUNCTION LCOZRCO   298.15  +49181;                                     6000 N !
 FUNCTION LCOZRZR   298.15  +91491;                                     6000 N !
$ ------------------------------------------------------------------------------
$
$
 LIST-OF-REFERENCE
 NUMBER  SOURCE
  Null   'Unknown source'
  REFLAV 'Laves phase convention: G(LAVES,X:X)=+3*GHSERXX+15000'
  91Din  'A.T. Dinsdale, Calphad, 15, 317-425(1991).'
  99SGUN 'SGTE unary database V.4.1, 1999.'
  10Dur  'A. Durga, K.C. Hari Kumar, Calphad, 34, 200-205(2010); Co-Zr'
  22Wei  'D. Wei, X. Bai, C. Guo, C. Li, Z. Du,
          J. Alloys Compd., 924, 166516(2022); Co-Nb'
  23Sun  'J. Sun, C. Guo, C. Li, Z. Du,
          Metall. Mater. Trans. A, 54, 3021-44(2023); Co-Zr'
!
