$
$ Database for Sb-Tb from F. Gao et al. 2012
$
$ F. Gao, S.L. Wang, C.P. Wang, X.J. Liu, Calphad, 37, 158-62(2012).
$
$ Dataset created 2017.04.02 by Bengt Hallstedt.
$ 2021.02.05: Modified for use with GES6.
$
$ ------------------------------------------------------------------------------
 TEMP-LIM 298.15 6000.00 !
$
$ELEMENT NAME  REF. STATE               ATOMIC MASS H298-H0    S298    !
$
 ELEMENT VA   VACUUM                      0.0          0.0      0.0    ! 
 ELEMENT SB   RHOMBOHEDRAL_A7           121.75      5870.152   45.5219 ! 
 ELEMENT TB   HCP_A3                    158.9254    9426.552   73.3037 ! 
$ ------------------------------------------------------------------------------
$ Phase definitions
$
 PHASE LIQUID:L % 1 1 !
 CONST LIQUID:L : SB TB : !
$
$ Fcc (cF4, Fm-3m) and MeX (cF8, Fm-3m)
$
 PHASE FCC_A1 %A 2 1 1 !
 CONST FCC_A1 : SB : VA : !
$
$ Bcc (cI2, Im-3m)
$
 PHASE BCC_A2 %B 2 1 3 !
 CONST BCC_A2 : SB TB% : VA : !
$
$ Hcp (hP2, P6_3/mmc) and Me2X (NiAs-type, hP4, P6_3/mmc, B8_1)
$
 PHASE HCP_A3 %A 2 1 0.5 !
 CONST HCP_A3 : SB TB% : VA : !
$
$ Prototype alpha-As (hR2, R-3m)
$
 PHASE RHOMBOHEDRAL_A7 % 1 1 !
 CONST RHOMBOHEDRAL_A7 : SB : !
$
$ Prototype Sb2Sm (oC24, Cmce)
$
 PHASE SB2TB % 2 2 1 !
 CONST SB2TB : SB : TB : !
$
$ Prototype NaCl (cF8, Fm-3m), low T
$
 PHASE SBTB_B1 % 2 1 1 !
 CONST SBTB_B1 : SB : TB : !
$
$ unknown structure
$
 PHASE SBTB_BETA % 2 1 1 !
 CONST SBTB_BETA : SB : TB : !
$
$ Prototype Th3P4 (cI28, I-43d), low T
$
 PHASE SB3TB4_D73 % 2 3 4 !
 CONST SB3TB4_D73 : SB : TB : !
$
$ unknown structure
$
 PHASE SB3TB4_BETA % 2 3 4 !
 CONST SB3TB4_BETA : SB : TB : !
$
$ Prototype Mn5Si3 (hP16, P6_3/mcm)
$
 PHASE SB3TB5_D88 % 2 3 5 !
 CONST SB3TB5_D88 : SB : TB : !
$ ------------------------------------------------------------------------------
$ Defaults
$
 DEFINE-SYSTEM-DEFAULT ELEMENT 2 !
 DEFAULT-COM DEFINE_SYSTEM_ELEMENT VA !
 TYPE-DEF % SEQ * !
 TYPE-DEF A GES AMEND_PHASE_DESCRIPTION @ MAGNETIC -3 0.28 !
 TYPE-DEF B GES AMEND_PHASE_DESCRIPTION @ MAGNETIC -1 0.4 !
 FUNCTION ZERO      298.15  0;                                         6000 N !
 FUNCTION UN_ASS    298.15  0;                                         6000 N !
 FUNCTION R         298.15  +8.31451;                                  6000 N !
$ ------------------------------------------------------------------------------
$ Element data
$ ------------------------------------------------------------------------------
$ Sb
$
$ BCT_A5 revised in unary 3.0
$
$ BCT_A5 the value from 91Din is used in LBall-v7+fun.tdb.
$ BCT_A5 the value from 96SGUN is used in SGSOL 5.0.
$ It is only needed in Sb-Sn.
$
 PAR  G(RHOMBOHEDRAL_A7,SB),,           +GHSERSB;                2000 N 91Din !
 PAR  G(FCC_A1,SB:VA),,                 +GHSERSB+19874-13.7*T;   2000 N 91Din !
 PAR  G(BCC_A2,SB:VA),,                 +GHSERSB+19874-15.1*T;   2000 N 91Din !
 PAR  G(HCP_A3,SB:VA),,                 +GHSERSB+19874-13*T;     2000 N 91Din !
$PAR  G(BCT_A5,SB),,                    +GHSERSB+13000-8*T;      2000 N 96SGUN !
$PAR  G(BCT_A5,SB),,                    +GHSERSB+1000;           2000 N 91Din !
 PAR  G(LIQUID,SB),,                    +GLIQSB;                 2000 N 91Din !
$
 FUNCTION GHSERSB   298.15  -9242.858+156.154689*T-30.5130752*T*LN(T)
       +0.007748768*T**2-3.003415E-06*T**3+100625*T**(-1);
       903.78  Y  -11738.83+169.485872*T-31.38*T*LN(T)+1.616849E+27*T**(-9);
      2000.00  N !
 FUNCTION GLIQSB    298.15  +19822.328-21.923164*T+GHSERSB-1.74847E-20*T**7;
       903.78  Y  +8175.359+147.455986*T-31.38*T*LN(T);
      2000.00  N !
$ ------------------------------------------------------------------------------
$ Tb
$
 PAR  G(HCP_A3,TB:VA),,                 +GHSERTB;                3000 N 91Din !
 PAR  G(BCC_A2,TB:VA),,                 +GBCCTB;                 3000 N 91Din !
 PAR  G(LIQUID,TB),,                    +GLIQTB;                 3000 N 91Din !
$
 FUNCTION GHSERTB   298.15  -20842.158+409.309555*T-77.5006*T*LN(T)
       +0.0832265*T**2-2.5672833E-05*T**3+562430*T**(-1);
       600.00  Y  -8772.606+102.61162*T-25.8659*T*LN(T)
       -0.002757005*T**2-8.05838E-07*T**3+172355*T**(-1);
      1200.00  Y  -7944.942+101.7776*T-25.9584*T*LN(T)
       -0.001676335*T**2-1.067632E-06*T**3;
      1562.00  Y  -265240.309+1456.04268*T-200.215695*T*LN(T)
       +0.041615159*T**2-2.044697E-06*T**3+65043790*T**(-1);
      3000.00  N !
 FUNCTION GBCCTB    298.15  +4167.835-2.652707*T+GHSERTB;
      1200.00  Y  +633060.245-5157.77779*T+706.580596*T*LN(T)
       -0.373763517*T**2+3.4100235E-05*T**3-1.03233571E+08*T**(-1);
      1562.00  Y  -23398.029+257.388486*T-46.4842*T*LN(T);
      3000.00  N !
 FUNCTION GLIQTB    298.15  +3945.831+29.867521*T-14.252646*T*LN(T)
       -0.020466105*T**2+2.17475E-06*T**3-160724*T**(-1);
      1562.00  Y  -13247.649+251.16889*T-46.4842*T*LN(T);
      3000.00  N !
$ ------------------------------------------------------------------------------
$ Binary system
$
$ F. Gao, S.L. Wang, C.P. Wang, X.J. Liu, Calphad, 37, 158-62(2012).
$
$ Checked against paper and author's tdb. Checked at 6000 K.
$
 PAR  L(LIQUID,SB,TB;0),,               -250300-5*T;,,                N 12Gao !
 PAR  L(LIQUID,SB,TB;1),,               -23600+40*T;,,                N 12Gao !
 PAR  L(LIQUID,SB,TB;2),,               +81200-13*T;,,                N 12Gao !
 PAR  L(LIQUID,SB,TB;3),,               -29000;,,                     N 12Gao !
$
 PAR  L(BCC_A2,SB,TB:VA;0),,            -202740;,,                    N 12Gao !
 PAR  L(HCP_A3,SB,TB:VA;0),,            -196800;,,                    N 12Gao !
$
 PAR  G(SB2TB,SB:TB),,                  +2*GHSERSB+GHSERTB
             -251780+31.59*T;,,                                       N 12Gao !
 PAR  G(SBTB_B1,SB:TB),,                +GHSERSB+GHSERTB
             -229036.5+12.06*T;,,                                     N 12Gao !
 PAR  G(SBTB_BETA,SB:TB),,              +GHSERSB+GHSERTB
             -227970+11.56*T;,,                                       N 12Gao !
 PAR  G(SB3TB4_D73,SB:TB),,             +3*GHSERSB+4*GHSERTB
             -735936.5+39.34*T;,,                                     N 12Gao !
 PAR  G(SB3TB4_BETA,SB:TB),,            +3*GHSERSB+4*GHSERTB
             -735000+38.84*T;,,                                       N 12Gao !
 PAR  G(SB3TB5_D88,SB:TB),,             +3*GHSERSB+5*GHSERTB
             -760798+36.33*T;,,                                       N 12Gao !
$ ------------------------------------------------------------------------------
$
$
 LIST-OF-REFERENCE
 NUMBER  SOURCE
  Null   'Unknown source'
  Same   'Same or similar interaction as in the corresponding stable phase'
  COST   'COST 507 database'
  91Din  'A.T. Dinsdale, Calphad, 15, 317-425(1991).'
  96SGUN 'SGTE unary database V.3.0, 1996.'
  12Gao  'F. Gao, S.L. Wang, C.P. Wang, X.J. Liu,
          Calphad, 37, 158-62(2012); Sb-Tb'
!
