$
$ Database for Ca-O from W. Abdul et al. 2023.
$
$ W. Abdul, C. Mawalala, A. Pisch, M.N. Bannerman,
$ Cem. Concr. Res., 173, 107309(2023).
$
$ Dataset created 2024.07.17 by Bengt Hallstedt.
$
$ Modified from 20Def. Modified Gibbs energies for solid and liquid CaO.
$
$ 3rd generation models are used for solid and liquid CaO and solid CaO2.
$
$ More recent gas phase data are used in the paper than in the present dataset.
$ Gas phase equilibria are up to 25 K higher with this dataset.
$
$ An associate model is used in the paper. This is included here and also
$ converted to an ionic liquid model.
$
$ The selected melting point for CaO is 3222 K, which is the same as in 98Lia
$ and slightly higher than the previous (in 96Sel) 3172 K.
$
$ ------------------------------------------------------------------------------
 TEMP-LIM 298.15 6000.00 !
$
$ELEMENT NAME  REF. STATE               ATOMIC MASS H298-H0    S298    !
$
 ELEMENT /-   ELECTRON_GAS                0.0          0.0      0.0    ! 
 ELEMENT VA   VACUUM                      0.0          0.0      0.0    ! 
 ELEMENT CA   FCC_A1                     40.08      5736.0     41.588  ! 
 ELEMENT O    1/2_MOLE_O2(G)             15.999     4341.0    102.52   ! 
$ ------------------------------------------------------------------------------
$ Species
$
 SPECIE  CA+2                               CA1/+2 !
 SPECIE  CA2                                CA2 !
 SPECIE  CAO                                CA1O1 !
 SPECIE  O-2                                O/-2 !
 SPECIE  O2-2                               O2/-2 !
 SPECIE  O2                                 O2 !
 SPECIE  O3                                 O3 !
$ ------------------------------------------------------------------------------
$ Phase definitions
$
 PHASE ION:Y % 2 1 1 !
 CONST ION:Y : CA+2 : O-2 VA O : !
$
 PHASE LIQUID:L % 1 1 !
 CONST LIQUID:L : CA CAO O : !
$
$ Fcc (cF4, Fm-3m) and MeX (cF8, Fm-3m)
$
 PHASE FCC_A1 %A 2 1 1 !
 CONST FCC_A1 : CA% O : VA : !
$
$ Bcc (cI2, Im-3m)
$
 PHASE BCC_A2 %B 2 1 3 !
 CONST BCC_A2 : CA% O : VA : !
$
$ Hcp (hP2, P6_3/mmc) and Me2X (NiAs-type, hP4, P6_3/mmc, B8_1)
$
 PHASE HCP_A3 %A 2 1 0.5 !
 CONST HCP_A3 : CA O : VA : !
$
$ Prototype NaCl (cF8, Fm-3m)
$
 PHASE B1_OXIDE:I % 2 1 1 !
 CONST B1_OXIDE:I : CA+2 : O-2 : !
$
$ Prototype CaC2 (tI6, I4/mmm), C11_a, barium peroxide
$
 PHASE CAO2_C11A:I % 2 1 1 !
 CONST CAO2_C11A:I : CA+2 : O2-2 : !
$
 PHASE GAS:G % 1 1 !
 CONST GAS:G : CA CA2 CAO O O2% O3 : !
$
 PHASE O2GAS % 1 1 !
 CONST O2GAS : O2 : !
$ ------------------------------------------------------------------------------
$ Defaults
$
 DEFINE-SYSTEM-DEFAULT ELEMENT 2 !
 DEFAULT-COM DEFINE_SYSTEM_ELEMENT VA /- !
 DEFAULT-COM REJECT_PHASE ION !
 TYPE-DEF % SEQ * !
 TYPE-DEF A GES AMEND_PHASE_DESCRIPTION @ MAGNETIC -3 0.28 !
 TYPE-DEF B GES AMEND_PHASE_DESCRIPTION @ MAGNETIC -1 0.4 !
 FUNCTION ZERO      298.15  0;                                         6000 N !
 FUNCTION UN_ASS    298.15  0;                                         6000 N !
 FUNCTION R         298.15  +8.31451;                                  6000 N !
 FUNCTION RTLNP     298.15  +8.31451*T*LN(1E-05*P);                    6000 N !
$ ------------------------------------------------------------------------------
$ Element data
$ ------------------------------------------------------------------------------
$ Ca
$
$ FCC_A1, BCC_A2, HCP_A3 and LIQUID modified in unary 5.0
$ (upper T interval added + trailing decimals added)
$
 PAR  G(FCC_A1,CA:VA),,                 +GHSERCA;                3001 N 91Din !
 PAR  G(BCC_A2,CA:VA),,                 +GBCCCA;                 3001 N 91Din !
 PAR  G(HCP_A3,CA:VA),,                 +GHSERCA+500+0.7*T;      3001 N 91Din !
 PAR  G(LIQUID,CA),,                    +GLIQCA;                 3001 N 91Din !
$ 
 PAR  G(ION,CA+2:VA),,                  +GLIQCA;                 3000 N 91Din !
$
 PAR  G(GAS,CA;0),,                     +F2131T+RTLNP;,,              N 92SUB !
 PAR  G(GAS,CA2;0),,                    +F2293T+RTLNP;,,              N 92SUB !
$
 FUNCTION GHSERCA   298.15  -4955.062+72.794266*T-16.3138*T*LN(T)
       -0.01110455*T**2-133574*T**(-1);
      1115.00  Y  -107304.428+799.982066*T-114.2922467*T*LN(T)
       +0.023733814*T**2-1.2438E-06*T**3+18245540*T**(-1);
      3000.00  Y  -3703.12+192.63995*T-35.0*T*LN(T);
      3001.00  N !
 FUNCTION GBCCCA    298.15  -7020.852+142.970155*T-28.2541*T*LN(T)
       +0.0072326*T**2-4.500217E-06*T**3+60578*T**(-1);
       716.00  Y  +1640.475+1.999694*T-6.276*T*LN(T)
       -0.0161921*T**2-523000*T**(-1);
      1115.00  Y  -142331.096+1023.549046*T-143.8726979*T*LN(T)
       +0.032543127*T**2-1.704079E-06*T**3+25353771*T**(-1);
      3000.00  Y  +321.63+189.433057*T-35*T*LN(T);
      3001.00  N !
 FUNCTION GLIQCA    298.15  +10799.908-10.310466*T+GHSERCA;
       500.00  Y  +7838.856+18.2979*T-8.9874787*T*LN(T)
       -0.02266537*T**2+3.338303E-06*T**3-230193*T**(-1);
      1115.00  Y  -2654.938+188.9223*T-35*T*LN(T);
      3001.00  N !
$ Ca(g) :
 FUNCTION F2131T    298.15  +173087.021-15.5575325*T-20.786112*T*LN(T);
      1300.00  Y  +172997.956+5588.5688*T**(-1)-13.9593335*T
       -21.0345161*T*LN(T)+2.38213948E-04*T**2-3.64413151E-08*T**3;
      2000.00  Y  +134081.53+9296659.72*T**(-1)+218.694199*T
       -51.8849472*T*LN(T)+0.0111923674*T**2-7.70260453E-07*T**3;
      3600.00  Y  +672690.384-2.35270504E+08*T**(-1)-1610.06137*T
       +171.348607*T*LN(T)-0.0300833784*T**2+6.66115115E-07*T**3;
      4800.00  Y  +672623.642-2.1604084E+08*T**(-1)-1685.46289*T
       +181.445018*T*LN(T)-0.032908206*T**2+7.77184973E-07*T**3;
      6000.00  N !
$ Ca2(g) :
 FUNCTION F2293T    298.15  +331036.623+118736.69*T**(-1)+92.462223*T
       -54.080292*T*LN(T)+0.0271296836*T**2-5.73392096E-06*T**3;
       600.00  Y  +340712.213-633424.128*T**(-1)-59.9992293*T
       -30.2654661*T*LN(T)+5.18998004E-04*T**2-4.10068261E-08*T**3;
      2200.00  Y  +343774.134-1755137.79*T**(-1)-73.0668827*T
       -28.6059243*T*LN(T)+6.54369232E-05*T**2-1.34699696E-08*T**3;
      6000.00  N !
$ ------------------------------------------------------------------------------
$ O
$
$ GHSEROO modified in unary 3.0
$
$ FCC_A1, BCC_A2 and HCP_A3 from 18Lia2 not included in unary
$
 PAR  G(O2GAS,O2),,                     +2*GHSEROO+RTLNP;,,           N 91Din !
 PAR  G(LIQUID,O),,                     +GHSEROO-2648.9+31.44*T;,,    N 91Din !
 PAR  G(FCC_A1,O:VA),,                  +GLIQOO+10000;,,              N 18Lia2 !
 PAR  G(BCC_A2,O:VA),,                  +GLIQOO+10000;,,              N 18Lia2 !
 PAR  G(HCP_A3,O:VA),,                  +GLIQOO+10000;,,              N 18Lia2 !
$ 
 PAR  G(ION,O),,                        +GLIQOO;,,                    N 91Din !
$
 PAR  G(GAS,O),,                        +O1G+RTLNP;,,                 N 00SUB !
 PAR  G(GAS,O2),,                       +2*GHSEROO+RTLNP;,,           N 91Din !
 PAR  G(GAS,O3),,                       +O3G+RTLNP;,,                 N 00SUB !
$
 FUNCTION GLIQOO    298.15  +GHSEROO-2648.9+31.44*T;                   6000 N !
$ 1/2 O2(g)
 FUNCTION GHSEROO   298.15  -3480.87-25.503038*T-11.1355*T*LN(T)
       -0.005098875*T**2+6.61845833E-07*T**3-38365*T**(-1);
      1000.00  Y  -6568.763+12.659879*T-16.8138*T*LN(T)
       -5.957975E-04*T**2+6.781E-09*T**3+262905*T**(-1);
      3300.00  Y  -13986.728+31.259624*T-18.9536*T*LN(T)
       -4.25243E-04*T**2+1.0721E-08*T**3+4383200*T**(-1);
      6000.00  N !
$ O(g)
 FUNCTION O1G       298.15  +243206.494-20.8612587*T-21.01555*T*LN(T)
       +1.2687055E-04*T**2-1.23131283E-08*T**3-42897.09*T**(-1);
      2950.00  Y  +252301.423-52.0847285*T-17.21188*T*LN(T)
       -5.413565E-04*T**2+7.64520667E-09*T**3-3973170.5*T**(-1);
      6000.00  N !
$ O3(g)
 FUNCTION O3G       298.15  +130696.944-37.9096651*T-27.58118*T*LN(T)
     -0.02763076*T**2+4.60539333E-06*T**3+99530.45*T**(-1);
     700.00  Y  +114760.623+176.626736*T-60.10286*T*LN(T)
     +0.00206456*T**2-5.17486667E-07*T**3+1572175*T**(-1);
    1300.00  Y  +49468.3958+710.094819*T-134.3696*T*LN(T)
     +0.039707355*T**2-4.10457667E-06*T**3+12362250*T**(-1);
    2100.00  Y  +866367.075-3566.80563*T+421.2001*T*LN(T)
     -0.1284109*T**2+5.44768833E-06*T**3-2.1304835E+08*T**(-1);
    2800.00  Y  +409416.384-1950.70834*T+223.4437*T*LN(T)
     -0.0922361*T**2+4.306855E-06*T**3-21589870*T**(-1);
    3500.00  Y  -1866338.6+6101.13383*T-764.8435*T*LN(T)
     +0.09852775*T**2-2.59784667E-06*T**3+9.610855E+08*T**(-1);
    4900.00  Y  +97590.0432+890.79836*T-149.9608*T*LN(T)
     +0.01283575*T**2-3.555105E-07*T**3-2.1699975E+08*T**(-1);
    6000.00  N !
$ ------------------------------------------------------------------------------
$ Binary system
$
$ W. Abdul, C. Mawalala, A. Pisch, M.N. Bannerman,
$ Cem. Concr. Res., 173, 107309(2023).
$
$ Checked against paper and author's tdb.
$
$ Modified from 20Def. Modified Gibbs energies for solid and liquid CaO.
$
$ 3rd generation models are used for solid and liquid CaO and solid CaO2.
$
$ More recent gas phase data are used in the paper than in the present dataset.
$ Gas phase equilibria are up to 25 K higher with this dataset.
$
$ An associate model is used in the paper. This is included here and also
$ converted to an ionic liquid model.
$
$ The selected melting point for CaO is 3222 K, which is the same as in 98Lia
$ and slightly higher than the previous (in 96Sel) 3172 K.
$
$ R=8.31446 (CODTA 2018) has been used in the equations below.
$
 PAR  G(ION,CA+2:O-2),,                 +2*GCAOLIQ;,,                 N 23Abd !
 PAR  L(ION,CA+2:O-2,VA;0),,            -19250+24.6*T;,,              N 20Def !
 PAR  L(ION,CA+2:O-2,O;0),,             +60*T;,,                      N 20Def !
$
 PAR  G(LIQUID,CAO),,                   +GCAOLIQ;,,                   N 23Abd !
 PAR  L(LIQUID,CA,CAO;0),,              -9625+12.3*T;,,               N 20Def !
 PAR  L(LIQUID,CAO,O;0),,               +30*T;,,                      N 20Def !
$
 PAR  G(B1_OXIDE,CA+2:O-2),,            +GCAOSOL;,,                   N 23Abd !
 PAR  G(CAO2_C11A,CA+2:O2-2),,          +GCAO2SOL;,,                  N 20Def !
$
 PAR  G(GAS,CAO),,                      +F2235T+RTLNP;,,              N 92SUB !
$
 FUNCTION GCAOSOL     1.00  -641354.2-0.5*CAO_S_P2*T**2
       -CAO_S_P4**(-1)*CAO_TEXP+CAO_EIN;
      3222.00  Y  -727925.8+486.1936*T+80.5*UNLNT*T+CAO_HT**(-1);
      6000.00  N !
 FUNCTION GCAO2SOL    1.00  -676359.7+CAO2_EIN;                        6000 N !
 FUNCTION GCAOLIQ     1.00  -602797.1-0.5*CAO_L_P2*T**2
       +CAOL_EIN-2*R*T*LN(CAO_L_EX);
      6000.00  N !
$
 FUNCTION UNLNT       1.00  +1-LN(T);                                  6000 N !
 FUNCTION CAO_TEXP    1.00  +CAO_S_P4**(-1)*EXP(CAO_PEXP);             6000 N !
 FUNCTION CAO_PEXP    1.00  +CAO_S_P3+CAO_S_P4*T;                      6000 N !
 FUNCTION CAO_HT      1.00  +2*CAO_S_O5**2*CAO_FHT;                    6000 N !
 FUNCTION CAO_FHT     1.00  +CAO_S_O4+CAO_S_O5*T;                      6000 N !
 FUNCTION CAO_S_P2    1.00  +0.00348901;                               6000 N !
 FUNCTION CAO_S_P3    1.00  -14.85295;                                 6000 N !
 FUNCTION CAO_S_P4    1.00  +0.00298095;                               6000 N !
 FUNCTION CAO_EIN     1.00  +24.94338*CAO_S_C1*T*LN(CAO_S_F1)
       +24.94338*CAO_S_C2*T*LN(CAO_S_F2)
       +24.94338*CAO_S_C3*T*LN(CAO_S_F3);
      6000.00  N !
 FUNCTION CAO_S_E1    1.00  598.373;                                   6000 N !
 FUNCTION CAO_S_C1    1.00  1.001523;                                  6000 N !
 FUNCTION CAO_S_E2    1.00  314.827;                                   6000 N !
 FUNCTION CAO_S_C2    1.00  0.946536;                                  6000 N !
 FUNCTION CAO_S_E3    1.00  125.128;                                   6000 N !
 FUNCTION CAO_S_C3    1.00  0.051934;                                  6000 N !
 FUNCTION CAO_S_F1    1.00  +1-EXP(-CAO_S_E1*T**(-1));                 6000 N !
 FUNCTION CAO_S_F2    1.00  +1-EXP(-CAO_S_E2*T**(-1));                 6000 N !
 FUNCTION CAO_S_F3    1.00  +1-EXP(-CAO_S_E3*T**(-1));                 6000 N !
 FUNCTION CAO_S_O4    1.00  -281.813;                                  6000 N !
 FUNCTION CAO_S_O5    1.00  +0.09083109;                               6000 N !
$
 FUNCTION CAO2_EIN    1.00
       +12.47169*CAO2_E1*CAO2_C1+24.94338*CAO2_C1*T*LN(CAO2_F1)
       +12.47169*CAO2_E2*CAO2_C2+24.94338*CAO2_C2*T*LN(CAO2_F2)
       +12.47169*CAO2_E3*CAO2_C3+24.94338*CAO2_C3*T*LN(CAO2_F3);
      6000.00  N !
 FUNCTION CAO2_E1     1.00  398.195;                                   6000 N !
 FUNCTION CAO2_C1     1.00  2.04814;                                   6000 N !
 FUNCTION CAO2_E2     1.00  184.418;                                   6000 N !
 FUNCTION CAO2_C2     1.00  0.45973;                                   6000 N !
 FUNCTION CAO2_E3     1.00  954.326;                                   6000 N !
 FUNCTION CAO2_C3     1.00  0.56518;                                   6000 N !
 FUNCTION CAO2_F1     1.00  +1-EXP(-CAO2_E1*T**(-1));                  6000 N !
 FUNCTION CAO2_F2     1.00  +1-EXP(-CAO2_E2*T**(-1));                  6000 N !
 FUNCTION CAO2_F3     1.00  +1-EXP(-CAO2_E3*T**(-1));                  6000 N !
$
 FUNCTION CAO_L_P2    1.00  +0.00368372;                               6000 N !
 FUNCTION CAOL_EIN    1.00  +24.94338*CAO_L_C1*T*LN(CAO_L_F1)
       +24.94338*CAO_L_C2*T*LN(CAO_L_F2);
      6000.00  N !
 FUNCTION CAO_L_E1    1.00  629.276;                                   6000 N !
 FUNCTION CAO_L_C1    1.00  1.002337;                                  6000 N !
 FUNCTION CAO_L_E2    1.00  234.058;                                   6000 N !
 FUNCTION CAO_L_C2    1.00  0.997654;                                  6000 N !
 FUNCTION CAO_L_F1    1.00  +1-EXP(-CAO_L_E1*T**(-1));                 6000 N !
 FUNCTION CAO_L_F2    1.00  +1-EXP(-CAO_L_E2*T**(-1));                 6000 N !
 FUNCTION CAO_L_EX    1.00  +1+EXP(CAO_GDRT);                          6000 N !
 FUNCTION CAO_GDRT    1.00  +0.120272355*CAO_GDIF*T**(-1);             6000 N !
 FUNCTION CAO_GDIF    1.00  -63019.6+6.2358*T+0.99714*T*LN(T);         6000 N !
$
$ CaO(g) :
 FUNCTION F2235T    298.15  +33470.3914+89036.566*T**(-1)-4.24066723*T
       -31.527235*T*LN(T)-0.0058339604*T**2+1.02056825E-06*T**3;
       800.00  Y  +17473.6658+1829859.85*T**(-1)+184.18695*T
       -59.448364*T*LN(T)+0.0161848208*T**2-2.29953337E-06*T**3;
      1800.00  Y  +265033.997-54390326.4*T**(-1)-1354.60539*T
       +145.754661*T*LN(T)-0.0597157216*T**2+2.9855978E-06*T**3;
      3000.00  Y  -503699.701+2.29835488E+08*T**(-1)+1769.20442*T
       -245.333024*T*LN(T)+0.0289800576*T**2-7.96787013E-07*T**3;
      4500.00  Y  +15414.741-63575670.8*T**(-1)+317.241418*T
       -72.7559944*T*LN(T)+0.00342590104*T**2-8.57608427E-08*T**3;
      6000.00  N !
$ ------------------------------------------------------------------------------
$
$
 LIST-OF-REFERENCE
 NUMBER  SOURCE
  Null   'Unknown source'
  Same   'Same or similar interaction as in the corresponding stable phase'
  REFLAV 'Laves phase convention: G(LAVES,X:X)=+3*GHSERXX+15000'
  91Din  'A.T. Dinsdale, Calphad, 15, 317-425(1991).'
  92SUB  'SGTE substance database, version 1992'
  00SUB  'SGTE substance database, version 2000'
  18Lia2 'S.-M. Liang, R. Schmid-Fetzer,
          J. Eur. Ceram. Soc., 38, 4768-85(2018); O'
  20Def  'G. Deffrennes, N. Jakse, C.M.S. Alvares, I. Nuta, A. Pasturel,
          A.V. Khvan, A. Pisch, Calphad, 69, 101764(2020); Ca-O'
  23Abd  'W. Abdul, C. Mawalala, A. Pisch, M.N. Bannerman,
          Cem. Concr. Res., 173, 107309(2023); Ca-O'
!
