$
$ Database for La-C from Y. Peng et al. 2011
$
$ Y. Peng, Y. Du, L. Zhang, C. Sha, S. Liu, F. Zheng, D. Zhao, X. Yuan, L. Chen,
$ Calphad, 35, 533-41(2011).
$
$ Dataset created 2016.09.25 by Bengt Hallstedt.
$ 2019.10.28: Modified for use with GES6.
$
$ This dataset reproduces the results from the author's own tdb, but not quite
$ the invariant equilibria given in the paper. The invariant equilibria and
$ the phase diagram in the paper appear to have been calculated with a
$ different set of parameters than those given in the paper and included
$ in the submitted tdb.
$
$ There is a "gap" between LAC2_C11A and LAC2_BETA where LA2C3_D5C is in
$ equilibrium with graphite. This suggests that the modelling of these three
$ phases is not good.
$
$ There is an inverse miscibility gap with a minimum at 5124 K and x(C)=0.23.
$
$ ------------------------------------------------------------------------------
 TEMP-LIM 298.15 6000.00 !
$
$ELEMENT NAME  REF. STATE               ATOMIC MASS H298-H0    S298    !
$
 ELEMENT VA   VACUUM                      0.0          0.0      0.0    ! 
 ELEMENT C    GRAPHITE_A9                12.011     1054.0      5.7423 ! 
 ELEMENT LA   DHCP                      138.9055    6665.112   56.9024 ! 
$ ------------------------------------------------------------------------------
$ Phase definitions
$
 PHASE LIQUID:L % 1 1 !
 CONST LIQUID:L : C LA : !
$
$ Fcc (cF4, Fm-3m) and MeX (cF8, Fm-3m)
$
 PHASE FCC_A1 %A 2 1 1 !
 CONST FCC_A1 : LA : C VA% : !
$
$ Bcc (cI2, Im-3m)
$
 PHASE BCC_A2 %B 2 1 3 !
 CONST BCC_A2 : LA : C VA% : !
$
$ Prototype alpha-La (SB A3', hP4, P6_3/mmc)
$
 PHASE DHCP % 1 1 !
 CONST DHCP : LA : !
$
$ Prototype C (cF8, Fd-3m)
$
 PHASE DIAMOND_A4 % 1 1 !
 CONST DIAMOND_A4 : C : !
$
$ Prototype C (hP4, P6_3/mmc)
$
 PHASE GRAPHITE_A9 % 1 1 !
 CONST GRAPHITE_A9 : C : !
$
$ Prototype Pu2C3 (cI40, I-43d)
$
 PHASE LA2C3_D5C % 2 2 3 !
 CONST LA2C3_D5C : LA : C% VA : !
$
$ Prototype CaC2 (tI6, I4/mmm), alpha
$
 PHASE LAC2_C11A % 2 1 2 !
 CONST LAC2_C11A : LA : C : !
$
$ Prototype CaC2 (cF36, Fm-3m), beta
$
 PHASE LAC2_BETA % 2 1 2 !
 CONST LAC2_BETA : LA : C% VA : !
$ ------------------------------------------------------------------------------
$ Defaults
$
 DEFINE-SYSTEM-DEFAULT ELEMENT 2 !
 DEFAULT-COM DEFINE_SYSTEM_ELEMENT VA !
 TYPE-DEF % SEQ * !
 TYPE-DEF A GES AMEND_PHASE_DESCRIPTION @ MAGNETIC -3 0.28 !
 TYPE-DEF B GES AMEND_PHASE_DESCRIPTION @ MAGNETIC -1 0.4 !
 FUNCTION ZERO      298.15  0;                                         6000 N !
 FUNCTION UN_ASS    298.15  0;                                         6000 N !
 FUNCTION R         298.15  +8.31451;                                  6000 N !
$ ------------------------------------------------------------------------------
$ Element data
$ ------------------------------------------------------------------------------
$ C
$
 PAR  G(GRAPHITE_A9,C),,                +GHSERCC;,,                   N 91Din !
 PAR  G(DIAMOND_A4,C),,                 +GDIACC;,,                    N 91Din !
 PAR  G(LIQUID,C),,                     +GHSERCC+117369-24.63*T;,,    N 91Din !
$
 FUNCTION GHSERCC   298.15  -17368.441+170.73*T-24.3*T*LN(T)
       -4.723E-04*T**2+2562600*T**(-1)-2.643E+08*T**(-2)+1.2E+10*T**(-3);
      6000.00  N !
 FUNCTION GDIACC    298.15  -16359.441+175.61*T-24.31*T*LN(T)
       -4.723E-04*T**2+2698000*T**(-1)-2.61E+08*T**(-2)+1.11E+10*T**(-3);
      6000.00  N !
$ ------------------------------------------------------------------------------
$ La
$
 PAR  G(DHCP,LA),,                      +GHSERLA;                4000 N 91Din !
 PAR  G(FCC_A1,LA:VA),,                 +GFCCLA;                 4000 N 91Din !
 PAR  G(BCC_A2,LA:VA),,                 +GBCCLA;                 4000 N 91Din !
 PAR  G(LIQUID,LA),,                    +GLIQLA;                 4000 N 91Din !
$
 PAR  G(LA2C3_D5C,LA:VA),,              +2*GHSERLA+100000;,,          N 11Pen !
 PAR  G(LAC2_BETA,LA:VA),,              +GHSERLA+60000;,,             N 11Pen !
$
 FUNCTION GHSERLA   298.15  -7968.403+120.284604*T-26.34*T*LN(T)
       -0.001295165*T**2;
       550.00  Y  -3381.413+59.06113*T-17.1659411*T*LN(T)
       -0.008371705*T**2+6.8932E-07*T**3-399448*T**(-1);
      2000.00  Y  -15608.882+181.390071*T-34.3088*T*LN(T);
      4000.00  N !
 FUNCTION GFCCLA    298.15  -6109.797+89.878761*T-21.7919*T*LN(T)
       -0.004045175*T**2-5.25865E-07*T**3;
      1134.00  Y  -124598.976+955.878375*T-139.346741*T*LN(T)
       +0.042032405*T**2-3.066199E-06*T**3+20994153*T**(-1);
      2000.00  Y  +3009.496-2.846081*T+GHSERLA;
      4000.00  N !
 FUNCTION GBCCLA    298.15  -3952.161+88.072353*T-21.7919*T*LN(T)
       -0.004045175*T**2-5.25865E-07*T**3;
       800.00  Y  +321682.673-3565.08252*T+513.440708*T*LN(T)
       -0.387295093*T**2+4.9547989E-05*T**3-36581228*T**(-1);
      1134.00  Y  -16377.894+218.492988*T-39.5388*T*LN(T);
      1193.00  Y  -136609.91+1123.34397*T-163.413074*T*LN(T)
       +0.053968535*T**2-4.056395E-06*T**3+21167204*T**(-1);
      2000.00  Y  +7402.894-6.553756*T+GHSERLA;
      4000.00  N !
 FUNCTION GLIQLA    298.15  +5332.653+18.23012*T-11.0188191*T*LN(T)
       -0.020171603*T**2+2.93775E-06*T**3-133541*T**(-1);
      1134.00  Y  -3942.004+171.018431*T-34.3088*T*LN(T);
      4000.00  N !
$ ------------------------------------------------------------------------------
$ Binary system
$
$ Y. Peng, Y. Du, L. Zhang, C. Sha, S. Liu, F. Zheng, D. Zhao, X. Yuan, L. Chen,
$ Calphad, 35, 533-41(2011).
$
$ Checked against paper. Checked at 6000K.
$
$ This dataset reproduces the results from the author's own tdb, but not quite
$ the invariant equilibria given in the paper. The invariant equilibria and
$ the phase diagram in the paper appear to have been calculated with a
$ different set of parameters than those given in the paper and included
$ in the submitted tdb.
$
$ There is a "gap" between LAC2_C11A and LAC2_BETA where LA2C3_D5C is in
$ equilibrium with graphite. This suggests that the modelling of these three
$ phases is not good.
$
$ There is an inverse miscibility gap with a minimum at 5124 K and x(C)=0.23.
$
 PAR  L(LIQUID,C,LA;0),,                -259436.3+30*T;,,             N 11Pen !
 PAR  L(LIQUID,C,LA;1),,                -159860;,,                    N 11Pen !
 PAR  L(LIQUID,C,LA;2),,                -44046.6;,,                   N 11Pen !
$
 PAR  G(FCC_A1,LA:C),,                  +GFCCLA+GHSERCC-17285.4;,,    N 11Pen !
 PAR  G(BCC_A2,LA:C),,                  +GBCCLA+3*GHSERCC-16364.8;,,  N 11Pen !
$
 PAR  G(LA2C3_D5C,LA:C),,               +5*GLA2C3;,,                  N 11Pen !
 PAR  L(LA2C3_D5C,LA:C,VA;0),,          -110000+62.5*T;,,             N 11Pen !
$
 PAR  G(LAC2_C11A,LA:C),,               +GHSERLA+2*GHSERCC
             -86529.6+15*T;,,                                         N 11Pen !
$
 PAR  G(LAC2_BETA,LA:C),,               +GHSERLA+2*GHSERCC
             -17242.8-35.4*T;,,                                       N 11Pen !
 PAR  L(LAC2_BETA,LA:C,VA;0),,          -94552.8+42.3*T;,,            N 11Pen !
$
 FUNCTION GLA2C3    298.15  -37840.1+120.6*T-20.47*T*LN(T)
       -0.00414*T**2+97303.5*T**(-1);
      6000.00  N !
$ ------------------------------------------------------------------------------
$
$
 LIST-OF-REFERENCE
 NUMBER  SOURCE
  Null   'Unknown source'
  Same   'Same or similar interaction as in the corresponding stable phase'
  REFLAV 'Laves phase convention: G(LAVES,X:X)=+3*GHSERXX+15000'
  COST   'COST 507 database'
  91Din  'A.T. Dinsdale, Calphad, 15, 317-425(1991).'
  11Pen  'Y. Peng, Y. Du, L. Zhang, C. Sha, S. Liu, F. Zheng, D. Zhao, X. Yuan,
          L. Chen, Calphad, 35, 533-41(2011); La-C'
!
