$
$ Database for In-Yb from F. Gao et al. 2011
$
$ F. Gao, S.L. Wang, C.P. Wang, X.J. Liu, Calphad, 35, 1-5(2011).
$
$ Dataset created 2016.04.17 by Bengt Hallstedt.
$ 2021.01.17: Modified for use with GES6.
$
$ ------------------------------------------------------------------------------
 TEMP-LIM 298.15 6000.00 !
$
$ELEMENT NAME  REF. STATE               ATOMIC MASS H298-H0    S298    !
$
 ELEMENT VA   VACUUM                      0.0          0.0      0.0    ! 
 ELEMENT IN   TETRAGONAL_A6             114.82      6610.0     57.65   ! 
 ELEMENT YB   FCC_A1                    173.04      6711.136   59.8312 ! 
$ ------------------------------------------------------------------------------
$ Phase definitions
$
 PHASE LIQUID:L % 1 1 !
 CONST LIQUID:L : IN YB : !
$
$ Fcc (cF4) and MeX (cF8)
$
 PHASE FCC_A1 %A 2 1 1 !
 CONST FCC_A1 : IN YB% : VA : !
$
$ Bcc (cI2, Im-3m)
$
 PHASE BCC_A2 %B 2 1 3 !
 CONST BCC_A2 : IN YB% : VA : !
$
$ Hcp (hP2, P6_3/mmc) and Me2X (NiAs-type, hP4, P6_3/mmc, B8_1)
$
 PHASE HCP_A3 %A 2 1 0.5 !
 CONST HCP_A3 : IN YB : VA : !
$
$ Prototype In (tI2, I4/mmm)
$
 PHASE TETRAGONAL_A6 % 1 1 !
 CONST TETRAGONAL_A6 : IN% YB : !
$
$ Prototype AuCu3 (cP4, Pm-3m)
$
 PHASE IN3YB_L12 % 2 3 1 !
 CONST IN3YB_L12 : IN : YB : !
$
$ Prototype CaIn2 (hP6, P6_3/mmc)
$
 PHASE IN2YB % 2 2 1 !
 CONST IN2YB : IN : YB : !
$
$ Prototype CsCl (cP2, Pm-3m)
$
 PHASE INYB_B2 % 2 1 1 !
 CONST INYB_B2 : IN% YB : IN YB% : !
$
$ Prototype Co2Si (oP12, Pnma)
$
 PHASE INYB2_C37 % 2 1 2 !
 CONST INYB2_C37 : IN : YB : !
$
$ Prototype In3Yb8 (hR44, R-3c)
$
 PHASE IN2YB5 % 2 2 5 !
 CONST IN2YB5 : IN : YB : !
$ ------------------------------------------------------------------------------
$ Defaults
$
 DEFINE-SYSTEM-DEFAULT ELEMENT 2 !
 DEFAULT-COM DEFINE_SYSTEM_ELEMENT VA !
 TYPE-DEF % SEQ * !
 TYPE-DEF A GES AMEND_PHASE_DESCRIPTION @ MAGNETIC -3 0.28 !
 TYPE-DEF B GES AMEND_PHASE_DESCRIPTION @ MAGNETIC -1 0.4 !
 FUNCTION ZERO      298.15  0;                                         6000 N !
 FUNCTION UN_ASS    298.15  0;                                         6000 N !
 FUNCTION R         298.15  +8.31451;                                  6000 N !
$ ------------------------------------------------------------------------------
$ Element data
$ ------------------------------------------------------------------------------
$ In
$
$ FCC_A1 and TET_ALPHA1 revised in unary 4.1
$ BCT_A5 and RHOMBOHEDRAL_A7 added in unary 4.1
$ TET_ALPHA1 revised in unary 5.0 (using the value from 99Ans)
$ DHCP added in unary 5.0
$
$ There is quite a bit of confusion about TET_ALPHA1_A6. The structure is
$ the same as In (TETRAGONAL_A6), but with a different (presumably) c/a ratio.
$ TET_ALPHA1_A6 is present in Bi-In, In-Pb and In-Sn (possibly more). Between
$ the TETRAGONAL_A6 (In-ss) and TET_ALPHA1_A6 there is a narrow two-phase
$ region. In each system a different G(TET_ALPHA1_A6,IN) lattice stability
$ was used.
$ In 91Din a value from an unpublished revision of the Bi-In system by
$ P.-Y. Chevalier 1990 is included. In SGTE Unary V 4.4 a value from 98Boa
$ for the In-Pb system is included. 98Boa treated the TET_ALPHA1_A6
$ phase in Bi-In and In-Pb as two different phases and used the lattice
$ stability from 88Che0 for the Bi-In branch of this phase. Finally, SGTE
$ unary V 5.0 uses a value from an unpublished evaluation by 99Ans of the
$ In-Sn system. Due to the close proximity of the TETRAGONAL_A6 and
$ TET_ALPHA1_A6 phases in these systems, any change of lattice stability
$ will cause a distortion of the phase diagram and require reoptimisation.
$
$ The DHCP phase is labelled D0_24 in 03Liu and alpha-prime in 92Ans. The
$ phase is present between the fcc and hcp phases in the Au-Sn and Au-In
$ systems.
$
 PAR  G(TETRAGONAL_A6,IN),,             +GHSERIN;                3800 N 91Din !
 PAR  G(FCC_A1,IN:VA),,                 +GHSERIN+162.061;        3800 N 98Boa !
$PAR  G(FCC_A1,IN:VA),,                 +GHSERIN+123-0.1988*T;   3800 N 91Din !
 PAR  G(BCC_A2,IN:VA),,                 +GHSERIN+800-0.8*T;      3800 N 91Din !
 PAR  G(HCP_A3,IN:VA),,                 +GHSERIN+533-0.6868*T;   3800 N 91Din !
$PAR  G(DHCP,IN),,                      +GHSERIN+520-0.384*T;    3800 N 92Ans !
$PAR  G(TET_ALPHA1_A6,IN),,             +GHSERIN+123-0.1988*T;   3800 N 99Ans1 !
$PAR  G(TET_ALPHA1_A6,IN),,             +GHSERIN+0.31*T;         3800 N 98Boa !
$PAR  G(TET_ALPHA1_A6,IN),,             +GHSERIN+193-0.16479*T;  3800 N 91Din !
$PAR  G(TET_ALPHA1_A6,IN),,             +GHSERIN-33+0.16*T;      3800 N 88Che0 !
$PAR  G(BCT_A5,IN),,                    +GHSERIN
$            +5040.87-3.33969*T;                                 3800 N 99Ans1 !
$PAR  G(RHOMBOHEDRAL_A7,IN),,           +GHSERIN+4184;           3800 N 88Che0 !
 PAR  G(LIQUID,IN),,                    +GLIQIN;                 3800 N 91Din !
$
 PAR  G(INYB_B2,IN:IN:VA),,             +ZERO;,,                      N 11Gao !
$
 FUNCTION GHSERIN   298.15  -6978.89+92.338115*T-21.8386*T*LN(T)
       -0.00572566*T**2-2.120321E-06*T**3-22906*T**(-1);
       429.75  Y  -7033.516+124.476588*T-27.4562*T*LN(T)
       +5.4607E-04*T**2-8.367E-08*T**3-211708*T**(-1)+3.53116E+22*T**(-9);
      3800.00  N !
 FUNCTION GLIQIN    298.15  +3282.092-7.63686*T+GHSERIN-5.59058E-20*T**7;
       429.75  Y  +3283.706-7.640804*T+GHSERIN-3.53116E+22*T**(-9);
      3800.00  N !
$ ------------------------------------------------------------------------------
$ Yb
$
$ HCP_A3 added in unary 5.0
$
$ TETRAGONAL_A6 from 11Gao not included in unary
$
 PAR  G(FCC_A1,YB:VA),,                 +GHSERYB;                2000 N 91Din !
 PAR  G(BCC_A2,YB:VA),,                 +GBCCYB;                 2000 N 91Din !
 PAR  G(HCP_A3,YB:VA),,                 +GHSERYB+5000;           2000 N 06Guo !
 PAR  G(TETRAGONAL_A6,YB),,             +GHSERYB+1000;           2000 N 11Gao !
 PAR  G(LIQUID,YB),,                    +GLIQYB;                 2000 N 91Din !
$
 PAR  G(INYB_B2,YB:YB:VA),,             +ZERO;,,                      N 11Gao !
$
 FUNCTION GHSERYB   298.15  -9370.941+189.327664*T-40.0791*T*LN(T)
       +0.04227115*T**2-2.2242E-05*T**3;
       553.00  Y  -8192.154+121.065655*T-26.7591*T*LN(T)-0.00256065*T**2;
      1033.00  Y  +16034.89-89.478241*T+2.7623966*T*LN(T)
       -0.017961331*T**2+1.421719E-06*T**3-3631462*T**(-1);
      2000.00  N !
 FUNCTION GBCCYB    298.15  -965.99-21.293677*T-3.8534432*T*LN(T)
       -0.030009694*T**2+4.743871E-06*T**3-334650*T**(-1);
      1033.00  Y  -13368.113+188.313864*T-36.1079*T*LN(T);
      1097.00  Y  -3911.847+113.174165*T-25.7402233*T*LN(T)
       -0.004743348*T**2+3.63044E-07*T**3-1553668*T**(-1);
      2000.00  N !
 FUNCTION GLIQYB    298.15  +7030.788-40.615571*T-1.8061816*T*LN(T)
       -0.03250938*T**2+5.136665E-06*T**3-370554*T**(-1);
      1033.00  Y  -6445.835+186.690398*T-36.7774*T*LN(T);
      2000.00  N !
 FUNCTION GHCPYB    298.15  +GHSERYB+5000;                             2000 N !
$ ------------------------------------------------------------------------------
$ Binary system
$
$ F. Gao, S.L. Wang, C.P. Wang, X.J. Liu, Calphad, 35, 1-5(2011).
$
$ Checked against paper and tdb from author. Checked at 6000 K.
$
 PAR  L(LIQUID,IN,YB;0),,               -110000+2*T;,,                N 11Gao !
 PAR  L(LIQUID,IN,YB;1),,               -2000-21*T;,,                 N 11Gao !
 PAR  L(LIQUID,IN,YB;2),,               +5000;,,                      N 11Gao !
$
 PAR  L(FCC_A1,IN,YB:VA;0),,            -65783;,,                     N 11Gao !
 PAR  L(BCC_A2,IN,YB:VA;0),,            -67500;,,                     N 11Gao !
 PAR  L(TETRAGONAL_A6,IN,YB;0),,        +ZERO;,,                      N 11Gao !
$
 PAR  G(IN3YB_L12,IN:YB),,              +3*GHSERIN+GHSERYB
             -159550+44*T;,,                                          N 11Gao !
 PAR  G(IN2YB,IN:YB),,                  +2*GHSERIN+GHSERYB
             -124910+15.1*T;,,                                        N 11Gao !
$
 PAR  G(INYB_B2,IN:YB),,                +GHSERIN+GHSERYB
             -84800+4.8*T;,,                                          N 11Gao !
 PAR  G(INYB_B2,YB:IN),,                +GHSERIN+GHSERYB
             -84800+4.8*T;,,                                          N 11Gao !
 PAR  L(INYB_B2,IN,YB:IN;0),,           -60000;,,                     N 11Gao !
 PAR  L(INYB_B2,IN:IN,YB;0),,           -60000;,,                     N 11Gao !
 PAR  L(INYB_B2,IN,YB:YB;0),,           -6000-152*T;,,                N 11Gao !
 PAR  L(INYB_B2,YB:IN,YB;0),,           -6000-152*T;,,                N 11Gao !
$
 PAR  G(INYB2_C37,IN:YB),,              +GHSERIN+2*GHSERYB
             -124589+32.7*T;,,                                        N 11Gao !
 PAR  G(IN2YB5,IN:YB),,                 +2*GHSERIN+5*GHSERYB
             -288280+95.1*T;,,                                        N 11Gao !
$
$ Metastable
$
 PAR  L(HCP_A3,IN,YB:VA;0),,            -65783;,,                     N Same !
$ ------------------------------------------------------------------------------
$
$
 LIST-OF-REFERENCE
 NUMBER  SOURCE
  Null   'Unknown source'
  Same   'Same or similar interaction as in the corresponding stable phase'
  COST   'COST 507 database'
  88Che0 'P.-Y Chevalier, Calphad, 12, 383-92(1988)
          SGTE unary database V.4.1, 1999; In'
  91Din  'A.T. Dinsdale, Calphad, 15, 317-425(1991).'
  92Ans  'I. Ansara, J.-Ph. Nabot, Calphad, 16, 13-18(1992),
          SGTE unary database V.5.0, 2009; In'
  98Boa  'D. Boa, I. Ansara, Thermochim. Acta, 314, 79-86(1998),
          SGTE unary database V.4.1, 1999; In, Pb'
  99Ans1 'I. Ansara, S.G. Fries, H.L. Lukas, unpublished, 1999,
          SGTE unary database V.5.0, 2009; In, Sn'
  06Guo  'C. Guo, Z. Du, J. Alloys Compd., 422, 102-8(2006),
          SGTE unary database V.5.0, 2009; Yb'
  11Gao  'F. Gao, S.L. Wang, C.P. Wang, X.J. Liu,
          Calphad, 35, 1-5(2011); Yb, In-Yb'
!
