$
$ Database for Y-O from D. Djurovic et al. 2007
$
$ D. Djurovic, M. Zinkevich, F. Aldinger, Calphad, 31, 560-66(2007).
$
$ Dataset created 2010.02.21 by Bengt Hallstedt.
$ 2021.02.07: Modified for use with GES6.
$ 2024.08.16: Missing corrections for GES6 fixed.
$
$ Changed model for C-R2O3 compared to paper. This leads to minor differences.
$ There are minor differences between the ionic liquid and the associate
$ liquid. The differences in boiling temperatures are quite large, but
$ there are no data anyway.
$
$ ------------------------------------------------------------------------------
 TEMP-LIM 298.15 6000.00 !
$
$ELEMENT NAME  REF. STATE               ATOMIC MASS H298-H0    S298    !
$
 ELEMENT /-   ELECTRON_GAS                0.0          0.0      0.0    ! 
 ELEMENT VA   VACUUM                      0.0          0.0      0.0    ! 
 ELEMENT O    1/2_MOLE_O2(G)             15.999     4341.0    102.52   ! 
 ELEMENT Y    HCP_A3                     88.9059    5983.457   44.7875 ! 
$ ------------------------------------------------------------------------------
$ Species
$
 SPECIE  O-2                                O/-2 !
 SPECIE  O2                                 O2 !
 SPECIE  O3                                 O3 !
 SPECIE  Y+2                                Y/+2 !
 SPECIE  Y+3                                Y/+3 !
 SPECIE  YO                                 Y1O1 !
 SPECIE  YO1.5                              Y1O1.5 !
 SPECIE  Y2O                                Y2O1 !
 SPECIE  YO2                                Y1O2 !
 SPECIE  Y2O2                               Y2O2 !
$ ------------------------------------------------------------------------------
$ Phase definitions
$
 PHASE LIQUID:L % 1 1 !
 CONST LIQUID:L : Y YO1.5 : !
$
 PHASE ION:Y % 2 1 1 !
 CONST ION:Y : Y+3 : O-2 VA : !
$
$ Fcc (cF4) and MeX (cF8)
$
 PHASE FCC_A1 %A 2 1 1 !
 CONST FCC_A1 : Y : O VA% : !
$
$ Bcc (cI2, Im-3m)
$ Note! Not the standard bcc model
$
 PHASE BCC_A2 %B 2 1 1 !
 CONST BCC_A2 : Y : O VA% : !
$
$ Hcp (hP2) and Me2X (hP3)
$
 PHASE HCP_A3 %A 2 1 0.5 !
 CONST HCP_A3 : Y% : O VA% : !
$
$ Prototype Mn2O3 (cI80 (cI96 if viewed as ordered fluorite), SB D53)
$
 PHASE C_R2O3_D53:I % 3 2 3 1 !
 CONST C_R2O3_D53:I : Y+2 Y+3% : O-2% VA : O-2 VA% : !
$
$ Hexagonal (P63/mmc)
$
 PHASE H_R2O3:I % 3 2 2 1 !
 CONST H_R2O3:I : Y+2 Y+3% : O-2 : O-2% VA : !
$
 PHASE O2GAS % 1 1 !
 CONST O2GAS : O2 :!
$
 PHASE GAS:G % 1 1 !
 CONST GAS:G : O O2 O3 Y Y2O YO Y2O2 YO2 : !
$ ------------------------------------------------------------------------------
$ Defaults
$
 DEFINE-SYSTEM-DEFAULT ELEMENT 2 !
 DEFAULT-COM DEFINE-SYSTEM-ELEMENT VA /- !
 DEFAULT-COM REJECT-PHASE LIQUID !
 TYPE-DEF % SEQ * !
 TYPE-DEF A GES AMEND_PHASE_DESCRIPTION @ MAGNETIC -3 0.28 !
 TYPE-DEF B GES AMEND_PHASE_DESCRIPTION @ MAGNETIC -1 0.4 !
 FUNCTION ZERO      298.15  0;                                         6000 N !
 FUNCTION UN_ASS    298.15  0;                                         6000 N !
 FUNCTION R         298.15  +8.31451;                                  6000 N !
 FUNCTION RTLNP     298.15  +8.31451*T*LN(1E-05*P);                    6000 N !
$ ------------------------------------------------------------------------------
$ Element data
$ ------------------------------------------------------------------------------
$ O
$
$ GHSEROO modified in unary 3.0
$
 PAR  G(O2GAS,O2),,                     +2*GHSEROO+RTLNP;,,           N 91Din !
$
 PAR  G(GAS,O),,                        +F7397T+RTLNP;,,              N 92SUB !
 PAR  G(GAS,O2),,                       +2*GHSEROO+RTLNP;,,           N 91Din ! 
 PAR  G(GAS,O3),,                       +F7683T+RTLNP;,,              N 92SUB !
$
$ 1/2 O2(g)
 FUNCTION GHSEROO   298.15  -3480.87-25.503038*T-11.1355*T*LN(T)
       -0.005098875*T**2+6.61845833E-07*T**3-38365*T**(-1);
      1000.00  Y  -6568.763+12.659879*T-16.8138*T*LN(T)
       -5.957975E-04*T**2+6.781E-09*T**3+262905*T**(-1);
      3300.00  Y  -13986.728+31.259624*T-18.9536*T*LN(T)
       -4.25243E-04*T**2+1.0721E-08*T**3+4383200*T**(-1);
      6000.00  N !
$ O(g)
 FUNCTION F7397T    298.15  +243206.529-42897.0876*T**(-1)-20.7513421*T
       -21.0155542*T*LN(T)+1.26870532E-04*T**2-1.23131285E-08*T**3;
      2950.00  Y  +252301.473-3973170.33*T**(-1)-51.974853*T
       -17.2118798*T*LN(T)-5.41356254E-04*T**2+7.64520703E-09*T**3;
      6000.00  N !
$ O3(g)
 FUNCTION F7683T    298.15  +133772.042-11328.9959*T**(-1)-84.8602165*T
       -19.8314069*T*LN(T)-0.0392015696*T**2+7.90727187E-06*T**3;  
       600.00  Y  +120765.524+997137.156*T**(-1)+120.113376*T
       -51.8410152*T*LN(T)-0.00353983136*T**2+3.20640143E-07*T**3;
      1500.00  Y  +115412.196+1878139.02*T**(-1)+164.679664*T
       -58.069736*T*LN(T)-2.84399032E-04*T**2+5.95650279E-10*T**3;
      6000.00  N !
$ ------------------------------------------------------------------------------
$ Y
$
$ HCP_A3, BCC_A2 and LIQUID revised in unary 3.0
$ FCC_A1 added in unary 4.1
$
 PAR  G(HCP_A3,Y:VA)            100.00  +GHSERYY;                3700 N 95She3 !
 PAR  G(BCC_A2,Y:VA)            100.00  +GBCCYY;                 3700 N 95She3 !
 PAR  G(FCC_A1,Y:VA)            100.00  +GHSERYY+6000;           3700 N Frie2 !
 PAR  G(LIQUID,Y)               100.00  +GLIQYY;                 3700 N 95She3 !
$
 PAR  G(ION,Y+3:VA)             100.00  +GLIQYY;                 3700 N 95She3 !
$
 PAR  G(GAS,Y),,                        +F14722T+RTLNP;,,             N 94SUB !
$
 FUNCTION GHSERYY   100.00  -8011.09379+128.572856*T-25.6656992*T*LN(T)
       -0.00175716414*T**2-4.17561786E-07*T**3+26911.509*T**(-1);
      1000.00  Y  -7179.74574+114.497104*T-23.4941827*T*LN(T)
       -0.0038211802*T**2-8.2534534E-08*T**3;
      1795.15  Y  -67480.7761+382.124727*T-56.9527111*T*LN(T)
       +0.00231774379*T**2-7.22513088E-08*T**3+18077162.6*T**(-1);
      3700.00  N !
 FUNCTION GBCCYY    100.00  -833.658863+123.667346*T-25.5832578*T*LN(T)
       -0.00237175965*T**2+9.10372497E-09*T**3+27340.0687*T**(-1);
      1000.00  Y  -1297.79829+134.528352*T-27.3038477*T*LN(T)
       -5.41757644E-04*T**2-3.05012175E-07*T**3;
      1795.15  Y  +15389.4975+0.981325399*T-8.88296647*T*LN(T)
       -0.00904576576*T**2+4.02944768E-07*T**3-2542575.96*T**(-1);
      3700.00  N !
 FUNCTION GLIQYY    100.00  +2098.50738+119.41873*T-24.6467508*T*LN(T)
       -0.00347023463*T**2-8.12981167E-07*T**3+23713.7332*T**(-1);
      1000.00  Y  +7386.44846+19.4520171*T-9.0681627*T*LN(T)
       -0.0189533369*T**2+1.7595327E-06*T**3;
      1795.15  Y  -12976.5957+257.400783*T-43.0952*T*LN(T);
      3700.00  N !
$ Y(g)
 FUNCTION F14722T   298.15  +413926.156+43.942359*T-34.19791*T*LN(T)
       +0.0122297*T**2-2.14534333E-06*T**3+97071.5*T**(-1);
       700.00  Y  +417505.307-13.2762864*T-25.29082*T*LN(T)
       +0.002768476*T**2-3.169895E-07*T**3-157006.6*T**(-1);
      2000.00  Y  +439627.78-100.082079*T-14.64876*T*LN(T)
       +0.001182233*T**2-3.39037833E-07*T**3-7693105*T**(-1);
      3300.00  Y  +656873.926-957.210194*T+92.15071*T*LN(T)
       -0.022050485*T**2+6.04918167E-07*T**3-90137500*T**(-1);
      5500.00  Y  -81672.0087+877.446829*T-122.4532*T*LN(T)
       +0.005666115*T**2-6.61492667E-08*T**3+3.865857E+08*T**(-1);
     10000.00  N !
$ ------------------------------------------------------------------------------
$ Binary system
$
$ D. Djurovic, M. Zinkevich, F. Aldinger, Calphad, 31, 560-66(2007).
$
$ Checked against paper. Checked at 6000 K.
$
$ Changed model for C-R2O3 compared to paper. This leads to minor differences.
$ There are minor differences between the ionic liquid and the associate
$ liquid. The differences in boiling temperatures are quite large, but
$ there are no data anyway.
$
 PAR  G(LIQUID,YO1.5),,                 +0.5*GY2O3C
             +53850-20.2545*T;,,                                      N 07Dju !
 PAR  L(LIQUID,Y,YO1.5;0),,             +284769-168.18*T;,,           N 08Dju !
 PAR  L(LIQUID,Y,YO1.5;1),,             +99752-66.94*T;,,             N 08Dju !
$
 PAR  G(ION,Y+3:O-2),,                  +GY2O3C+107700-40.509*T;,,    N 07Dju !
 PAR  L(ION,Y+3:O-2,VA;0),,             +633817-370.040*T;,,          N 07Dju !
 PAR  L(ION,Y+3:O-2,VA;1),,             -221673+131.465*T;,,          N 07Dju !
$
 PAR  G(BCC_A2,Y:O),,                   +GBCCYY+GHSEROO
             -459379.5+65*T;,,                                        N 07Dju !
 PAR  L(BCC_A2,Y:O,VA;0),,              -103772.816-78.0698*T;,,      N 07Dju !
 PAR  L(BCC_A2,Y:O,VA;1),,              -37657.87-40.5076*T;,,        N 07Dju !
$
 PAR  G(HCP_A3,Y:O),,                   +GHSERYY+0.5*GHSEROO
             -293327+30.6069*T;,,                                     N 07Dju !
$
 PAR  G(C_R2O3_D53,Y+2:O-2:O-2),,       +GY2O2C+2*GHSEROO
             +210000+15.8759365*T;,,                                  N 08Dju !
 PAR  G(C_R2O3_D53,Y+2:O-2:VA),,        +GY2O2C+GHSEROO
             +40000+36.8885*T;,,                                      N 07Dju !
 PAR  G(C_R2O3_D53,Y+2:VA:O-2),,        +GY2O2C-GHSEROO
             +210000+15.8759365*T;,,                                  N 08Dju !
 PAR  G(C_R2O3_D53,Y+2:VA:VA),,         +GY2O2C-2*GHSEROO
             +40000+36.8885*T;,,                                      N 07Dju !
 PAR  G(C_R2O3_D53,Y+3:O-2:O-2),,       +GY2O3C+GHSEROO
             +400000+15.8759365*T;,,                                  N 08Dju !
 PAR  G(C_R2O3_D53,Y+3:O-2:VA),,        +GY2O3C;,,                    N 07Zin !
 PAR  G(C_R2O3_D53,Y+3:VA:O-2),,        +GY2O3C-GHSEROO
             +400000+15.8759365*T;,,                                  N 08Dju !
 PAR  G(C_R2O3_D53,Y+3:VA:VA),,         +GY2O3C-3*GHSEROO;,,          N 07Dju !
$
 PAR  G(H_R2O3,Y+2:O-2:O-2),,           +GY2O2H+GHSEROO
             +34200+28.8592*T;,,                                      N 07Dju !
 PAR  G(H_R2O3,Y+2:O-2:VA),,            +GY2O2H+34200+28.8592*T;,,    N 07Dju !
 PAR  G(H_R2O3,Y+3:O-2:O-2),,           +GY2O3H;,,                    N 07Zin !
 PAR  G(H_R2O3,Y+3:O-2:VA),,            +GY2O3H-GHSEROO;,,            N 07Dju !
$
 PAR  G(GAS,Y2O),,                      +F12945T+RTLNP;,,             N 94SUB !
 PAR  G(GAS,YO),,                       +F12929T+RTLNP;,,             N 94SUB !
 PAR  G(GAS,Y2O2),,                     +F13270T+RTLNP;,,             N 94SUB !
 PAR  G(GAS,YO2),,                      +F13266T+RTLNP;,,             N 94SUB !
$
$ metastable
$
 PAR  G(FCC_A1,Y:O),,                   +GHSERYY+6000+GHSEROO;,,      N 08Dju !
$
$PAR  G(DHCP,Y:O),,                     +GHSERYY+64080-17*T
$            +0.5*GHSEROO;,,                                          N 08Dju !
$
$PAR  G(FLUORITE,Y+3:O-2),,             +GY2O3C+GHSEROO+50423;,,      N 08Dju !
$PAR  G(FLUORITE,Y+3:VA),,              +GY2O3C-3*GHSEROO+50423;,,    N 08Dju !
$
$PAR  G(A_R2O3,Y+3:O-2:O-2),,           +GY2O3A;,,                    N 07Zin !
$PAR  G(A_R2O3,Y+3:O-2:VA),,            +GY2O3A-GHSEROO;,,            N 08Dju !
$
$PAR  G(B_R2O3,Y+3:O-2),,               +GY2O3B;,,                    N 07Zin !
$
$PAR  G(X_R2O3,Y+3:O-2),,               +GY2O3X;,,                    N 07Zin !
$PAR  G(X_R2O3,Y+3:VA),,                +GY2O3X-3*GHSEROO;,,          N 08Dju !
$
 FUNCTION GY2O3A    298.15  +GY2O3C+21169-6.6*T;                       6000 N !
 FUNCTION GY2O3B    298.15  +GY2O3C+11087-3.967*T;                     6000 N !
 FUNCTION GY2O3C    298.15  -1976462+731.6512*T-121.881*T*LN(T)
       -0.00506*T**2+1090000*T**(-1)-13000000*T**(-2);
      6000.00  N !
 FUNCTION GY2O3H    298.15  +GY2O3C+25100-9.654*T;                     6000 N !
 FUNCTION GY2O3X    298.15  +GY2O3C+37765-14.223*T;                    6000 N !
 FUNCTION GY2O2C    298.15  +0.66666667*GY2O3C+0.66666667*GHSERYY;     6000 N !
 FUNCTION GY2O2H    298.15  +0.66666667*GY2O3H+0.66666667*GHSERYY;     6000 N !
$ Y2O(g):
 FUNCTION F12945T   298.15  -18834.6011+47.2728187*T-49.14357*T*LN(T)
       -0.007582635*T**2+1.2067E-06*T**3+211591.55*T**(-1);
       900.00  Y  -23590.8983+106.946886*T-58.08361*T*LN(T)
       -2.2921245E-05*T**2+7.790445E-10*T**3+695520*T**(-1);
      6000.00  N !
$ YO(g):
 FUNCTION F12929T   298.15  -55980.1334-24.7804591*T-30.58571*T*LN(T)
       -0.005797885*T**2+9.044075E-07*T**3+92955.75*T**(-1);
       900.00  Y  -62402.7508+43.7949244*T-40.60318*T*LN(T)
       +0.0014897095*T**2-1.41268333E-07*T**3+896318.5*T**(-1);
      3100.00  Y  +22970.3078-236.507016*T-6.632106*T*LN(T)
       -0.004295709*T**2+3.30261667E-08*T**3-38281150*T**(-1);
      5900.00  Y  +78439.9263-450.3653*T+19.37683*T*LN(T)
       -0.00859432*T**2+1.53217517E-07*T**3-45013010*T**(-1);
      9600.00  Y  -949291.433+1103.17067*T-151.1803*T*LN(T)
       +0.004000447*T**2-2.13031E-08*T**3+1.118062E+09*T**(-1);
     10000.00  N !
$ Y2O2(g):
 FUNCTION F13270T   298.15  -575737.712+51.4042333*T-49.55549*T*LN(T)
       -0.030210885*T**2+5.27799667E-06*T**3+255509.3*T**(-1);
       700.00  Y  -591679.029+265.724012*T-82.06371*T*LN(T)
       -2.6169375E-04*T**2+1.0952625E-08*T**3+1742125.5*T**(-1);
      4500.00  Y  -594803.763+277.512452*T-83.52789*T*LN(T)
       +4.9195245E-05*T**2-1.17628333E-09*T**3+3139224*T**(-1);
      6000.00  N !
$ YO2(g):
 FUNCTION F13266T   298.15  -453353.172+38.0172466*T-44.87379*T*LN(T)
       -0.011836705*T**2+2.00650833E-06*T**3+281931.45*T**(-1);
       800.00  Y  -459941.788+124.969156*T-58.0167*T*LN(T)
       -3.724498E-05*T**2+1.29613517E-09*T**3+910973.5*T**(-1);
      6000.00  N !
$ ------------------------------------------------------------------------------
$
 ASSESSED_SYSTEM
  O-Y(TDB -* +ION +GAS +BCC_A2 +HCP_A3 +H_R2O3 +C_R2O3_D53
  ;P3 TMM:300/3000 STP:.9/1800/2/-1 STP:.99/1800/2 STP:0.3/1800/1) !
$
$
 LIST-OF-REFERENCE
 NUMBER  SOURCE
  Null   'Unknown source'
  Frie2  'Suzana Fries and Leo Lukas, unpublished,
          SGTE unary database V.4.1, 1999; Y'
  91Din  'A.T. Dinsdale, Calphad, 15, 317-425(1991).'
  92SUB  'SGTE Substance Database, version 1992'
  94SUB  'SGTE Substance Database, version 1994'
  95She3 'H. Shen, W. Zhang, G. Liu, R. Wang, Z. Du, Report F-95-03,
          University of Science and Technology, Beijing, May 1995,
          SGTE unary database V.3.0, 1996; Y'
  07Dju  'D. Djurovic, M. Zinkevich, F. Aldinger,
          Calphad, 31, 560-66(2007); Y-O'
  07Zin  'M. Zinkevich, Prog. Mater. Sci., 52, 597-647 (2007); R2O3'
  08Dju  'D. Djurovic, M. Zinkevich, F. Aldinger,
          Solid State Ionics, 179, 1902-11(2008); Ce-Y, Ce-O, Ce-Y-O'
!
