$
$ Database for Cu-Dy from L.G. Zhang et al. 2009
$
$ L.G. Zhang, G.X. Huang, H.Y. Qi, B.R. Jia, L.B. Liu, Z.P. Jin,
$ J. Alloys Compd., 470, 214-17(2009).
$
$ Dataset created 2016.10.18 by Bengt Hallstedt.
$ 2020.10.24: Modified for use with GES6.
$
$ Old unary data used for Dy.
$
$ ------------------------------------------------------------------------------
 TEMP-LIM 298.15 6000.00 !
$
$ELEMENT NAME  REF. STATE               ATOMIC MASS H298-H0    S298    !
$
 ELEMENT VA   VACUUM                      0.0          0.0      0.0    ! 
 ELEMENT CU   FCC_A1                     63.546     5004.      33.15   !
 ELEMENT DY   HCP_A3                    162.50      8865.896   74.9559 ! 
$ ------------------------------------------------------------------------------
$ Phase definitions
$
 PHASE LIQUID:L % 1 1 !
 CONST LIQUID:L : CU DY : !
$
$ Fcc (cF4, Fm-3m) and MeX (cF8, Fm-3m)
$
 PHASE FCC_A1 %A 2 1 1 !
 CONST FCC_A1 : CU% DY : VA : !
$
$ Bcc (cI2, Im-3m)
$
 PHASE BCC_A2 %B 2 1 3 !
 CONST BCC_A2 : CU DY% : VA : !
$
$ Hcp (hP2, P6_3/mmc) and Me2X (NiAs-type, hP4, P6_3/mmc, B8_1)
$
 PHASE HCP_A3 %A 2 1 0.5 !
 CONST HCP_A3 : CU DY% : VA : !
$
$ Prototype Cu7Tb (hP8, P6/mmm)
$
 PHASE CU7DY % 2 7 1 !
 CONST CU7DY : CU : DY : !
$
$ Prototype AuBe5 (cF24, F-43m), LT
$
 PHASE CU5DY_C15B % 2 5 1 !
 CONST CU5DY_C15B : CU : DY : !
$
$ Prototype CaCu5 (hP6, P6/mmm), HT
$
 PHASE CU5DY_D2D % 2 5 1 !
 CONST CU5DY_D2D : CU : DY : !
$
$ Pearson t** or mC*
$
 PHASE CU9DY2 % 2 9 2 !
 CONST CU9DY2 : CU : DY : !
$
$ Pearson mC*
$
 PHASE CU7DY2 % 2 7 2 !
 CONST CU7DY2 : CU : DY : !
$
$ Prototype Hg2K (oI12, Imma), prototype CeCu2 in paper
$
 PHASE CU2DY % 2 2 1 !
 CONST CU2DY : CU : DY : !
$
$ Prototype CsCl (cP2, Pm-3m)
$
 PHASE CUDY_B2 % 2 1 1 !
 CONST CUDY_B2 : CU : DY : !
$ ------------------------------------------------------------------------------
$ Defaults
$
 DEFINE-SYSTEM-DEFAULT ELEMENT 2 !
 DEFAULT-COM DEFINE_SYSTEM_ELEMENT VA !
 TYPE-DEF % SEQ * !
 TYPE-DEF A GES AMEND_PHASE_DESCRIPTION @ MAGNETIC -3 0.28 !
 TYPE-DEF B GES AMEND_PHASE_DESCRIPTION @ MAGNETIC -1 0.4 !
 FUNCTION ZERO      298.15  0;                                         6000 N !
 FUNCTION UN_ASS    298.15  0;                                         6000 N !
 FUNCTION R         298.15  +8.31451;                                  6000 N !
$ ------------------------------------------------------------------------------
$ Element data
$ ------------------------------------------------------------------------------
$ Cu
$
 PAR  G(FCC_A1,CU:VA),,                 +GHSERCU;                3200 N 91Din !
 PAR  G(BCC_A2,CU:VA),,                 +GHSERCU+4017-1.255*T;   3200 N 91Din !
 PAR  G(HCP_A3,CU:VA),,                 +GHSERCU+600+0.2*T;      3200 N 91Din !
 PAR  G(LIQUID,CU),,                    +GLIQCU;                 3200 N 91Din !
$
 FUNCTION GHSERCU   298.15  -7770.458+130.485235*T-24.112392*T*LN(T)
       -0.00265684*T**2+1.29223E-07*T**3+52478*T**(-1);
      1357.77  Y  -13542.026+183.803828*T-31.38*T*LN(T)+3.64167E+29*T**(-9);
      3200.00  N !
 FUNCTION GLIQCU    298.15  +12964.735-9.511904*T+GHSERCU-5.8489E-21*T**7;
      1357.77  Y  -46.545+173.881484*T-31.38*T*LN(T);
      3200.00  N !
$ ------------------------------------------------------------------------------
$ Dy
$
$ HCP_A3, BCC_A2 and LIQUID revised in unary 3.0
$
$ FCC_A1 from 03Cac not included in unary (but it should be)
$
 PAR  G(HCP_A3,DY:VA)           100.00  +GHSERDY;                3000 N 91Din !
 PAR  TC(HCP_A3,DY:VA)          100.00    179;                   3000 N 95She1 !
 PAR  BM(HCP_A3,DY:VA)          100.00      3.0;                 3000 N 95She1 !
 PAR  G(BCC_A2,DY:VA)           100.00  +GBCCDY;                 3000 N 91Din !
 PAR  G(FCC_A1,DY:VA)           100.00  +GHSERDY
             +1300-0.6651608*T;                                  3000 N 03Cac !
 PAR  G(LIQUID,DY)              100.00  +GLIQDY;                 3000 N 91Din !
$
$ Function from 95She1 below
$FUNCTION GHSERDY   100.00  -7937.16586+102.307412*T-26.3917167*T*LN(T)
$      -7.61683657E-04*T**2-5.86914125E-07*T**3+4010.90565*T**(-1);
$     1000.00  Y  -13733.328+214.012934*T-43.8283359*T*LN(T)
$      +0.0166909801*T**2-3.49702836E-06*T**3+0.0173619874*T**(-1);
$     1654.15  Y  -404681.371+2032.1415*T-272.123952*T*LN(T)
$      +0.0578301681*T**2-2.76169148E-06*T**3+1.09616238E+08*T**(-1);
$     3000.00  N !
$ Function below from 91Din
 FUNCTION GHSERDY   298.15  -9129.216+131.734913*T-31.3602*T*LN(T)
       +0.00614295*T**2-2.123617E-06*T**3+31704*T**(-1);
      1000.00  Y  +46759.596-356.59767*T+37.102*T*LN(T)
       -0.02919595*T**2+9.99035E-07*T**3-8228400*T**(-1);
      1400.00  Y  +578.987+6.964025*T-13.3473*T*LN(T)
       -0.00382058*T**2-1.466792E-06*T**3;
      1659.00  Y  -518996.159+2659.38355*T-353.642128*T*LN(T)
       +0.080893522*T**2-3.929211E-06*T**3+1.37444876E+08*T**(-1);
      3000.00  N !
$ Function from 95She1 below
$FUNCTION GBCCDY    100.00  +1508.1802-0.566616181*T+GHSERDY;
$     1000.00  Y  +327500.062-2868.04585*T+391.515418*T*LN(T)
$      -0.224042148*T**2+2.04076075E-05*T**3-48652656.5*T**(-1);
$     1654.15  Y  -33708.7949+291.409631*T-50.208*T*LN(T);
$     1685.15  Y  -40775.4966+330.318068*T-55.2811171*T*LN(T)
$      +0.0015254673*T**2-7.7437116E-08*T**3+1776589.32*T**(-1);
$     3000.00  N !
$ Function below from 91Din
 FUNCTION GBCCDY    298.15  +2245.299-1.143165*T+GHSERDY;  
      1000.00  Y  +287440.422-2533.60126*T+344.875171*T*LN(T)
       -0.201179873*T**2+1.8354141E-05*T**3-42196433*T**(-1);
      1659.00  Y  -32780.012+289.980691*T-50.208*T*LN(T);
      1684.00  Y  -39830.901+328.822231*T-55.2727722*T*LN(T)
       +0.001523778*T**2-7.7383E-08*T**3+1771510*T**(-1);
      3000.00  N !
$ Function from 95She1 below
$FUNCTION GLIQDY    100.00  +13196.6185-7.5443643*T+GHSERDY;
$     1000.00  Y  +300126.971-2519.78614*T+341.302578*T*LN(T)
$      -0.196153225*T**2+1.76197799E-05*T**3-43071677.5*T**(-1);
$     1685.15  Y  -21864.7344+282.205014*T-49.9151*T*LN(T);
$     3000.00  N !
$ Function below from 91Din
 FUNCTION GLIQDY    298.15  +13139.274-7.623047*T+GHSERDY;  
      1000.00  Y  +292367.773-2487.67879*T+337.520022*T*LN(T)
       -0.197339631*T**2+1.800701E-05*T**3-41317706*T**(-1);
      1659.00  Y  -21504.599+281.109149*T-49.9151*T*LN(T);
      3000.00  N !
$ ------------------------------------------------------------------------------
$ Binary system
$
$ L.G. Zhang, G.X. Huang, H.Y. Qi, B.R. Jia, L.B. Liu, Z.P. Jin,
$ J. Alloys Compd., 470, 214-17(2009).
$
$ Checked against paper. Checked at 6000 K.
$
$ Old unary data used for Dy.
$
 PAR  L(LIQUID,CU,DY;0),,               -89354.3253+5.002*T;,,        N 09Zha !
 PAR  L(LIQUID,CU,DY;1),,               -33694.613+11.913*T;,,        N 09Zha !
$
 PAR  L(FCC_A1,CU,DY:VA;0),,            +UN_ASS;,,                    N !
 PAR  L(BCC_A2,CU,DY:VA;0),,            -50054.3243-10.447*T;,,       N 09Zha !
 PAR  L(HCP_A3,CU,DY:VA;0),,            -36212.399-12.974*T;,,        N 09Zha !
$
 PAR  G(CU7DY,CU:DY),,                  +7*GHSERCU+GHSERDY
             -87491.4784-10.2336*T;,,                                 N 09Zha !
 PAR  G(CU5DY_C15B,CU:DY),,             +5*GHSERCU+GHSERDY
             -99543.4536+1.2*T;,,                                     N 09Zha !
 PAR  G(CU5DY_D2D,CU:DY),,              +5*GHSERCU+GHSERDY
             -99038.1936+0.78*T;,,                                    N 09Zha !
 PAR  G(CU9DY2,CU:DY),,                 +9*GHSERCU+2*GHSERDY
             -193851.2191+1.1*T;,,                                    N 09Zha !
 PAR  G(CU7DY2,CU:DY),,                 +7*GHSERCU+2*GHSERDY
             -115784.2566-49.6971*T;,,                                N 09Zha !
 PAR  G(CU2DY,CU:DY),,                  +2*GHSERCU+GHSERDY
             -73228.3572+2.7837*T;,,                                  N 09Zha !
 PAR  G(CUDY_B2,CU:DY),,                +GHSERCU+GHSERDY
             -51821.6952+1.0694*T;,,                                  N 09Zha !
$ ------------------------------------------------------------------------------
$
$
 LIST-OF-REFERENCE
 NUMBER  SOURCE
  Null   'Unknown source'
  COST   'COST 507 database'
  91Din  'A.T. Dinsdale, Calphad, 15, 317-425(1991).'
  95She1 'H. Shen, W. Zhang, G. Liu, R. Wang, Z. Du, Report F-95-01,
          University of Science and Technology, Beijing, May 1995,
          SGTE unary database V.3.0, 1996; Dy'
  03Cac  'G. Cacciamani, S. De Negri, A. Saccone, R. Ferro,
          Intermetallics, 11, 1135-51(2003); Dy, Ho, Al-Dy'
  09Zha  'L.G. Zhang, G.X. Huang, H.Y. Qi, B.R. Jia, L.B. Liu, Z.P. Jin,
          J. Alloys Compd., 470, 214-17(2009); Cu-Dy'
!
