$
$ Database for Ru-W from J. Zhang et al. 2021.
$
$ J. Zhang, B. Hu, H. Qiao, Y. Zhang, Y. Du,
$ J. Phase Equilib. Diffus., 42, 489-98(2021).
$
$ Dataset created 2023.05.14 by Bengt Hallstedt.
$
$ There is an inverse miscibility gap with a minimum at 4733 K and x(W)=0.40.
$
$ ------------------------------------------------------------------------------
 TEMP-LIM 298.15 6000.00 !
$
$ELEMENT NAME  REF. STATE               ATOMIC MASS H298-H0    S298    !
$
 ELEMENT VA   VACUUM                      0.0          0.0      0.0    ! 
 ELEMENT RU   HCP_A3                    101.07      4602.4     28.6144 ! 
 ELEMENT W    BCC_A2                    183.85      4970.0     32.6176 ! 
$ ------------------------------------------------------------------------------
$ Phase definitions
$
 PHASE LIQUID:L % 1 1 !
 CONST LIQUID:L : RU W : !
$
$ Fcc (cF4, Fm-3m) and MeX (cF8, Fm-3m)
$
 PHASE FCC_A1 %A 2 1 1 !
 CONST FCC_A1 : RU W : VA : !
$
$ Bcc (cI2, Im-3m)
$
 PHASE BCC_A2 %B 2 1 3 !
 CONST BCC_A2 : RU W% : VA : !
$
$ Hcp (hP2, P6_3/mmc) and Me2X (NiAs-type, hP4, P6_3/mmc, B8_1)
$
 PHASE HCP_A3 %A 2 1 0.5 !
 CONST HCP_A3 : RU% W : VA : !
$
$ Prototype CrFe (tP30, P4_2/mnm)
$
 PHASE SIGMA_D8B % 3 10 4 16 !
 CONST SIGMA_D8B : RU W : W : RU W : !
$ ------------------------------------------------------------------------------
$ Defaults
$
 DEFINE-SYSTEM-DEFAULT ELEMENT 2 !
 DEFAULT-COM DEFINE_SYSTEM_ELEMENT VA !
 TYPE-DEF % SEQ * !
 TYPE-DEF A GES AMEND_PHASE_DESCRIPTION @ MAGNETIC -3 0.28 !
 TYPE-DEF B GES AMEND_PHASE_DESCRIPTION @ MAGNETIC -1 0.4 !
 FUNCTION ZERO      298.15  0;                                         6000 N !
 FUNCTION UN_ASS    298.15  0;                                         6000 N !
 FUNCTION R         298.15  +8.31451;                                  6000 N !
$ ------------------------------------------------------------------------------
$ Element data
$ ------------------------------------------------------------------------------
$ Ru
$
$ BCC_A2 revised in unary 4.4
$
 PAR  G(HCP_A3,RU:VA),,                 +GHSERRU;                4500 N 91Din !
 PAR  G(FCC_A1,RU:VA),,                 +GHSERRU+12500-2.4*T;    4500 N 91Din !
 PAR  G(BCC_A2,RU:VA),,                 +GHSERRU+21500-5.05*T;   4500 N 01SGUN !
$PAR  G(BCC_A2,RU:VA),,                 +GHSERRU+26500-6.2*T;    4500 N 91Din !
 PAR  G(LIQUID,RU),,                    +GLIQRU;                 4500 N 91Din !
$
 FUNCTION GHSERRU   298.15  -7561.873+127.866233*T-22.9143287*T*LN(T)
       -0.004062566*T**2+1.7641E-07*T**3+56377*T**(-1);
      1500.00  Y  -59448.103+489.516214*T-72.3241219*T*LN(T)
       +0.018726245*T**2-1.952433E-06*T**3+11063885*T**(-1);
      2607.00  Y  -38588773+168610.517*T-21329.705*T*LN(T)
       +5.221639*T**2-2.40245985E-04*T**3+1.30829926E+10*T**(-1);
      2740.00  Y  -55768.304+364.482314*T-51.8816*T*LN(T);
      4500.00  N !
 FUNCTION GLIQRU    298.15  +27480.616-8.398748*T+GHSERRU;
       800.00  Y  +50827.232-179.818561*T+19.539341*T*LN(T)
       -0.026524167*T**2+1.667839E-06*T**3-3861125*T**(-1);
      2607.00  Y  -17161.807+349.673561*T-51.8816*T*LN(T);
      4500.00  N !
 FUNCTION GFCCRU    298.15  +GHSERRU+12500-2.4*T;                      4500 N !
 FUNCTION GBCCRU    298.15  +GHSERRU+21500-5.05*T;                     4500 N !
$ ------------------------------------------------------------------------------
$ W
$
 PAR  G(BCC_A2,W:VA),,                  +GHSERWW;,,                   N 91Din !
 PAR  G(FCC_A1,W:VA),,                  +GHSERWW+19300+0.63*T;,,      N 91Din !
 PAR  G(HCP_A3,W:VA),,                  +GHSERWW+14750;,,             N 91Din !
 PAR  G(LIQUID,W),,                     +GLIQWW;,,                    N 91Din !
$
 PAR  G(SIGMA_D8B,W:W:W),,              +10*GFCCWW+20*GHSERWW
             +140576;,,                                               N 21Zha !
$
 FUNCTION GHSERWW   298.15  -7646.311+130.4*T-24.1*T*LN(T)
       -0.001936*T**2+2.07E-07*T**3+44500*T**(-1)-5.33E-11*T**4;
      3695.00  Y  -82868.801+389.362335*T-54*T*LN(T)+1.528621E+33*T**(-9);
      6000.00  N !
 FUNCTION GLIQWW    298.15  +52160.584-14.10999*T+GHSERWW-2.713468E-24*T**7;
      3695.00  Y  -30436.051+375.175*T-54*T*LN(T);
      6000.00  N !
 FUNCTION GFCCWW    298.15  +GHSERWW+19300+0.63*T;                     6000 N !
$ ------------------------------------------------------------------------------
$ Binary system
$
$ J. Zhang, B. Hu, H. Qiao, Y. Zhang, Y. Du,
$ J. Phase Equilib. Diffus., 42, 489-98(2021).
$
$ Checked against paper. Checked at 6000 K.
$
$ There is an inverse miscibility gap with a minimum at 4733 K and x(W)=0.40.
$
 PAR  L(LIQUID,RU,W;0),,                -105750+38.276*T;,,           N 21Zha !
 PAR  L(LIQUID,RU,W;1),,                +10951;,,                     N 21Zha !
$
 PAR  L(BCC_A2,RU,W:VA;0),,             +14637;,,                     N 21Zha !
 PAR  L(BCC_A2,RU,W:VA;1),,             -13079;,,                     N 21Zha !
$
 PAR  L(HCP_A3,RU,W:VA;0),,             +9670-4.786*T;,,              N 21Zha !
 PAR  L(HCP_A3,RU,W:VA;1),,             +9850;,,                      N 21Zha !
$
 PAR  G(SIGMA_D8B,RU:W:RU),,            +10*GFCCRU+4*GHSERWW
             +16*GBCCRU+128596-36.34*T;,,                             N 21Zha !
 PAR  G(SIGMA_D8B,RU:W:W),,             +10*GFCCRU+20*GHSERWW
             -63827;,,                                                N 21Zha !
 PAR  G(SIGMA_D8B,W:W:RU),,             +10*GFCCWW+4*GHSERWW
             +16*GBCCRU-293887;,,                                     N 21Zha !
$
$ metastable
$
 PAR  L(FCC_A1,RU,W:VA;0),,             +9670-4.786*T;,,              N Same !
 PAR  L(FCC_A1,RU,W:VA;1),,             +9850;,,                      N Same !
$ ------------------------------------------------------------------------------
$
$
 LIST-OF-REFERENCE
 NUMBER  SOURCE
  Null   'Unknown source'
  Same   'Same or similar interaction as in the corresponding stable phase'
  REFLAV 'Laves phase convention: G(LAVES,X:X)=+3*GHSERXX+15000'
  91Din  'A.T. Dinsdale, Calphad, 15, 317-425(1991).'
  01SGUN 'SGTE unary database V.4.4, 2001.'
  21Zha  'J. Zhang, B. Hu, H. Qiao, Y. Zhang, Y. Du,
          J. Phase Equilib. Diffus., 42, 489-98(2021); Ru-W'
!
