$
$ Database for Co-B from Y. Du et al. 2002 (included in LB Vol. 2)
$
$ Y. Du, J.C. Schuster, Y.A. Chang, Z. Jin, B. Huang,
$ Z. Metallkd., 93 ,1157-63(2002). 
$
$ Dataset created 2010.12.04 by Bengt Hallstedt.
$ 2020.12.25: Modified for use with GES6.
$
$ B modelled as substitutional in fcc and hcp by 02Du. B is interstitial in LB.
$ The maximum B solubility in fcc-Co is about 0.2 at.% with this dataset in
$ agreement with 02Du. With LBall-v7+fun.tdb it is about 5e-5 at.%. The
$ printed LB does not mention any solubility.
$ The fcc interaction from 02Du has not been converted for LBall-v7+fun.tdb.
$
$ There is an inverse miscibility gap with a min at 4077 K and x(B)=0.84.
$
$ ------------------------------------------------------------------------------
 TEMP-LIM 298.15 6000.00 !
$
$ELEMENT NAME  REF. STATE               ATOMIC MASS H298-H0    S298    !
$
 ELEMENT VA   VACUUM                      0.0          0.0      0.0    ! 
 ELEMENT B    BETA_RHOMBO_B              10.81      1222.0      5.9    ! 
 ELEMENT CO   HCP_A3                     58.9332    4765.567   30.0400 ! 
$ ------------------------------------------------------------------------------
$ Phase definitions
$
 PHASE LIQUID:L % 1 1 !
 CONST LIQUID:L : B CO : !
$
$ Fcc (cF4, Fm-3m) and MeX (cF8, Fm-3m)
$
 PHASE FCC_A1 %A 2 1 1 !
 CONST FCC_A1 : B CO% : VA : !
$
$ Bcc (cI2, Im-3m)
$
 PHASE BCC_A2 %B 2 1 3 !
 CONST BCC_A2 : B CO% : VA : !
$
$ Hcp (hP2, P6_3/mmc) and Me2X (NiAs-type, hP4, P6_3/mmc, B8_1)
$
 PHASE HCP_A3 %A 2 1 0.5 !
 CONST HCP_A3 : B CO% : VA : !
$
$ Prototype beta-B (hR105, R-3m)
$
 PHASE BETA_RHOMBO_B % 1 1 !
 CONST BETA_RHOMBO_B : B : !
$
$ Prototype Fe3C (oP16, Pnma)
$
 PHASE CO3B_D011 % 2 3 1 !
 CONST CO3B_D011 : CO : B : !
$
$ Prototype Al2Cu (tI12, I4/mcm)
$
 PHASE M2B_C16 % 2 2 1 !
 CONST M2B_C16 : CO : B : !
$
$ Prototype FeB (oP8, Pbmn)
$
 PHASE MB_B27 % 2 1 1 !
 CONST MB_B27 : CO : B : !
$ ------------------------------------------------------------------------------
$ Defaults
$
 DEFINE-SYSTEM-DEFAULT ELEMENT 2 !
 DEFAULT-COM DEFINE_SYSTEM_ELEMENT VA !
 TYPE-DEF % SEQ * !
 TYPE-DEF A GES AMEND_PHASE_DESCRIPTION @ MAGNETIC -3 0.28 !
 TYPE-DEF B GES AMEND_PHASE_DESCRIPTION @ MAGNETIC -1 0.4 !
 FUNCTION ZERO      298.15  0;                                         6000 N !
 FUNCTION UN_ASS    298.15  0;                                         6000 N !
 FUNCTION R         298.15  +8.31451;                                  6000 N !
$ ------------------------------------------------------------------------------
$ Element data
$ ------------------------------------------------------------------------------
$ B
$
$ FCC_A1, HCP_A3, DIAMOND_A4 and GRAPHITE added in unary 3.0
$ BCC_A2 added in unary 4.1
$ GRAPHITE revised in unary 4.4 (using the value from COST 507)
$ FCC_A1, BCC_A2 and HCP_A3 removed in unary 5.0
$ ALPHA_RHOMBO_B added in unary 5.0
$
$ FCC_A1, BCC_A2 and HCP_A3 still in SGSOL 5.0
$ The value for FCC_A1 in COST (and SGTE) is possibly incorrect.
$
 PAR  G(BETA_RHOMBO_B,B),,              +GHSERBB;,,                   N 91Din !
$PAR  G(ALPHA_RHOMBO_B,B),,             +GALPBB;,,                    N 09SGUN !
 PAR  G(FCC_A1,B:VA),,                  +GHSERBB+43514-12.217*T;,,    N SGCOST !
$PAR  G(FCC_A1,B:VA),,                  +GHSERBB+50208-13.472*T;,,    N 94Hal !
 PAR  G(BCC_A2,B:VA),,                  +GHSERBB+43514-12.217*T;,,    N 94Hal !
 PAR  G(HCP_A3,B:VA),,                  +GHSERBB+50208-9.706*T;,,     N SGCOST !
$PAR  G(GRAPHITE,B),,                   +GHSERBB+10000-2*T;,,         N SGCOST !
$PAR  G(GRAPHITE,B),,                   +GHSERBB+5000;,,              N 96SGUN !
$PAR  G(DIAMOND_A4,B),,                 +GHSERBB+10;,,                N 99SGUN !
$PAR  G(DIAMOND_A4,B),,                 +GHSERBB+20;,,                N COST !
$PAR  G(DIAMOND_A4,B),,                 +GHSERBB;,,                   N 96SGUN !
 PAR  G(LIQUID,B),,                     +GLIQBB;,,                    N 91Din !
$
 FUNCTION GHSERBB   298.15  -7735.284+107.111864*T-15.6641*T*LN(T)
       -0.006864515*T**2+6.18878E-07*T**3+370843*T**(-1);
      1100.00  Y  -16649.474+184.801744*T-26.6047*T*LN(T)
       -7.9809E-04*T**2-2.556E-08*T**3+1748270*T**(-1);
      2348.00  Y  -36667.582+231.336244*T-31.5957527*T*LN(T)
       -0.00159488*T**2+1.34719E-07*T**3+11205883*T**(-1);
      3000.00  Y  -21530.653+222.396264*T-31.4*T*LN(T);
      6000.00  N !
 FUNCTION GALPBB    298.15  -6076.24+86.648762*T-12.942464*T*LN(T)
       -7.089468E-3*T**2+0.659896E-6*T**3-45*T**(-1);
      1400.00  Y  +28477.506-106.789208*T+12.1072478*T*LN(T)
       -13.316875E-3*T**2+0.706895E-6*T**3-8002403*T**(-1);
      3000.00  Y  -25699.64+225.127135*T-31.4*T*LN(T);
      6000.00  N !
 FUNCTION GLIQBB    298.15  +48458.559-20.268025*T+GHSERBB;
       500.00  Y  +41119.703+82.101722*T-14.9827763*T*LN(T)
       -0.007095669*T**2+5.07347E-07*T**3+335484*T**(-1);
      2348.00  Y  +28842.012+200.94731*T-31.4*T*LN(T);
      3000.00  Y  +50372.665-21.448954*T+GHSERBB;
      6000.00  N !
 FUNCTION GFCCBB    298.15  +GHSERBB+43514-12.217*T;                   6000 N !
$ ------------------------------------------------------------------------------
$ Co
$
 PAR  G(HCP_A3,CO:VA),,                 +GHSERCO;,,                   N 91Din !
 PAR  TC(HCP_A3,CO:VA),,                 1396.00;,,                   N 91Din !
 PAR  BM(HCP_A3,CO:VA),,                    1.35;,,                   N 91Din !
 PAR  G(FCC_A1,CO:VA),,                 +GHSERCO
             +427.591-0.615248*T;,,                                   N 91Din !
 PAR  TC(FCC_A1,CO:VA),,                 1396.00;,,                   N 91Din !
 PAR  BM(FCC_A1,CO:VA),,                    1.35;,,                   N 91Din !
 PAR  G(BCC_A2,CO:VA),,                 +GHSERCO+2938-0.7138*T;,,     N 91Din !
 PAR  TC(BCC_A2,CO:VA),,                 1450.00;,,                   N 91Din !
 PAR  BM(BCC_A2,CO:VA),,                    1.35;,,                   N 91Din !
$PAR  G(CBCC_A12,CO:VA),,               +GHSERCO+4155;,,              N 91Din !
$PAR  G(CUB_A13,CO:VA),,                +GHSERCO+3155;,,              N 91Din !
 PAR  G(LIQUID,CO),,                    +GLIQCO;,,                    N 91Din !
$
 FUNCTION GHSERCO   298.15  +310.241+133.36601*T-25.0861*T*LN(T)
       -0.002654739*T**2-1.7348E-07*T**3+72527*T**(-1);
      1768.00  Y  -17197.666+253.28374*T-40.5*T*LN(T)+9.3488E+30*T**(-9);
      6000.00  N !
 FUNCTION GLIQCO    298.15  +15085.037-8.931932*T+GHSERCO-2.19801E-21*T**7;
      1768.00  Y  -846.61+243.599944*T-40.5*T*LN(T);
      6000.00  N !
$ ------------------------------------------------------------------------------
$ Binary system
$
$ From Y. Du et al. 2002 (included in LB Vol. 2)
$
$ Y. Du, J.C. Schuster, Y.A. Chang, Z. Jin, B. Huang,
$ Z. Metallkd., 93 ,1157-63(2002). 
$
$ Checked against LB and paper. Checked at 6000 K.
$
$ B modelled as substitutional in fcc and hcp by 02Du. B is interstitial in LB.
$ The maximum B solubility in fcc-Co is about 0.2 at.% with this dataset in
$ agreement with 02Du. With LBall-v7+fun.tdb it is about 5e-5 at.%. The
$ printed LB does not mention any solubility.
$ The fcc interaction from 02Du has not been converted for LBall-v7+fun.tdb.
$
$ There is an inverse miscibility gap with a min at 4077 K and x(B)=0.84.
$
 PAR  L(LIQUID,B,CO;0),,                -162096.49+48.36349*T;,,      N 02Du !
 PAR  L(LIQUID,B,CO;1),,                -2542.75+4.71172*T;,,         N 02Du !
 PAR  L(LIQUID,B,CO;2),,                +32123.74;,,                  N 02Du !
$
 PAR  L(FCC_A1,B,CO:VA;0),,             -18734.7;,,                   N 02Du !
 PAR  L(HCP_A3,B,CO:VA;0),,             +ZERO;,,                      N 02Du !
$
 PAR  G(CO3B_D011,CO:B),,               +3*GHSERCO+GHSERBB
             -84527.16+12.7712*T;,,                                   N 02Du !
 PAR  G(M2B_C16,CO:B),,                 +2*GHSERCO+GHSERBB
             -85691.01+15.23022*T;,,                                  N 02Du !
 PAR  G(MB_B27,CO:B),,                  -81233.2+269.64318*T
             -42.6528*T*LN(T)-0.0083796*T**2+595716.18*T**(-1);,,     N 02Du !
$
$ Metastable
$
 PAR  L(BCC_A2,B,CO:VA;0),,             +UN_ASS;,,                    N !
$ ------------------------------------------------------------------------------
$
 ASSESSED_SYSTEM
  B-CO(TDB -* +LIQUID +FCC_A1 +BCC_A2 +HCP_A3 +BETA_RHOMB +CO3B_D011 +M2B_C16
  +MB_B27 ;P3 TMM:500/2500 *) !
$
$
 LIST-OF-REFERENCE
 NUMBER  SOURCE
  Null   'Unknown source'
  REFLAV 'Laves phase convention: G(LAVES,X:X)=+3*GHSERXX+15000'
  COST   'COST 507 database'
  SGCOST 'COST 507 database, SGTE unary database V.3.0, 1996; Al, B, Nd, Ti, Zn'
  91Din  'A.T. Dinsdale, Calphad, 15, 317-425(1991).'
  94Hal  'B. Hallemans, P. Wollants, J.R. Roos,
          Z. Metallkd., 85, 676-82(1994), SGTE unary database V.4.1, 1999; B'
  96SGUN 'SGTE unary database V.3.0, 1996.'
  99SGUN 'SGTE unary database V.4.1, 1999.'
  02Du   'Y. Du, J.C. Schuster, Y.A. Chang, Z. Jin, B. Huang,
          Z. Metallkd., 93 ,1157-63(2002); Co-B'
  09SGUN 'SGTE unary database V.5.0, 2009.'
!
