$
$ Database for Bi-Tb from S.L. Wang et al. 2011
$
$ S.L. Wang, Z.B. Hu, F. Gao, C.P. Wang, X.J. Liu,
$ J. Phase Equilib. Diffus., 32, 441-46(2011).
$
$ Dataset created 2017.11.18 by Bengt Hallstedt.
$ 2020.12.25: Modified for use with GES6.
$ 2023.02.24: Unary Bi changed from V4.4 to V5.0.
$
$ Invariant equilibria involving Bi3Tb4 differ by up to 4 K because of change
$ from fractional to integar compositions.
$
$ ------------------------------------------------------------------------------
 TEMP-LIM 298.15 6000.00 !
$
$ELEMENT NAME  REF. STATE               ATOMIC MASS H298-H0    S298    !
$
 ELEMENT VA   VACUUM                      0.0          0.0      0.0    ! 
 ELEMENT BI   RHOMBOHEDRAL_A7           208.98      6426.6     56.735  !
 ELEMENT TB   HCP_A3                    158.9254    9426.552   73.3037 ! 
$ ------------------------------------------------------------------------------
$ Phase definitions
$
 PHASE LIQUID:L % 1 1 !
 CONST LIQUID:L : BI TB : !
$
$ Fcc (cF4, Fm-3m) and MeX (cF8, Fm-3m)
$
 PHASE FCC_A1 %A 2 1 1 !
 CONST FCC_A1 : BI : VA : !
$
$ Bcc (cI2, Im-3m)
$
 PHASE BCC_A2 %B 2 1 3 !
 CONST BCC_A2 : BI TB% : VA : !
$
$ Hcp (hP2, P6_3/mmc) and Me2X (NiAs-type, hP4, P6_3/mmc, B8_1)
$
 PHASE HCP_A3 %A 2 1 0.5 !
 CONST HCP_A3 : BI TB% : VA: !
$
$ Prototype alpha-As (hR2, R-3m)
$
 PHASE RHOMBOHEDRAL_A7 % 1 1 !
 CONST RHOMBOHEDRAL_A7 : BI% TB : !
$
$ Prototype NaCl (cF8, Fm-3m)
$
 PHASE BITB_B1 % 2 1 1 !
 CONST BITB_B1 : BI : TB : !
$
$ Prototype Th3P4 (cI28, I-43d)
$
 PHASE BI3TB4_D73 % 2 3 4 !
 CONST BI3TB4_D73 : BI : TB : !
$
$ Prototype Bi3Y5 (oP32, Pnma)
$
 PHASE BI3TB5_LT % 2 3 5 !
 CONST BI3TB5_LT : BI : TB : !
$
$ Prototype Mn5Si3 (hP16, P6_3/mcm)
$
 PHASE BI3TB5_D88 % 2 3 5 !
 CONST BI3TB5_D88 : BI : TB : !
$ ------------------------------------------------------------------------------
$ Defaults
$
 DEFINE-SYSTEM-DEFAULT ELEMENT 2 !
 DEFAULT-COM DEFINE_SYSTEM_ELEMENT VA !
 TYPE-DEF % SEQ * !
 TYPE-DEF A GES AMEND_PHASE_DESCRIPTION @ MAGNETIC -3 0.28 !
 TYPE-DEF B GES AMEND_PHASE_DESCRIPTION @ MAGNETIC -1 0.4 !
 FUNCTION ZERO      298.15  0;                                         6000 N !
 FUNCTION UN_ASS    298.15  0;                                         6000 N !
 FUNCTION R         298.15  +8.31451;                                  6000 N !
$ ------------------------------------------------------------------------------
$ Element data
$ ------------------------------------------------------------------------------
$ Bi
$
$ RHOMBOHEDRAL_A7 and LIQUID modified in unary 5.0
$ DIAMOND_A4 added in unary 5.0
$
$ DHCP is not included in unary
$ BCT_A5 from 96Lee not included in unary
$
 PAR  G(RHOMBOHEDRAL_A7,BI),,           +GHSERBI;                3000 N 09SGUN !
 PAR  G(FCC_A1,BI:VA),,                 +GHSERBI+9900-12.5*T;    3000 N 91Din !
 PAR  G(BCC_A2,BI:VA),,                 +GHSERBI+11297-13.9*T;   3000 N 91Din !
 PAR  G(HCP_A3,BI:VA),,                 +GHSERBI+9900-11.8*T;    3000 N 91Din !
$PAR  G(DHCP,BI),,                      +GHSERBI+5000;           3000 N 10Wan !
$PAR  G(DIAMOND_A4,BI),,                +GHSERBI
$            +11296.8+9.253655*T;                                3000 N 88Che2 !
$PAR  G(BCT_A5,BI),,                    +GHSERBI+4184.07;        3000 N 91Din !
$PAR  G(BCT_A5,BI),,                    +GHSERBI+13526.3;        3000 N 96Lee !
$PAR  G(TETRAGONAL_A6,BI),,             +GHSERBI+4184.07;        3000 N 91Din !
$PAR  G(TET_ALPHA1_A6,BI),,             +GHSERBI+4234;           3000 N 91Din !
 PAR  G(LIQUID,BI),,                    +GLIQBI;                 3000 N 09SGUN !
$
 FUNCTION GHSERBI   298.15  -7817.776+128.418925*T-28.4096529*T*LN(T)
       +0.012338888*T**2-8.381598E-6*T**3;
       544.55  Y  +29293.369-379.605174*T+49.678*T*LN(T)
       -0.0730245*T**2+1.3052833E-5*T**3-3544705*T**(-1)+1.66309E+25*T**(-9);
       800.00  Y  -11085.609+182.955328*T-36.041*T*LN(T)
       +7.4641E-3*T**2-1.05047E-6*T**3+5175*T**(-1)+1.66309E+25*T**(-9);
      1200.00  Y  -7580.864+124.770814*T-27.196*T*LN(T)+1.66309E+25*T**(-9);
      3000.00  N !
 FUNCTION GLIQBI    298.15  +11246.017-20.636399*T+GHSERBI-5.9608E-19*T**7;
       544.55  Y  +40629.667-400.415652*T+49.678*T*LN(T)
       -0.0730245*T**2+1.3052833E-5*T**3-3544705*T**(-1);
       800.00  Y  +250.689+162.14485*T-36.041*T*LN(T)
       +0.0074641*T**2-1.05047E-6*T**3+5175*T**(-1);
      1200.00  Y  +3755.434+103.960336*T-27.196*T*LN(T);
      3000.00 N !
$ ------------------------------------------------------------------------------
$ Tb
$
$ RHOMBOHEDRAL_A7 from 11Wan not included in unary
$
 PAR  G(HCP_A3,TB:VA),,                 +GHSERTB;                3000 N 91Din !
 PAR  G(BCC_A2,TB:VA),,                 +GBCCTB;                 3000 N 91Din !
 PAR  G(RHOMBOHEDRAL_A7,TB),,           +GHSERTB+5000;           3000 N 11Wan !
 PAR  G(LIQUID,TB),,                    +GLIQTB;                 3000 N 91Din !
$
 FUNCTION GHSERTB   298.15  -20842.158+409.309555*T-77.5006*T*LN(T)
       +0.0832265*T**2-2.5672833E-05*T**3+562430*T**(-1);
       600.00  Y  -8772.606+102.61162*T-25.8659*T*LN(T)
       -0.002757005*T**2-8.05838E-07*T**3+172355*T**(-1);
      1200.00  Y  -7944.942+101.7776*T-25.9584*T*LN(T)
       -0.001676335*T**2-1.067632E-06*T**3;
      1562.00  Y  -265240.309+1456.04268*T-200.215695*T*LN(T)
       +0.041615159*T**2-2.044697E-06*T**3+65043790*T**(-1);
      3000.00  N !
 FUNCTION GBCCTB    298.15  +4167.835-2.652707*T+GHSERTB;
      1200.00  Y  +633060.245-5157.77779*T+706.580596*T*LN(T)
       -0.373763517*T**2+3.4100235E-05*T**3-1.03233571E+08*T**(-1);
      1562.00  Y  -23398.029+257.388486*T-46.4842*T*LN(T);
      3000.00  N !
 FUNCTION GLIQTB    298.15  +3945.831+29.867521*T-14.252646*T*LN(T)
       -0.020466105*T**2+2.17475E-06*T**3-160724*T**(-1);
      1562.00  Y  -13247.649+251.16889*T-46.4842*T*LN(T);
      3000.00  N !
$ ------------------------------------------------------------------------------
$ Binary system
$
$ S.L. Wang, Z.B. Hu, F. Gao, C.P. Wang, X.J. Liu,
$ J. Phase Equilib. Diffus., 32, 441-46(2011).
$
$ Checked against paper. Checked at 6000 K.
$
$ Invariant equilibria involving Bi3Tb4 differ by up to 4 K because of change
$ from fractional to integar compositions.
$
 PAR  L(LIQUID,BI,TB;0),,               -198749+24.883*T;,,           N 11Wan !
 PAR  L(LIQUID,BI,TB;1),,               +2000-1.6*T;,,                N 11Wan !
 PAR  L(LIQUID,BI,TB;2),,               +39500+10*T;,,                N 11Wan !
$
 PAR  L(BCC_A2,BI,TB:VA;0),,            -101000;,,                    N 11Wan !
 PAR  L(HCP_A3,BI,TB:VA;0),,            -94000;,,                     N 11Wan !
 PAR  L(RHOMBOHEDRAL_A7,BI,TB;0),,      +ZERO;,,                      N 11Wan !
$
 PAR  G(BITB_B1,BI:TB),,                +GHSERBI+GHSERTB
             -164160+15.748*T;,,                                      N 11Wan !
 PAR  G(BI3TB4_D73,BI:TB),,             +3*GHSERBI+4*GHSERTB
             -521640+49.084*T;,,                                      N 11Wan !
 PAR  G(BI3TB5_LT,BI:TB),,              +3*GHSERBI+5*GHSERTB
             -518440+38.984*T;,,                                      N 11Wan !
 PAR  G(BI3TB5_D88,BI:TB),,             +3*GHSERBI+5*GHSERTB
             -509800+33.848*T;,,                                      N 11Wan !
$ ------------------------------------------------------------------------------
$
$
 LIST-OF-REFERENCE
 NUMBER  SOURCE
  Null   'Unknown source'
  Same   'Same or similar interaction as in the corresponding stable phase'
  COST   'COST 507 database'
  88Che2 'P.-Y. Chevalier, Thermochim. Acta, 132, 111-16(1988),
          SGTE unary database V.5.0, 2009; Bi' 
  91Din  'A.T. Dinsdale, Calphad, 15, 317-425(1991).'
  96Lee  'B.-J. Lee, Calphad, 20, 471-80(1996); Bi'
  09SGUN 'SGTE unary database V.5.0, 2009.'
  10Wan  'C.P. Wang, H.L. Zhang, A.T. Tang, F.S. Pan, X.J. Liu,
          J. Alloys Compd., 502, 43-48(2010); Bi'
  11Wan  'S.L. Wang, Z.B. Hu, F. Gao, C.P. Wang, X.J. Liu,
          J. Phase Equilib. Diffus., 32, 441-46(2011); Tb, Bi-Tb'
!
