$
$ Database for Nb-Ni from J.-M. Joubert et al. 2004.
$
$ J.-M. Joubert, B. Sundman, N. Dupin, Calphad, 28, 299-306(2004).
$
$ Dataset created 2023.10.26 by Bengt Hallstedt.
$
$ Strong temperature dependence for liquid, fcc and bcc interactions.
$
$ Maximum temperature for NbNi8 is at 806 K instead of 810 K.
$
$ There is an inverse miscibility gap with a minimum  at 3683 K and x(Ni)=0.78.
$
$ ------------------------------------------------------------------------------
 TEMP-LIM 298.15 6000.00 !
$
$ELEMENT NAME  REF. STATE               ATOMIC MASS H298-H0    S298    !
$
 ELEMENT VA   VACUUM                      0.0          0.0      0.0    ! 
 ELEMENT NB   BCC_A2                     92.9064    5220.0     36.27   ! 
 ELEMENT NI   FCC_A1                     58.69      4787.0     29.7955 ! 
$ ------------------------------------------------------------------------------
$ Phase definitions
$
 PHASE LIQUID:L % 1 1 !
 CONST LIQUID:L : NB NI : !
$
$ Fcc (cF4, Fm-3m) and MeX (cF8, Fm-3m)
$
 PHASE FCC_A1 %A 2 1 1 !
 CONST FCC_A1 : NB NI% : VA : !
$
$ Bcc (cI2, Im-3m)
$
 PHASE BCC_A2 %B 2 1 3 !
 CONST BCC_A2 : NB% NI : VA : !
$
$ Hcp (hP2, P6_3/mmc) and Me2X (NiAs-type, hP4, P6_3/mmc, B8_1)
$
 PHASE HCP_A3 %A 2 1 0.5 !
 CONST HCP_A3 : NB NI : VA : !
$
$ Prototype Fe7W6 (hR13, R-3m)
$
 PHASE MU_D85 % 4 1 4 2 6 !
 CONST MU_D85 : NB NI : NB : NB NI : NB NI : !
$
$ Prototype Cu3Ti (oP8, Pmmn)
$
 PHASE NBNI3_D0A % 2 1 3 !
 CONST NBNI3_D0A : NB% NI : NB NI% : !
$
$ Unknown structure
$
 PHASE NBNI8 % 2 1 8 !
 CONST NBNI8 : NB : NI : !
$ ------------------------------------------------------------------------------
$ Defaults
$
 DEFINE-SYSTEM-DEFAULT ELEMENT 2 !
 DEFAULT-COM DEFINE_SYSTEM_ELEMENT VA !
 TYPE-DEF % SEQ * !
 TYPE-DEF A GES AMEND_PHASE_DESCRIPTION @ MAGNETIC -3 0.28 !
 TYPE-DEF B GES AMEND_PHASE_DESCRIPTION @ MAGNETIC -1 0.4 !
 FUNCTION ZERO      298.15  0;                                         6000 N !
 FUNCTION UN_ASS    298.15  0;                                         6000 N !
 FUNCTION R         298.15  +8.31451;                                  6000 N !
$ ------------------------------------------------------------------------------
$ Element data
$ ------------------------------------------------------------------------------
$ Nb
$
 PAR  G(BCC_A2,NB:VA),,                 +GHSERNB;,,                   N 91Din !
 PAR  G(FCC_A1,NB:VA),,                 +GHSERNB+13500+1.7*T;,,       N 91Din !
 PAR  G(HCP_A3,NB:VA),,                 +GHSERNB+10000+2.4*T;,,       N 91Din !
 PAR  G(LIQUID,NB),,                    +GLIQNB;,,                    N 91Din !
$
 PAR  G(MU_D85,NB:NB:NB:NB),,           +13*GHSERNB+130000;,,         N 04Jou ! 
 PAR  G(NBNI3_D0A,NB:NB),,              +4*GHSERNB+20000;,,           N 96Bol !
$
 FUNCTION GHSERNB   298.15  -8519.353+142.045475*T-26.4711*T*LN(T)
       +2.03475E-04*T**2-3.5012E-07*T**3+93399*T**(-1);
      2750.00  Y  -37669.3+271.720843*T-41.77*T*LN(T)+1.528238E+32*T**(-9);
      6000.00  N !
 FUNCTION GLIQNB    298.15  +29781.555-10.816418*T+GHSERNB-3.06098E-23*T**7;
      2750.00  Y  -7499.398+260.756148*T-41.77*T*LN(T);
      6000.00  N !
$ ------------------------------------------------------------------------------
$ Ni
$
$ FCC_A1 and LIQUID modified in unary 5.0 (slight change in upper T interval)
$ BCT_A5 added in unary 5.0
$
 PAR  G(FCC_A1,NI:VA),,                 +GHSERNI;                3000 N 91Din !
 PAR  TC(FCC_A1,NI:VA),,                  633.00;                3000 N 91Din !
 PAR  BM(FCC_A1,NI:VA),,                    0.52;                3000 N 91Din !
 PAR  G(BCC_A2,NI:VA),,                 +GHSERNI
             +8715.084-3.556*T;                                  3000 N 91Din !
 PAR  TC(BCC_A2,NI:VA),,                  575.00;                3000 N 91Din !
 PAR  BM(BCC_A2,NI:VA),,                    0.85;                3000 N 91Din !
 PAR  G(HCP_A3,NI:VA),,                 +GHSERNI+1046+1.255*T;   3000 N 91Din !
 PAR  TC(HCP_A3,NI:VA),,                  633.00;                3000 N 91Din !
 PAR  BM(HCP_A3,NI:VA),,                    0.52;                3000 N 91Din !
$PAR  G(BCT_A5,NI),,                    +GHSERNI+10023-4.556*T;  3000 N 99Gho !
$PAR  G(CBCC_A12,NI:VA),,               +GHSERNI+3556;           3000 N 91Din !
$PAR  G(CUB_A13,NI:VA),,                +GHSERNI+2092;           3000 N 91Din !
 PAR  G(LIQUID,NI),,                    +GLIQNI;                 3000 N 91Din !
$
 PAR  G(NBNI3_D0A,NI:NI),,              +4*GHSERNI+20000;,,           N 96Bol !
$
 FUNCTION GHSERNI   298.15  -5179.159+117.854*T-22.096*T*LN(T)-0.0048407*T**2;
      1728.00  Y  -27840.62+279.134977*T-43.1*T*LN(T)+1.12754E+31*T**(-9);
      3000.00  N !
 FUNCTION GLIQNI    298.15  +16414.686-9.397*T+GHSERNI-3.82318E-21*T**7;
      1728.00  Y  -9549.817+268.597977*T-43.1*T*LN(T);
      3000.00  N !
 FUNCTION GBCCNI    298.15  +GHSERNI+8715.084-3.556*T;                 6000 N !
$ ------------------------------------------------------------------------------
$ Binary system
$
$ J.-M. Joubert, B. Sundman, N. Dupin, Calphad, 28, 299-306(2004).
$
$ Checked against paper. Checked at 6000K.
$
$ Strong temperature dependence for liquid, fcc and bcc interactions.
$
$ Maximum temperature for NbNi8 is at 806 K instead of 810 K.
$
$ There is an inverse miscibility gap with a minimum  at 3683 K and x(Ni)=0.78.
$
 PAR  L(LIQUID,NB,NI;0),,               -96160+22*T;,,                N 04Jou !
 PAR  L(LIQUID,NB,NI;1),,               +104000-45*T;,,               N 04Jou !
$
 PAR  L(FCC_A1,NB,NI:VA;0),,            -110300+39.5*T;,,             N 04Jou !
 PAR  L(FCC_A1,NB,NI:VA;1),,            +40000;,,                     N 04Jou !
 PAR  TC(FCC_A1,NB,NI:VA;0),,           -2500;,,                      N 04Jou !
$
 PAR  L(BCC_A2,NB,NI:VA;0),,            -28000+20*T;,,                N 04Jou !
$
 PAR  G(MU_D85,NB:NB:NB:NI),,           +7*GHSERNB+6*GHSERNI
             -279000+58*T;,,                                          N 04Jou !
 PAR  G(MU_D85,NB:NB:NI:NB),,           +11*GHSERNB+2*GHSERNI
             +130000;,,                                               N 04Jou !
 PAR  G(MU_D85,NB:NB:NI:NI),,           +5*GHSERNB+8*GHSERNI
             -290000+58*T;,,                                          N 04Jou !
 PAR  G(MU_D85,NI:NB:NB:NB),,           +12*GHSERNB+GHSERNI+130000;,, N 04Jou !
 PAR  G(MU_D85,NI:NB:NB:NI),,           +7*GHSERNI+6*GHSERNB
             -285000+58*T;,,                                          N 04Jou !
 PAR  G(MU_D85,NI:NB:NI:NB),,           +10*GHSERNB+3*GHSERNI
             +130000;,,                                               N 04Jou !
 PAR  G(MU_D85,NI:NB:NI:NI),,           +4*GHSERNB+9*GHSERNI
             -296000+58*T;,,                                          N 04Jou !
$
 PAR  G(NBNI3_D0A,NB:NI),,              +GHSERNB+3*GHSERNI
             -128100+33*T;,,                                          N 04Jou !
 PAR  G(NBNI3_D0A,NI:NB),,              +GHSERNI+3*GHSERNB
             +168100-33*T;,,                                          N 04Jou !
 PAR  L(NBNI3_D0A,NB,NI:NB;0),,         +ZERO;,,                      N 04Jou !
 PAR  L(NBNI3_D0A,NB,NI:NI;0),,         +ZERO;,,                      N 04Jou !
 PAR  L(NBNI3_D0A,NB:NB,NI;0),,         +100000;,,                    N 04Jou !
 PAR  L(NBNI3_D0A,NI:NB,NI;0),,         +100000;,,                    N 04Jou !
$
 PAR  G(NBNI8,NB:NI),,                  +GHSERNB+8*GHSERNI
             -145000+46*T;,,                                          N 04Jou !
$
$ Metastable
$
 PAR  L(HCP_A3,NB,NI:VA;0),,            -110300+39.5*T;,,             N Same !
 PAR  L(HCP_A3,NB,NI:VA;1),,            +40000;,,                     N Same !
$ ------------------------------------------------------------------------------
$
 ASSESSED_SYSTEM
  NB-NI(TDB -* +LIQUID +FCC_A1 +BCC_A2 +NBNI3_D0A +MU_D85 +NBNI8
  ;P3 TMM:300/3000 *) !
$
$
 LIST-OF-REFERENCE
 NUMBER  SOURCE
  Null   'Unknown source'
  Same   'Same or similar interaction as in the corresponding stable phase'
  REFLAV 'Laves phase convention: G(LAVES,X:X)=+3*GHSERXX+15000'
  COST   'COST 507 database'
  91Din  'A.T. Dinsdale, Calphad, 15, 317-425(1991).'
  96Bol  'A. Bolcavage, U.R. Kattner,
          J. Phase Equilib., 17, 92-100(1996); Nb-Ni'
  99Gho  'G. Ghosh, Metall. Mater. Trans. A, 30A, 1481-94(1999),
          SGTE unary database V.5.0, 2009; Ni'
  04Jou  'J.-M. Joubert, B. Sundman, N. Dupin,
          Calphad, 28, 299-306(2004); Nb-Ni'
!
