$
$ Database for Si-C from J. Lacaze and B. Sundman 1991 (included in SGSOL V4.3)
$
$ J. Lacaze, B. Sundman, Metall. Mater. Trans. A, 22A, 2211-23(1991).
$
$ Dataset created 2010.02.20 by Bengt Hallstedt.
$ 2021.02.05: Modified for use with GES6.
$
$ In the paper reference is given to unpublished work by I. Ansara, 1989.
$
$ If BCC_A2 is included, it is stable above 3900 K at about SiC composition.
$
$ No phase diagram is shown in the paper.
$
$ CBCC_A12 and CUB_A13 parameters should probably be removed.
$
$ ------------------------------------------------------------------------------
 TEMP-LIM 298.15 6000.00 !
$
$ELEMENT NAME  REF. STATE               ATOMIC MASS H298-H0    S298    !
$
 ELEMENT VA   VACUUM                      0.0          0.0      0.0    ! 
 ELEMENT C    GRAPHITE                   12.011     1054.0      5.7423 ! 
 ELEMENT SI   DIAMOND_A4                 28.0855    3217.      18.81   ! 
$ ------------------------------------------------------------------------------
$ Phase definitions
$
 PHASE LIQUID:L % 1 1 !
 CONST LIQUID:L : C SI : !
$
$ Fcc (cF4, Fm-3m) and MeX (cF8, Fm-3m)
$
 PHASE FCC_A1 %A 2 1 1 !
 CONST FCC_A1 : SI : C VA% : !
$
$ Bcc (cI2, Im-3m)
$
 PHASE BCC_A2 %B 2 1 3 !
 CONST BCC_A2 : SI : C VA% : !
$
$ Hcp (hP2, P6_3/mmc) and Me2X (NiAs-type, hP4, P6_3/mmc, B8_1)
$
 PHASE HCP_A3 % 2 1 0.5 !
 CONST HCP_A3 : SI : C VA% : !
$
$ Prototype C (cF8, Fd-3m)
$
 PHASE DIAMOND_A4 % 1 1 !
 CONST DIAMOND_A4 : C SI% : !
$
$ Prototype C (hP4, P6_3/mmc)
$
 PHASE GRAPHITE_A9 % 1 1 !
 CONST GRAPHITE_A9 : C : !
$
$ Prototype ZnS (cF8, F-43m)
$
 PHASE SIC_B3 % 2 1 1 !
 CONST SIC_B3 : SI : C : !
$ ------------------------------------------------------------------------------
$ Defaults
$
 DEFINE-SYSTEM-DEFAULT ELEMENT 2 !
 DEFAULT-COM DEFINE_SYSTEM_ELEMENT VA !
 TYPE-DEF % SEQ * !
 TYPE-DEF A GES AMEND_PHASE_DESCRIPTION @ MAGNETIC -3 0.28 !
 TYPE-DEF B GES AMEND_PHASE_DESCRIPTION @ MAGNETIC -1 0.4 !
 FUNCTION ZERO      298.15  0;                                         6000 N !
 FUNCTION UN_ASS    298.15  0;                                         6000 N !
$ ------------------------------------------------------------------------------
$ Element data
$ ------------------------------------------------------------------------------
$ C
$
 PAR  G(GRAPHITE_A9,C),,                +GHSERCC;,,                   N 91Din !
 PAR  G(DIAMOND_A4,C),,                 +GDIACC;,,                    N 91Din !
 PAR  G(LIQUID,C),,                     +GHSERCC+117369-24.63*T;,,    N 91Din !
$
 FUNCTION GHSERCC   298.15  -17368.441+170.73*T-24.3*T*LN(T)
       -4.723E-04*T**2+2562600*T**(-1)-2.643E+08*T**(-2)+1.2E+10*T**(-3);
      6000.00  N !
 FUNCTION GDIACC    298.15  -16359.441+175.61*T-24.31*T*LN(T)
       -4.723E-04*T**2+2698000*T**(-1)-2.61E+08*T**(-2)+1.11E+10*T**(-3);
      6000.00  N !
$ ------------------------------------------------------------------------------
$ Si
$
 PAR  G(DIAMOND_A4,SI),,                +GHSERSI;                3600 N 91Din !
 PAR  G(FCC_A1,SI:VA),,                 +GHSERSI+51000-21.8*T;   3600 N 91Din !
 PAR  G(BCC_A2,SI:VA),,                 +GHSERSI+47000-22.5*T;   3600 N 91Din !
 PAR  G(HCP_A3,SI:VA),,                 +GHSERSI+49200-20.8*T;   3600 N 91Din !
$PAR  G(CBCC_A12,SI:VA),,               +GHSERSI+50208-20.377*T; 3600 N 91Din !
$PAR  G(CUB_A13,SI:VA),,                +GHSERSI+47279-20.377*T; 3600 N 91Din !
 PAR  G(LIQUID,SI),,                    +GLIQSI;                 3600 N 91Din !
$
 FUNCTION GHSERSI   298.15  -8162.609+137.236859*T-22.8317533*T*LN(T)
       -0.001912904*T**2-3.552E-09*T**3+176667*T**(-1);
      1687.00  Y  -9457.642+167.281367*T-27.196*T*LN(T)-4.20369E+30*T**(-9);
      3600.00  N !
 FUNCTION GLIQSI    298.15  +50696.36-30.099439*T+GHSERSI+2.09307E-21*T**7;
      1687.00  Y  +40370.523+137.722298*T-27.196*T*LN(T);
      3600.00  N !
 FUNCTION GBCCSI    298.15  +GHSERSI+47000-22.5*T;               3600 N 91Din !
$ ------------------------------------------------------------------------------
$ Binary system
$
$ From J. Lacaze and B. Sundman 1991 (included in SGSOL V4.3)
$
$ J. Lacaze, B. Sundman, Metall. Mater. Trans. A, 22A, 2211-23(1991).
$
$ Checked against paper. Checked at 6000 K.
$
$ In the paper reference is given to unpublished work by I. Ansara, 1989.
$
$ If BCC_A2 is included, it is stable above 3900 K at about SiC composition.
$
$ No phase diagram is shown in the paper.
$
$ CBCC_A12 and CUB_A13 parameters should probably be removed.
$
 PAR  L(LIQUID,C,SI;0),,                -133000+30.97*T;,,            N 91Lac !
$
 PAR  L(DIAMOND_A4,C,SI;0),,            +ZERO;,,                      N 91Lac !
$
 PAR  G(SIC_B3,SI:C),,                  +GSIC;,,                      N 91Lac !
$
$ Metastable
$
 PAR  G(FCC_A1,SI:C),,                  +GHSERSI+GHSERCC
             -20510+38.7*T;,,                                         N 91Lac !
 PAR  G(BCC_A2,SI:C),,                  +GHSERSI+3*GHSERCC
             +369050-98.167*T;,,                                      N 91Lac !
 PAR  G(HCP_A3,SI:C),,                  +UN_ASS;,,                    N !
$PAR  G(CBCC_A12,SI:C),,                +1000000+566.0326*T
$            -85.955678*T*LN(T)-0.007814909*T**2+3.7239E-07*T**3
$            +1688653*T**(-1);,,                                      N 89NPL !
$PAR  G(CUB_A13,SI:C),,                 +1000000+566.0326*T
$            -85.955678*T*LN(T)-0.007814909*T**2+3.7239E-07*T**3
$            +1688653*T**(-1);,,                                      N 89NPL !
$
 FUNCTION GSIC      298.15  -85572.264+173.2005*T-25.856*T*LN(T)
       -0.02107*T**2+3.2153E-06*T**3+438415*T**(-1);  
       700.00  Y  -95145.902+300.346*T-45.093*T*LN(T)
       -0.00367*T**2+2.2E-07*T**3+1341065*T**(-1);
      2100.00  Y  -105007.971+360.309*T-53.073*T*LN(T)
       -7.4525E-04*T**2+1.73167E-08*T**3+3693345*T**(-1);
      6000.00  N !
$ ------------------------------------------------------------------------------
$
 ASSESSED_SYSTEM
  C-SI(TDB -* +LIQ +DIAM +GRAPH +SIC_B3 ;P3 TMM:300/5000 STP:.99/1690/-2) !
$
$
 LIST-OF-REFERENCE
 NUMBER  SOURCE
  Null   'Unknown source'
  89NPL  'NPL, unpublished, 1989; Mn-Si-C'
  91Din  'A.T. Dinsdale, Calphad, 15, 317-425(1991).'
  91Lac  'J. Lacaze, B. Sundman,
          Metall. Mater. Trans. A, 22A, 2211-23(1991); Fe-Si-C'
!
