$
$ Database for Co-Si from S.-D. Choi 1992 (included in LB Vol. 2)
$
$ S.-D. Choi, Calphad, 16, 151-59(1992).
$
$ Dataset created 2010.03.26 by Bengt Hallstedt.
$ 2020.12.25: Modified for use with GES6.
$
$ There are considerable differences compared to the paper on the Co-Rich side.
$ Pre-SGTE data were used for the elements.
$
$ The liquid, fcc and hcp interactions are ugly. Fcc and hcp are
$ stable just above the melting point of COSI2. The phase diagram in LB
$ is incorrect.
$
$ It was necessary to reduce the stability of the bcc phase.
$
$ ------------------------------------------------------------------------------
 TEMP-LIM 298.15 6000.00 !
$
$ELEMENT NAME  REF. STATE               ATOMIC MASS H298-H0    S298    !
$
 ELEMENT VA   VACUUM                      0.0          0.0      0.0    ! 
 ELEMENT CO   HCP_A3                     58.9332    4765.567   30.0400 ! 
 ELEMENT SI   DIAMOND_A4                 28.0855    3217.      18.81   ! 
$ ------------------------------------------------------------------------------
$ Phase definitions
$
 PHASE LIQUID:L % 1 1 !
 CONST LIQUID:L : CO SI : !
$
$ Fcc (cF4, Fm-3m) and MeX (cF8, Fm-3m)
$
 PHASE FCC_A1 %A 2 1 1 !
 CONST FCC_A1 : CO SI : VA : !
$
$ Bcc (cI2, Im-3m)
$
 PHASE BCC_A2 %B 2 1 3 !
 CONST BCC_A2 : CO SI : VA : !
$
$ Hcp (hP2, P6_3/mmc) and Me2X (NiAs-type, hP4, P6_3/mmc, B8_1)
$
 PHASE HCP_A3 %A 2 1 0.5 !
 CONST HCP_A3 : CO SI : VA : !
$
$ Prototype C (cF8, Fd-3m)
$
 PHASE DIAMOND_A4 % 1 1 !
 CONST DIAMOND_A4 : SI : !
$
$ Prototype CdMg3 (hP8, P6_3/mmc)
$
 PHASE CO3SI_D019 % 2 3 1 !
 CONST CO3SI_D019 : CO : SI : !
$
$ Prototype Co2Si (oP12, Pnma)
$
 PHASE CO2SI_C37 % 2 2 1 !
 CONST CO2SI_C37 : CO : SI : !
$
$ Prototype FeSi (cP8, P2_13)
$
 PHASE COSI_B20 % 2 1 1 !
 CONST COSI_B20 : CO : SI : !
$
$ Prototype CaF2 (cF12, Fm-3m)
$
 PHASE COSI2_C1 % 2 1 2 !
 CONST COSI2_C1 : CO : SI : !
$ ------------------------------------------------------------------------------
$ Defaults
$
 DEFINE-SYSTEM-DEFAULT ELEMENT 2 !
 DEFAULT-COM DEFINE_SYSTEM_ELEMENT VA !
 TYPE-DEF % SEQ * !
 TYPE-DEF A GES AMEND_PHASE_DESCRIPTION @ MAGNETIC -3 0.28 !
 TYPE-DEF B GES AMEND_PHASE_DESCRIPTION @ MAGNETIC -1 0.4 !
 FUNCTION ZERO      298.15  0;                                         6000 N !
 FUNCTION UN_ASS    298.15  0;                                         6000 N !
$ ------------------------------------------------------------------------------
$ Element data
$ ------------------------------------------------------------------------------
$ Co
$
 PAR  G(HCP_A3,CO:VA),,                 +GHSERCO;,,                   N 91Din !
 PAR  TC(HCP_A3,CO:VA),,                 1396.00;,,                   N 91Din !
 PAR  BM(HCP_A3,CO:VA),,                    1.35;,,                   N 91Din !
 PAR  G(FCC_A1,CO:VA),,                 +GHSERCO
             +427.591-0.615248*T;,,                                   N 91Din !
 PAR  TC(FCC_A1,CO:VA),,                 1396.00;,,                   N 91Din !
 PAR  BM(FCC_A1,CO:VA),,                    1.35;,,                   N 91Din !
 PAR  G(BCC_A2,CO:VA),,                 +GHSERCO+2938-0.7138*T;,,     N 91Din !
 PAR  TC(BCC_A2,CO:VA),,                 1450.00;,,                   N 91Din !
 PAR  BM(BCC_A2,CO:VA),,                    1.35;,,                   N 91Din !
$PAR  G(CBCC_A12,CO:VA),,               +GHSERCO+4155;,,              N 91Din !
$PAR  G(CUB_A13,CO:VA),,                +GHSERCO+3155;,,              N 91Din !
 PAR  G(LIQUID,CO),,                    +GLIQCO;,,                    N 91Din !
$
 FUNCTION GHSERCO   298.15  +310.241+133.36601*T-25.0861*T*LN(T)
       -0.002654739*T**2-1.7348E-07*T**3+72527*T**(-1);
      1768.00  Y  -17197.666+253.28374*T-40.5*T*LN(T)+9.3488E+30*T**(-9);
      6000.00  N !
 FUNCTION GLIQCO    298.15  +15085.037-8.931932*T+GHSERCO-2.19801E-21*T**7;
      1768.00  Y  -846.61+243.599944*T-40.5*T*LN(T);
      6000.00  N !
$ ------------------------------------------------------------------------------
$ Si
$
 PAR  G(DIAMOND_A4,SI),,                +GHSERSI;                3600 N 91Din !
 PAR  G(FCC_A1,SI:VA),,                 +GHSERSI+51000-21.8*T;   3600 N 91Din !
 PAR  G(BCC_A2,SI:VA),,                 +GHSERSI+47000-22.5*T;   3600 N 91Din !
 PAR  G(HCP_A3,SI:VA),,                 +GHSERSI+49200-20.8*T;   3600 N 91Din !
$PAR  G(CBCC_A12,SI:VA),,               +GHSERSI+50208-20.377*T; 3600 N 91Din !
$PAR  G(CUB_A13,SI:VA),,                +GHSERSI+47279-20.377*T; 3600 N 91Din !
 PAR  G(LIQUID,SI),,                    +GLIQSI;                 3600 N 91Din !
$
 FUNCTION GHSERSI   298.15  -8162.609+137.236859*T-22.8317533*T*LN(T)
       -0.001912904*T**2-3.552E-09*T**3+176667*T**(-1);
      1687.00  Y  -9457.642+167.281367*T-27.196*T*LN(T)-4.20369E+30*T**(-9);
      3600.00  N !
 FUNCTION GLIQSI    298.15  +50696.36-30.099439*T+GHSERSI+2.09307E-21*T**7;
      1687.00  Y  +40370.523+137.722298*T-27.196*T*LN(T);
      3600.00  N !
 FUNCTION GBCCSI    298.15  +GHSERSI+47000-22.5*T;               3600 N 91Din !
$ ------------------------------------------------------------------------------
$ Binary system
$
$ From S.-D. Choi 1992 (included in LB Vol. 2)
$
$ S.-D. Choi, Calphad, 16, 151-59(1992).
$
$ Checked against LB and paper. Checked at 6000 K.
$
$ There are considerable differences compared to the paper on the Co-Rich side.
$ Pre-SGTE data were used for the elements.
$
$ The liquid, fcc and hcp interactions are ugly. Fcc and hcp are
$ stable just above the melting point of COSI2. The phase diagram in LB
$ is incorrect.
$
$ It was necessary to reduce the stability of the bcc phase.
$
 PAR  L(LIQUID,CO,SI;0),,               -200104+47.13668*T;,,         N 92Cho !
 PAR  L(LIQUID,CO,SI;1),,               -40783.1+3.33709*T;,,         N 92Cho !
 PAR  L(LIQUID,CO,SI;2),,               +108723.5-50.43157*T;,,       N 92Cho !
 PAR  L(LIQUID,CO,SI;3),,               +143143.5-73.63639*T;,,       N 92Cho !
$
 PAR  L(FCC_A1,CO,SI:VA;0),,            -148550+3.41324*T;,,          N 92Cho !
 PAR  L(FCC_A1,CO,SI:VA;1),,            -46243.5+37.58562*T;,,        N 92Cho !
$
 PAR  L(HCP_A3,CO,SI:VA;0),,            -147438+1.78253*T;,,          N 92Cho !
 PAR  L(HCP_A3,CO,SI:VA;1),,            -45650.9+35.84748*T;,,        N 92Cho !
$
 PAR  G(CO3SI_D019,CO:SI),,             +3*GHSERCO+GHSERSI
             -78452-26.512*T;,,                                       N 92Cho !
 PAR  G(CO2SI_C37,CO:SI),,              +2*GHSERCO+GHSERSI
             -123120-36.35265*T+8.27265*T*LN(T)-0.0107865*T**2
             +3.5052E-07*T**3+44730*T**(-1);,,                        N 92Cho !
 PAR  G(COSI_B20,CO:SI),,               +GHSERCO+GHSERSI
             -100248.4+22.43696*T-1.24215*T*LN(T)-0.0014823*T**2
             +1.7704E-07*T**3+127806*T**(-1);,,                       N 92Cho !
 PAR  G(COSI2_C1,CO:SI),,               +GHSERCO+2*GHSERSI
             -103227.9+11.2104*T-.1104*T*LN(T)-0.00284925*T**2
             +1.806E-07*T**3+70641*T**(-1);,,                         N 92Cho !
$
$ Metastable
$
 PAR  L(BCC_A2,CO,SI:VA;0),,            -140000+3.41324*T;,,          N Same !
 PAR  L(BCC_A2,CO,SI:VA;1),,            -46243.5+25*T;,,              N Same !
$ ------------------------------------------------------------------------------
$
 ASSESSED_SYSTEM
  CO-SI(TDB -* +LIQ +HCP_A3 +FCC_A1 +DIAM +CO3SI +CO2SI_C37 +COSI_B20
  +COSI2_C1 ;P3 TMM:300/2000 *) !
$
$
 LIST-OF-REFERENCE
 NUMBER  SOURCE
  Null   'Unknown source'
  Same   'Same or similar interaction as in the corresponding stable phase'
  91Din  'A.T. Dinsdale, Calphad, 15, 317-425(1991).'
  92Cho  'S.-D. Choi, Calphad, 16, 151-59(1992); Co-Si'
!
