$
$ Database for Mn-Si from J.E. Tibballs 1991 (included in LB Vol. 4)
$
$ J.E. Tibballs, SI-report 890221-5, 1991 (also COST 507 report, 1998).
$
$ Dataset created 2010.02.12 by Bengt Hallstedt.
$ 2021.01.30: Modified for use with GES6.
$
$ There are some differences in the invariant equilibria between LB and the
$ COST report, possibly because of rounding errors. This dataset reproduces
$ the LB version correctly.
$
$ Mn6Si is stable above 5500 K and there is an inverse miscibility gap with
$ a minimum at 5800 K and x(Si)=0.58.
$
$ ------------------------------------------------------------------------------
 TEMP-LIM 298.15 6000.00 !
$
$ELEMENT NAME  REF. STATE               ATOMIC MASS H298-H0    S298    !
$
 ELEMENT VA   VACUUM                      0.0          0.0      0.0    ! 
 ELEMENT MN   CBCC_A12                   54.9380    4995.696   32.2206 ! 
 ELEMENT SI   DIAMOND_A4                 28.0855    3217.      18.81   ! 
$ ------------------------------------------------------------------------------
$ Phase definitions
$
 PHASE LIQUID:L % 1 1 !
 CONST LIQUID:L : MN SI : !
$
$ Fcc (cF4, Fm-3m) and MeX (cF8, Fm-3m)
$
 PHASE FCC_A1 %A 2 1 1 !
 CONST FCC_A1 : MN% SI : VA : !
$
$ Bcc (cI2, Im-3m)
$
 PHASE BCC_A2 %B 2 1 3 !
 CONST BCC_A2 : MN% SI : VA : !
$
$ Hcp (hP2, P6_3/mmc) and Me2X (NiAs-type, hP4, P6_3/mmc, B8_1)
$
 PHASE HCP_A3 % 2 1 0.5 !
 CONST HCP_A3 : MN% SI : VA : !
$
$ Prototype alpha-Mn (cI58, I-43m)
$
 PHASE CBCC_A12 % 2 1 1 !
 CONST CBCC_A12 : MN% SI : VA : !
$
$ Prototype beta-Mn (cP20, P4_132)
$
 PHASE CUB_A13 % 2 1 1 !
 CONST CUB_A13 : MN% SI : VA : !
$
$ Prototype C (cF8, Fd-3m)
$
 PHASE DIAMOND_A4 % 1 1 !
 CONST DIAMOND_A4 : SI : !
$
$ Prototype FeSi (cP8, P2_13)
$
 PHASE MSI_B20 % 2 1 1 !
 CONST MSI_B20 : MN : SI : !
$
$ Prototype R-(Co,Cr,Mo) (hR53, R-3) or possibly Fe7W6 (hR13, R-3m)
$
 PHASE MN6SI % 2 17 3 !
 CONST MN6SI : MN : SI : !
$
$ Prototype Mn9Si2 (oI186, Immm), nu phase
$
 PHASE MN9SI2 % 2 33 7 !
 CONST MN9SI2 : MN : SI : !
$
$ The structure of alpha-Mn3Si is unknown.
$ Beta-Mn3Si is D0_3 (prototype BiF3 (cF16, Fm-3m))
$ The transformation is at 950 K.
$
 PHASE M3SI_D03 % 2 3 1 !
 CONST M3SI_D03 : MN : SI : !
$
$ Prototype Mn5Si3 (hP16, P6_3/mcm)
$
 PHASE M5SI3_D88 % 2 5 3 !
 CONST M5SI3_D88 : MN : SI : !
$
$ Prototype Mn11Si19 (tP120, P-4n2)
$
 PHASE MN11SI19 % 2 11 19 !
 CONST MN11SI19 : MN : SI : !
$ ------------------------------------------------------------------------------
$ Defaults
$
 DEFINE-SYSTEM-DEFAULT ELEMENT 2 !
 DEFAULT-COM DEFINE_SYSTEM_ELEMENT VA !
 TYPE-DEF % SEQ * !
 TYPE-DEF A GES AMEND_PHASE_DESCRIPTION @ MAGNETIC -3 0.28 !
 TYPE-DEF B GES AMEND_PHASE_DESCRIPTION @ MAGNETIC -1 0.4 !
 FUNCTION ZERO      298.15  0;                                         6000 N !
 FUNCTION UN_ASS    298.15  0;                                         6000 N !
 FUNCTION R         298.15  +8.31451;                                  6000 N !
$ ------------------------------------------------------------------------------
$ Element data
$ ------------------------------------------------------------------------------
$ Mn
$
 PAR  G(CBCC_A12,MN:VA),,               +GHSERMN;                2000 N 91Din !
 PAR  TC(CBCC_A12,MN:VA),,               -285.00;                2000 N 91Din !
 PAR  BM(CBCC_A12,MN:VA),,                 -0.66;                2000 N 91Din !
 PAR  G(CUB_A13,MN:VA),,                +GCUBMN;                 2000 N 91Din !
 PAR  G(FCC_A1,MN:VA),,                 +GFCCMN;                 2000 N 91Din !
 PAR  TC(FCC_A1,MN:VA),,                -1620.00;                2000 N 91Din !
 PAR  BM(FCC_A1,MN:VA),,                   -1.86;                2000 N 91Din !
 PAR  G(BCC_A2,MN:VA),,                 +GBCCMN;                 2000 N 91Din !
 PAR  TC(BCC_A2,MN:VA),,                 -580.00;                2000 N 91Din !
 PAR  BM(BCC_A2,MN:VA),,                   -0.27;                2000 N 91Din !
 PAR  G(HCP_A3,MN:VA),,                 +GHCPMN;                 2000 N 91Din !
 PAR  TC(HCP_A3,MN:VA),,                -1620.00;                2000 N 91Din !
 PAR  BM(HCP_A3,MN:VA),,                   -1.86;                2000 N 91Din !
 PAR  G(LIQUID,MN),,                    +GLIQMN;                 2000 N 91Din !
$
 FUNCTION GHSERMN   298.15  -8115.28+130.059*T-23.4582*T*LN(T)
       -0.00734768*T**2+69827*T**(-1);
      1519.00  Y  -28733.41+312.2648*T-48*T*LN(T)+1.656847E+30*T**(-9);
      2000.00  N !
 FUNCTION GCUBMN    298.15  -5800.4+135.995*T-24.8785*T*LN(T)
       -0.00583359*T**2+70269*T**(-1);
      1519.00  Y  +442.65-0.9715*T+GHSERMN+2.310723E+30*T**(-9);
      2000.00  N !
 FUNCTION GFCCMN    298.15  -3439.3+131.884*T-24.5177*T*LN(T)
       -0.006*T**2+69600*T**(-1);
      1519.00  Y  +2663.31-2.5984*T+GHSERMN+2.205113E+30*T**(-9);
      2000.00  N !
 FUNCTION GBCCMN    298.15  -3235.3+127.85*T-23.7*T*LN(T)
       -0.00744271*T**2+60000*T**(-1);
      1519.00  Y  +5544.58-4.5605*T+GHSERMN-3.91695E+29*T**(-9);
      2000.00  N !
 FUNCTION GHCPMN    298.15  -4439.3+133.007*T-24.5177*T*LN(T)
       -0.006*T**2+69600*T**(-1);
      1519.00  Y  +1663.31-1.4754*T+GHSERMN+2.205113E+30*T**(-9);
      2000.00  N !
 FUNCTION GLIQMN    298.15  +17859.91-12.6208*T+GHSERMN-4.41929E-21*T**7;
      1519.00  Y  -9993.9+299.036*T-48*T*LN(T);
      2000.00  N !
$ ------------------------------------------------------------------------------
$ Si
$
 PAR  G(DIAMOND_A4,SI),,                +GHSERSI;                3600 N 91Din !
 PAR  G(FCC_A1,SI:VA),,                 +GHSERSI+51000-21.8*T;   3600 N 91Din !
 PAR  G(BCC_A2,SI:VA),,                 +GHSERSI+47000-22.5*T;   3600 N 91Din !
 PAR  G(HCP_A3,SI:VA),,                 +GHSERSI+49200-20.8*T;   3600 N 91Din !
 PAR  G(CBCC_A12,SI:VA),,               +GHSERSI+50208-20.377*T; 3600 N 91Din !
 PAR  G(CUB_A13,SI:VA),,                +GHSERSI+47279-20.377*T; 3600 N 91Din !
 PAR  G(LIQUID,SI),,                    +GLIQSI;                 3600 N 91Din !
$
 FUNCTION GHSERSI   298.15  -8162.609+137.236859*T-22.8317533*T*LN(T)
       -0.001912904*T**2-3.552E-09*T**3+176667*T**(-1);
      1687.00  Y  -9457.642+167.281367*T-27.196*T*LN(T)-4.20369E+30*T**(-9);
      3600.00  N !
 FUNCTION GLIQSI    298.15  +50696.36-30.099439*T+GHSERSI+2.09307E-21*T**7;
      1687.00  Y  +40370.523+137.722298*T-27.196*T*LN(T);
      3600.00  N !
 FUNCTION GBCCSI    298.15  +GHSERSI+47000-22.5*T;               3600 N 91Din !
$ ------------------------------------------------------------------------------
$ Binary system
$
$ From J.E. Tibballs 1991 (included in LB Vol. 4)
$
$ J.E. Tibballs, SI-report 890221-5, 1991 (also COST 507 report, 1998).
$
$ Checked against LB and COST report. Checked at 6000 K.
$
$ There are some differences in the invariant equilibria between LB and the
$ COST report, possibly because of rounding errors. This dataset reproduces
$ the LB version correctly.
$
$ Mn6Si is stable above 5500 K and there is an inverse miscibility gap with
$ a minimum at 5800 K and x(Si)=0.58.
$
 PAR  L(LIQUID,MN,SI;0),,               -139817.4+29.86137*T;,,       N 91Tib !
 PAR  L(LIQUID,MN,SI;1),,               -34917.2+3.20488*T;,,         N 91Tib !
 PAR  L(LIQUID,MN,SI;2),,               +46782.4-18.18969*T;,,        N 91Tib !
 PAR  L(LIQUID,MN,SI;3),,               +16168.2;,,                   N 91Tib !
$
 PAR  L(FCC_A1,MN,SI:VA;0),,            -95600+2.94097*T;,,           N 91Tib !
 PAR  L(FCC_A1,MN,SI:VA;1),,            -7500;,,                      N 91Tib !
$
 PAR  L(BCC_A2,MN,SI:VA;0),,            -89620.7+2.94097*T;,,         N 91Tib !
 PAR  L(BCC_A2,MN,SI:VA;1),,            -7500;,,                      N 91Tib !
$
 PAR  L(CBCC_A12,MN,SI:VA;0),,          -142743.62+22.3961*T;,,       N 91Tib !
 PAR  L(CBCC_A12,MN,SI:VA;1),,          +16440.608-3.5300332*T;,,     N 91Tib !
$
 PAR  L(CUB_A13,MN,SI:VA;0),,           -142343.62+21.89261*T;,,      N 91Tib !
 PAR  L(CUB_A13,MN,SI:VA;1),,           +16440.608-3.5300332*T;,,     N 91Tib !
$
 PAR  G(MN6SI,MN:SI),,                  +20*GMN17SI3;,,               N 91Tib !
 PAR  G(MN9SI2,MN:SI),,                 +40*GMN33SI7;,,               N 91Tib !
 PAR  G(M3SI_D03,MN:SI),,               +4*GMN3SI;,,                  N 91Tib !
 PAR  G(M5SI3_D88,MN:SI),,              +GMN5SI3;,,                   N 91Tib !
 PAR  G(MSI_B20,MN:SI),,                +2*GMNSI;,,                   N 91Tib !
 PAR  G(MN11SI19,MN:SI),,               +GMN11SI1;,,                  N 91Tib !
$
$ metastable
$
 PAR  L(HCP_A3,MN,SI:VA;0),,            -86775+2.94*T;,,              N 93For !
 PAR  L(HCP_A3,MN,SI:VA;1),,            -7500;,,                      N 93For !
$
 FUNCTION GMN17SI3  298.15  +0.85*GHSERMN+0.15*GHSERSI-12509.03+4.24222*T
       -0.6038776*T*LN(T)-0.001652606*T**2+375.7*T**(-1);
      1519.00  Y  +0.85*GHSERMN+0.15*GHSERSI-14100.43-1.629152*T
       +0.6033774*T*LN(T)-0.0029395827*T**2+1.964114E+30*T**(-9);
      6000.00  N !
 FUNCTION GMN33SI7  298.15  +0.825*GHSERMN+0.175*GHSERSI-14455.21+9.53235*T
       -1.421747*T*LN(T)-0.001250875*T**2+364.65*T**(-1);
      1519.00  Y  +0.825*GHSERMN+0.175*GHSERSI-15999.8+3.833662*T
       -0.25*T*LN(T)-0.0025*T**2+1.906346E+30*T**(-9);
      6000.00  N !
 FUNCTION GMN3SI    298.15  -31047.468+195.60933*T-32.920521*T*LN(T)
       -0.0019425154*T**2+414300.232*T**(-1);
       950.00  Y  -29935.151+194.43847*T-32.920521*T*LN(T)
       -0.0019425154*T**2+414300.232*T**(-1);
      6000.00  N !
 FUNCTION GMN5SI3   298.15  -261930.32+1170.7779*T-211.15016*T*LN(T)
       -0.01529344*T**2-149263.11*T**(-1);
      6000.00  N !
 FUNCTION GMNSI     298.15  -39067.572+154.1244*T-26.210608*T*LN(T)
       -0.0034516778*T**2+438221.48*T**(-1);
      6000.00  N !
 FUNCTION GMN11SI1  298.15  -636300.49+1624.9288*T-378.69397*T*LN(T)
       -0.16391259*T**2-15432618*T**(-1);
      6000.00  N !
$ ------------------------------------------------------------------------------
$
 ASSESSED_SYSTEM
  MN-SI(TDB -* +LIQUID +BCC_A2 +CBCC_A12 +CUB_A13 +DIAMOND +FCC_A1 +MSI_B20
  +M3SI_D03 +M5SI3_D88 +MN11SI19 +MN6SI +MN9SI2
  ;P3 TMM:300/2000 STP:.5/1700/-2) !
$
$
 LIST-OF-REFERENCE
 NUMBER  SOURCE
  Null   'Unknown source'
  Same   'Same or similar interaction as in the corresponding stable phase'
  REFLAV 'Laves phase convention: G(LAVES,X:X)=+3*GHSERXX+15000'
  91Din  'A.T. Dinsdale, Calphad, 15, 317-425(1991).'
  91Tib  'J.E. Tibballs, SI-report 890221-5, 1991
          (also COST 507 report, 1998); Mn-Si'
  93For  'A. Forsberg, J. Agren, J. Phase Equilib., 14, 354-63(1993); Fe-Mn-Si'
!
