$
$ Database for Fe-Pu from M. Kurata et al. 2001.
$
$ M. Kurata, K. Nakamura, T. Ogata, J. Nucl. Mater., 294, 123-29(2001).
$
$ Dataset created 2021.12.05 by Bengt Hallstedt.
$
$ The liquid interaction is scary.
$
$ ------------------------------------------------------------------------------
 TEMP-LIM 298.15 6000.00 !
$
$ELEMENT NAME  REF. STATE               ATOMIC MASS H298-H0    S298    !
$
 ELEMENT VA   VACUUM                      0.0          0.0      0.0    ! 
 ELEMENT FE   BCC_A2                     55.847     4489.0     27.2797 ! 
 ELEMENT PU   ALPHA_PU                  244.        6902.0     54.4610 ! 
$ ------------------------------------------------------------------------------
$ Phase definitions
$
 PHASE LIQUID:L % 1 1 !
 CONST LIQUID:L : FE PU : !
$
$ Fcc (cF4, Fm-3m) and MeX (cF8, Fm-3m)
$
 PHASE FCC_A1 %A 2 1 1 !
 CONST FCC_A1 : FE% PU : VA : !
$
$ Bcc (cI2, Im-3m)
$
 PHASE BCC_A2 %B 2 1 3 !
 CONST BCC_A2 : FE% PU% : VA : !
$
$ Hcp (hP2, P6_3/mmc) and Me2X (NiAs-type, hP4, P6_3/mmc, B8_1)
$
 PHASE HCP_A3 %A 2 1 0.5 !
 CONST HCP_A3 : FE : VA : !
$
$ Prototype In (tI2, I4/mmm), delta-prime
$
 PHASE TETRAGONAL_A6 % 1 1 !
 CONST TETRAGONAL_A6 : PU : !
$
$ Prototype alpha-Pu (mP16, P2_1/m)
$
 PHASE ALPHA_PU % 1 1 !
 CONST ALPHA_PU : PU : !
$
$ Prototype beta-Pu (mC34, C2/m)
$
 PHASE BETA_PU % 1 1 !
 CONST BETA_PU : PU : !
$
$ Prototype gamma-Pu (oF8, Fddd)
$
 PHASE GAMMA_PU % 1 1 !
 CONST GAMMA_PU : PU : !
$
$ Prototype Cu2Mg (cF24, Fd-3m)
$
 PHASE FE2PU_C15 % 2 2 1 !
 CONST FE2PU_C15 : FE : PU : !
$
$ Prototype MnU6 (tI28, I4/mcm)
$
 PHASE FEPU6_D2C % 2 1 6 !
 CONST FEPU6_D2C : FE : PU : !
$ ------------------------------------------------------------------------------
$ Defaults
$
 DEFINE-SYSTEM-DEFAULT ELEMENT 2 !
 DEFAULT-COM DEFINE_SYSTEM_ELEMENT VA !
 TYPE-DEF % SEQ * !
 TYPE-DEF A GES AMEND_PHASE_DESCRIPTION @ MAGNETIC -3 0.28 !
 TYPE-DEF B GES AMEND_PHASE_DESCRIPTION @ MAGNETIC -1 0.4 !
 FUNCTION ZERO      298.15  0;                                         6000 N !
 FUNCTION UN_ASS    298.15  0;                                         6000 N !
 FUNCTION R         298.15  +8.31451;                                  6000 N !
$ ------------------------------------------------------------------------------
$ Element data
$ ------------------------------------------------------------------------------
$ Fe
$
$ ORTHORHOMBIC_A20 and TETRAGONAL_U added im unary 4.1
$
 PAR  G(BCC_A2,FE:VA),,                 +GHSERFE;,,                   N 91Din !
 PAR  TC(BCC_A2,FE:VA),,                 1043.00;,,                   N 91Din !
 PAR  BM(BCC_A2,FE:VA),,                    2.22;,,                   N 91Din !
 PAR  G(FCC_A1,FE:VA),,                 +GFCCFE;,,                    N 91Din !
 PAR  TC(FCC_A1,FE:VA),,                 -201.00;,,                   N 91Din !
 PAR  BM(FCC_A1,FE:VA),,                   -2.10;,,                   N 91Din !
 PAR  G(HCP_A3,FE:VA),,                 +GHCPFE;,,                    N 91Din !
$PAR  G(CBCC_A12,FE:VA),,               +GHSERFE+4745;,,              N 91Din !
$PAR  G(CUB_A13,FE:VA),,                +GHSERFE+3745;,,              N 91Din !
$PAR  G(ORTHORHOMBIC_A20,FE),,          +GHSERFE+5000;,,              N 99SGUN !
$PAR  G(TETRAGONAL_U,FE),,              +GHSERFE+5000;,,              N 99SGUN !
 PAR  G(LIQUID,FE),,                    +GLIQFE;,,                    N 91Din !
$
 FUNCTION GHSERFE   298.15  +1225.7+124.134*T-23.5143*T*LN(T)
       -0.00439752*T**2-5.8927E-08*T**3+77359*T**(-1);
      1811.00  Y  -25383.581+299.31255*T-46*T*LN(T)+2.29603E+31*T**(-9);
      6000.00  N !
 FUNCTION GFCCFE    298.15  -1462.4+8.282*T-1.15*T*LN(T)
       +6.4E-04*T**2+GHSERFE;
      1811.00  Y  -1713.815+0.940009*T+GHSERFE+4.9251E+30*T**(-9);
      6000.00  N !
 FUNCTION GHCPFE    298.15  -3705.78+12.591*T-1.15*T*LN(T)
       +6.4E-04*T**2+GHSERFE;
      1811.00  Y  -3957.195+5.249009*T+GHSERFE+4.9251E+30*T**(-9);
      6000.00  N !
 FUNCTION GLIQFE    298.15  +12040.17-6.55843*T+GHSERFE-3.67516E-21*T**7;
      1811.00  Y  -10838.83+291.302*T-46*T*LN(T);
      6000.00  N !
$ ------------------------------------------------------------------------------
$ Pu
$
 PAR  G(ALPHA_PU,PU),,                  +GHSERPU;                3000 N 91Din !
 PAR  G(BCC_A2,PU:VA),,                 +GBCCPU;                 3000 N 91Din !
 PAR  G(BETA_PU,PU),,                   +GBETPU;                 3000 N 91Din !
 PAR  G(FCC_A1,PU:VA),,                 +GFCCPU;                 3000 N 91Din !
 PAR  G(GAMMA_PU,PU),,                  +GGAMPU;                 3000 N 91Din !
 PAR  G(TETRAGONAL_A6,PU),,             +GTETPU;                 3000 N 91Din !
 PAR  G(LIQUID,PU),,                    +GHSERPU
             +6608.1-12.5133*T;                                  3000 N 91Din !
$
 FUNCTION GHSERPU   298.15  -7396.309+80.301382*T-18.1258*T*LN(T)
       -0.02241*T**2;
       400.00  Y  -16605.962+236.786603*T-42.4187*T*LN(T)
       -0.00134493*T**2+2.63443E-07*T**3+579325*T**(-1);
       944.00  Y  -14462.156+232.961553*T-42.248*T*LN(T);
      3000.00  N !
 FUNCTION GBCCPU    298.15  -1358.984+116.603882*T-27.094*T*LN(T)
       -0.009105*T**2+2.061667E-06*T**3+20863*T**(-1);
       745.00  Y  -2890.817+156.878957*T-33.72*T*LN(T);
       956.00  Y  +29313.619-132.788248*T+6.921*T*LN(T)
       -0.02023305*T**2+1.426922E-06*T**3-4469245*T**(-1);
      2071.00  Y  -938.429-5.539698*T+GHSERPU;
      3000.00  N !
 FUNCTION GBETPU    298.15  -4873.654+123.249151*T-27.416*T*LN(T)
       -0.00653*T**2;
       679.50  Y  +2435.094+43.566585*T-15.7351*T*LN(T)
       -0.0154772*T**2+1.524942E-06*T**3-864940*T**(-1);
      1464.00  Y  +503.094-4.739938*T+GHSERPU;
      3000.00  N !
 FUNCTION GFCCPU    298.15  -3920.781+127.586536*T-28.4781*T*LN(T)
       -0.0054035*T**2;
       990.00  Y  +3528.208+41.52572*T-15.7351*T*LN(T)
       -0.0154772*T**2+1.524942E-06*T**3-864940*T**(-1);
      1464.00  Y  +1596.208-6.780803*T+GHSERPU;
      3000.00  N !
 FUNCTION GGAMPU    298.15  -16766.303+419.402655*T-77.5802*T*LN(T)
       +0.0816415*T**2-2.8103833E-05*T**3+574825*T**(-1);
       487.90  Y  -2942.77+88.325069*T-22.0233*T*LN(T)-0.0114795*T**2;
       593.90  Y  -9336.967+160.314641*T-32.3405*T*LN(T)
       -0.0070383*T**2+6.92887E-07*T**3+630600*T**(-1);
      1179.00  Y  +2026.406-6.829936*T+GHSERPU;
      3000.00  N !
 FUNCTION GTETPU    298.15  -496.178+54.586547*T-16.43*T*LN(T)
       -0.024006*T**2+5.166667E-06*T**3-158470*T**(-1);
       736.00  Y  -6122.307+173.35008*T-35.56*T*LN(T);
       757.00  Y  +3982.078+63.890352*T-19.756*T*LN(T)
       -0.00937295*T**2+6.59882E-07*T**3-1112565*T**(-1);
      2157.00  Y  -738.383-4.905143*T+GHSERPU;
      3000.00  N !
 FUNCTION GLIQPU    298.15  +GHSERPU+6608.1-12.5133*T;                 3000 N !
$ ------------------------------------------------------------------------------
$ Binary system
$
$ M. Kurata, K. Nakamura, T. Ogata, J. Nucl. Mater., 294, 123-29(2001).
$
$ Checked against paper. Checked at 6000 K.
$
$ The liquid interaction is scary.
$
 PAR  L(LIQUID,FE,PU;0),,               +28000-48.22*T;,,             N 01Kur !
 PAR  L(LIQUID,FE,PU;1),,               +21080;,,                     N 01Kur !
 PAR  L(LIQUID,FE,PU;2),,               -16630;,,                     N 01Kur !
$
 PAR  L(FCC_A1,FE,PU:VA;0),,            +5000;,,                      N 01Kur !
 PAR  L(BCC_A2,FE,PU:VA;1),,            +20000;,,                     N 01Kur !
$
 PAR  G(FE2PU_C15,FE:PU),,              +2*GLIQFE+GLIQPU
             -55130+3.038*T;,,                                        N 01Kur !
 PAR  G(FEPU6_D2C,FE:PU),,              +GLIQFE+6*GLIQPU
             -161300+170.4*T;,,                                       N 01Kur !
$ ------------------------------------------------------------------------------
$
$
 LIST-OF-REFERENCE
 NUMBER  SOURCE
  Null   'Unknown source'
  Same   'Same or similar interaction as in the corresponding stable phase'
  REFLAV 'Laves phase convention: G(LAVES,X:X)=+3*GHSERXX+15000'
  91Din  'A.T. Dinsdale, Calphad, 15, 317-425(1991).'
  99SGUN 'SGTE unary database V.4.1, 1999.'
  01Kur  'M. Kurata, K. Nakamura, T. Ogata,
          J. Nucl. Mater., 294, 123-29(2001); Fe-Pu'
!
