$
$ Database for Fe-Gd from M. Zinkevich et al. 2000.
$
$ M. Zinkevich, N. Mattern, H.J. Seifert, J. Phase Equilib., 21, 385-94(2000).
$
$ Dataset created 2017.12.17 by Bengt Hallstedt.
$ 2020.12.26: Modified for use with GES6.
$
$ Old unary data for Gd is used. With current data substantial changes in the
$ Gd rich part of the system are expected.
$
$ There is an inverse miscibility gap with a minimum at 2441 K and x(Gd)=0.68.
$
$ It is unclear which BMAG 00Zin used. They give them in BM(mole atoms), but
$ not recalulated per formula unit. If calculated according to nln(BM+1) the
$ following BM(mole formula unit) are derived: Fe17Gd2 BM=2695710,
$ Fe23Gd6 BM=154998, Fe3Gd BM=2.73, Fe2Gd BM=10.24. These are much larger
$ BM than used by 95Liu who (incorrectly) calculated BM=n*B0, where B0 is
$ per mole atoms.
$
$ ------------------------------------------------------------------------------
 TEMP-LIM 298.15 6000.00 !
$
$ELEMENT NAME  REF. STATE               ATOMIC MASS H298-H0    S298    !
$
 ELEMENT VA   VACUUM                      0.0          0.0      0.0    ! 
 ELEMENT FE   BCC_A2                     55.847     4489.0     27.2797 ! 
 ELEMENT GD   HCP_A3                    157.25      9087.648   68.0894 ! 
$ ------------------------------------------------------------------------------
$ Phase definitions
$
 PHASE LIQUID:L % 1 1 !
 CONST LIQUID:L : FE GD : !
$
$ Fcc (cF4, Fm-3m) and MeX (cF8, Fm-3m)
$
 PHASE FCC_A1 %A 2 1 1 !
 CONST FCC_A1 : FE% GD : VA : !
$
$ Bcc (cI2, Im-3m)
$
 PHASE BCC_A2 %B 2 1 3 !
 CONST BCC_A2 : FE% GD% : VA : !
$
$ Hcp (hP2, P6_3/mmc) and Me2X (NiAs-type, hP4, P6_3/mmc, B8_1)
$
 PHASE HCP_A3 %A 2 1 0.5 !
 CONST HCP_A3 : FE GD% : VA : !
$
$ Prototype Th2Zn17 (hR19, R-3m)
$
 PHASE FE17GD2_LT %A 2 17 2 !
 CONST FE17GD2_LT : FE : GD : !
$
$ Prototype Ni17Th2 (hP38, P6_3/mmc)
$
 PHASE FE17GD2_HT %A 2 17 2 !
 CONST FE17GD2_HT : FE : GD : !
$
$ Prototype Mn23Th6 (cF116, Fm-3m)
$
 PHASE FE23GD6_D8A %A 2 23 6 !
 CONST FE23GD6_D8A : FE : GD : !
$
$ Prototype Ni3Pu (hR12, R-3m)
$
 PHASE FE3GD %A 2 3 1 !
 CONST FE3GD : FE : GD : !
$
$ Prototype Cu2Mg (cF24, Fd-3m)
$
 PHASE FE2GD_C15 %A 2 2 1 !
 CONST FE2GD_C15 : FE : GD : !
$ ------------------------------------------------------------------------------
$ Defaults
$
 DEFINE-SYSTEM-DEFAULT ELEMENT 2 !
 DEFAULT-COM DEFINE_SYSTEM_ELEMENT VA !
 TYPE-DEF % SEQ * !
 TYPE-DEF A GES AMEND_PHASE_DESCRIPTION @ MAGNETIC -3 0.28 !
 TYPE-DEF B GES AMEND_PHASE_DESCRIPTION @ MAGNETIC -1 0.4 !
 FUNCTION ZERO      298.15  0;                                         6000 N !
 FUNCTION UN_ASS    298.15  0;                                         6000 N !
 FUNCTION R         298.15  +8.31451;                                  6000 N !
$ ------------------------------------------------------------------------------
$ Element data
$ ------------------------------------------------------------------------------
$ Fe
$
$ ORTHORHOMBIC_A20 and TETRAGONAL_U added im unary 4.1
$
 PAR  G(BCC_A2,FE:VA),,                 +GHSERFE;,,                   N 91Din !
 PAR  TC(BCC_A2,FE:VA),,                 1043.00;,,                   N 91Din !
 PAR  BM(BCC_A2,FE:VA),,                    2.22;,,                   N 91Din !
 PAR  G(FCC_A1,FE:VA),,                 +GFCCFE;,,                    N 91Din !
 PAR  TC(FCC_A1,FE:VA),,                 -201.00;,,                   N 91Din !
 PAR  BM(FCC_A1,FE:VA),,                   -2.10;,,                   N 91Din !
 PAR  G(HCP_A3,FE:VA),,                 +GHCPFE;,,                    N 91Din !
$PAR  G(CBCC_A12,FE:VA),,               +GHSERFE+4745;,,              N 91Din !
$PAR  G(CUB_A13,FE:VA),,                +GHSERFE+3745;,,              N 91Din !
$PAR  G(ORTHORHOMBIC_A20,FE),,          +GHSERFE+5000;,,              N 99SGUN !
$PAR  G(TETRAGONAL_U,FE),,              +GHSERFE+5000;,,              N 99SGUN !
 PAR  G(LIQUID,FE),,                    +GLIQFE;,,                    N 91Din !
$
 FUNCTION GHSERFE   298.15  +1225.7+124.134*T-23.5143*T*LN(T)
       -0.00439752*T**2-5.8927E-08*T**3+77359*T**(-1);
      1811.00  Y  -25383.581+299.31255*T-46*T*LN(T)+2.29603E+31*T**(-9);
      6000.00  N !
 FUNCTION GFCCFE    298.15  -1462.4+8.282*T-1.15*T*LN(T)
       +6.4E-04*T**2+GHSERFE;
      1811.00  Y  -1713.815+0.940009*T+GHSERFE+4.9251E+30*T**(-9);
      6000.00  N !
 FUNCTION GHCPFE    298.15  -3705.78+12.591*T-1.15*T*LN(T)
       +6.4E-04*T**2+GHSERFE;
      1811.00  Y  -3957.195+5.249009*T+GHSERFE+4.9251E+30*T**(-9);
      6000.00  N !
 FUNCTION GLIQFE    298.15  +12040.17-6.55843*T+GHSERFE-3.67516E-21*T**7;
      1811.00  Y  -10838.83+291.302*T-46*T*LN(T);
      6000.00  N !
$ ------------------------------------------------------------------------------
$ Gd
$
$ HCP_A3, BCC_A2 and LIQUID revised in unary 3.0
$ Small correction made to top two temperature ranges of bcc_A2 to ensure 
$ continuity in Gibbs energy, AD, Dec 2002
$ FCC_A1 added in unary 4.4
$
$ FCC_A1 from 95Liu not included in unary
$
 PAR  G(HCP_A3,GD:VA)           200.00  +GHSERGD;                3600 N 91Din !
$PAR  TC(HCP_A3,GD:VA)          200.00    293.4;                 3600 N 95She2 !
$PAR  BMAGN(HCP_A3,GD:VA)       200.00      3.0;                 3600 N 95She2 !
 PAR  TC(HCP_A3,GD:VA)          200.00    291.8;                 3600 N 91Din !
 PAR  BMAGN(HCP_A3,GD:VA)       200.00      3.0;                 3600 N 91Din !
$PAR  G(FCC_A1,GD:VA)           200.00  +GHSERGD+5000;           3600 N 95Liu !
 PAR  G(FCC_A1,GD:VA)           200.00  +GHSERGD+500;            3600 N 00Zin !
 PAR  G(BCC_A2,GD:VA)           200.00  +GBCCGD;                 3600 N 91Din !
 PAR  G(LIQUID,GD)              200.00  +GLIQGD;                 3600 N 91Din !
$
$FUNCTION GHSERGD   200.00  -6834.5855+97.13101*T-24.7214131*T*LN(T)
$      -0.00285240521*T**2-3.14674076E-07*T**3-8665.73348*T**(-1);
$     1000.00  Y  -6483.25362+95.6919924*T-24.6598297*T*LN(T)
$      -0.00185225011*T**2-6.61211607E-07*T**3;
$     1508.15  Y  -123124.992+699.125537*T-101.800197*T*LN(T)
$      +0.0150644246*T**2-6.39165948E-07*T**3+29356890.3*T**(-1);
$     3600.00  N !
$ Function below from 91Din
 FUNCTION GHSERGD   200.00  -11600.525+151.111948*T-32.5013*T*LN(T)
       +0.00281265*T**2-1.081237E-06*T**3+421363*T**(-1);
      1300.00  Y  -8106.163+115.953605*T-27.459*T*LN(T)
       -2.76123E-04*T**2-7.37325E-07*T**3;
      1535.00  Y  -125618.511+711.994197*T-103.403757*T*LN(T)
       +0.015817949*T**2-6.72548E-07*T**3+30183452*T**(-1);
      3600.00  N !
$FUNCTION GBCCGD    200.00  +3233.80866-2.11184585*T+GHSERGD;
$     1000.00  Y  +152792.743-1349.58873*T+180.097094*T*LN(T)
$      -0.119550229*T**2+1.17915728E-05*T**3-22038836*T**(-1);
$     1508.15  Y  -15783.7618+202.222183*T-38.960425*T*LN(T);
$     1586.15  Y  -19850.5562+224.818035*T-41.904333*T*LN(T)
$      +8.58222759E-04*T**2-3.77570269E-08*T**3+995428.573*T**(-1);
$     3600.00  N !
$ Function below from 91Din
 FUNCTION GBCCGD    200.00  +3572.085-2.304997*T+GHSERGD;  
      1000.00  Y  +86879.486-747.960507*T+95.1961984*T*LN(T)
       -0.072542756*T**2+7.116157E-06*T**3-12664161*T**(-1);
      1535.00  Y  -14097.626+192.503674*T-37.656*T*LN(T);
      1587.00  Y  -18620.027+217.622313*T-40.9284427*T*LN(T)
       +9.53751E-04*T**2-4.1967E-08*T**3+1107440*T**(-1);
      3600.00  N !
$FUNCTION GLIQGD    200.00  +13060.0262-8.32179974*T+GHSERGD;
$     1000.00  Y  +146262.037-1208.70685*T+159.352082*T*LN(T)
$      -0.108247135*T**2+1.06945505E-05*T**3-19678357*T**(-1);
$     1508.15  Y  -5397.314+192.336215*T-38.5075*T*LN(T);
$     3600.00  N !
$ Function below from 91Din
 FUNCTION GLIQGD    200.00  +13557.615-8.612727*T+GHSERGD;  
      1000.00  Y  +80721.646-609.764875*T+74.8351133*T*LN(T)
       -0.061538012*T**2+6.061728E-06*T**3-10325075*T**(-1);
      1535.00  Y  -3485.133+182.116258*T-37.1539*T*LN(T);
      3600.00  N !
$ ------------------------------------------------------------------------------
$ Binary system
$
$ M. Zinkevich, N. Mattern, H.J. Seifert, J. Phase Equilib., 21, 385-94(2000).
$
$ Checked against paper. Checked at 6000 K.
$
$ Old unary data for Gd is used. With current data substantial changes in the
$ Gd rich part of the system are expected.
$
$ There is an inverse miscibility gap with a minimum at 2441 K and x(Gd)=0.68.
$
$ It is unclear which BMAG 00Zin used. They give them in BM(mole atoms), but
$ not recalulated per formula unit. If calculated according to nln(BM+1) the
$ following BM(mole formula unit) are derived: Fe17Gd2 BM=2695710,
$ Fe23Gd6 BM=154998, Fe3Gd BM=2.73, Fe2Gd BM=10.24. These are much larger
$ BM than used by 95Liu who (incorrectly) calculated BM=n*B0, where B0 is
$ per mole atoms.
$
 PAR  L(LIQUID,FE,GD;0),,               -27885+24.75*T;,,             N 00Zin !
 PAR  L(LIQUID,FE,GD;1),,               +22090-14.401*T;,,            N 00Zin !
$
 PAR  L(FCC_A1,FE,GD:VA;0),,            +35118+7.214*T;,,             N 00Zin !
$
 PAR  L(BCC_A2,FE,GD:VA;0),,            +3105+25.907*T;,,             N 00Zin !
 PAR  L(BCC_A2,FE,GD:VA;1),,            +271.37;,,                    N 00Zin !
$
 PAR  L(HCP_A3,FE,GD:VA;0),,            +47346-3.999*T;,,             N 00Zin !
$
 PAR  G(FE17GD2_LT,FE:GD),,             +17*GHSERFE+2*GHSERGD
             -254530+1071.85*T-127.004*T*LN(T);,,                     N 00Zin !
 PAR  TC(FE17GD2_LT,FE:GD),,              474.00;,,                   N 00Zin !
 PAR  BM(FE17GD2_LT,FE:GD),,             2695710;,,                   N 00Zin !
$
 PAR  G(FE17GD2_HT,FE:GD),,             +17*GHSERFE+2*GHSERGD
             -199104+1022.41*T-125.334*T*LN(T);,,                     N 00Zin !
 PAR  TC(FE17GD2_HT,FE:GD),,              474.00;,,                   N 00Zin !
 PAR  BM(FE17GD2_HT,FE:GD),,             2695710;,,                   N 00Zin !
$
 PAR  G(FE23GD6_D8A,FE:GD),,            +23*GHSERFE+6*GHSERGD
             -385196+1307.35*T-152.899*T*LN(T);,,                     N 00Zin !
 PAR  TC(FE23GD6_D8A,FE:GD),,             659.00;,,                   N 00Zin !
 PAR  BM(FE23GD6_D8A,FE:GD),,             154998;,,                   N 00Zin !
$
 PAR  G(FE3GD,FE:GD),,                  +3*GHSERFE+GHSERGD
             -47970+142.741*T-16.462*T*LN(T);,,                       N 00Zin !
 PAR  TC(FE3GD,FE:GD),,                   728.00;,,                   N 00Zin !
 PAR  BM(FE3GD,FE:GD),,                     2.73;,,                   N 00Zin !
$
 PAR  G(FE2GD_C15,FE:GD),,              +2*GHSERFE+GHSERGD
             -28254+113.71*T-15.175*T*LN(T)+0.00589887*T**2
             +19958*T**(-1);,,                                        N 00Zin !
 PAR  TC(FE2GD_C15,FE:GD),,               790.00;,,                   N 00Zin !
 PAR  BM(FE2GD_C15,FE:GD),,                10.24;,,                   N 00Zin !
$ ------------------------------------------------------------------------------
$
$
 LIST-OF-REFERENCE
 NUMBER  SOURCE
  Null   'Unknown source'
  REFLAV 'Laves phase convention: G(LAVES,X:X)=+3*GHSERXX+15000'
  91Din  'A.T. Dinsdale, Calphad, 15, 317-425(1991).'
  95Liu  'Z.-K. Liu, W. Zhang, B. Sundman,
          J. Alloys Compd. 226, 33-45(1995); Gd'
  95She2 'H. Shen, W. Zhang, G. Liu, R. Wang, Z. Du, Report F-95-02,
          University of Science and Technology, Beijing, May 1995,
          SGTE unary database V.3.0, 1996; Gd'
  99SGUN 'SGTE unary database V.4.1, 1999.'
  00Zin  'M. Zinkevich, N. Mattern, H. J Seifert,
          J. Phase Equilib., 21, 385-94(2000),
          SGTE unary database V.4.4, 2001; Gd, Fe-Gd'
!
