$
$ Database for Mg-Yb from C. Guo and Z. Du 2006 (included in LB Vol. 5)
$
$ C. Guo, Z. Du, J. Alloys Compd., 422, 102-8(2006).
$
$ Dataset created 2010.09.26 by Bengt Hallstedt.
$ 2021.01.24: Modified for use with GES6.
$
$ ------------------------------------------------------------------------------
 TEMP-LIM 298.15 6000.00 !
$
$ELEMENT NAME  REF. STATE               ATOMIC MASS H298-H0    S298    !
$
 ELEMENT VA   VACUUM                      0.0          0.0      0.0    ! 
 ELEMENT MG   HCP_A3                     24.305     4998.      32.671  !
 ELEMENT YB   FCC_A1                    173.04      6711.136   59.8312 ! 
$ ------------------------------------------------------------------------------
$ Phase definitions
$
 PHASE LIQUID:L % 1 1 !
 CONST LIQUID:L : MG YB : !
$
$ Fcc (cF4, Fm-3m) and MeX (cF8, Fm-3m)
$
 PHASE FCC_A1 %A 2 1 1 !
 CONST FCC_A1 : MG YB% : VA : !
$
$ Bcc (cI2, Im-3m)
$
 PHASE BCC_A2 %B 2 1 3 !
 CONST BCC_A2 : MG YB% : VA : !
$
$ Hcp (hP2, P6_3/mmc) and Me2X (NiAs-type, hP4, P6_3/mmc, B8_1)
$
 PHASE HCP_A3 %A 2 1 0.5 !
 CONST HCP_A3 : MG% YB : VA : !
$
$ Prototype MgZn2 (hP12, P6_3/mmc)
$
 PHASE MG2YB_C14 % 2 2 1 !
 CONST MG2YB_C14 : MG% YB : MG YB% : !
$ ------------------------------------------------------------------------------
$ Defaults
$
 DEFINE-SYSTEM-DEFAULT ELEMENT 2 !
 DEFAULT-COM DEFINE_SYSTEM_ELEMENT VA !
 TYPE-DEF % SEQ * !
 TYPE-DEF A GES AMEND_PHASE_DESCRIPTION @ MAGNETIC -3 0.28 !
 TYPE-DEF B GES AMEND_PHASE_DESCRIPTION @ MAGNETIC -1 0.4 !
 FUNCTION ZERO      298.15  0;                                         6000 N !
 FUNCTION UN_ASS    298.15  0;                                         6000 N !
 FUNCTION R         298.15  +8.31451;                                  6000 N !
$ ------------------------------------------------------------------------------
$ Element data
$ ------------------------------------------------------------------------------
$ Mg
$
 PAR  G(FCC_A1,MG:VA),,                 +GHSERMG+2600-0.9*T;     3000 N 91Din !
 PAR  G(BCC_A2,MG:VA),,                 +GHSERMG+3100-2.1*T;     3000 N 91Din !
 PAR  G(HCP_A3,MG:VA),,                 +GHSERMG;                3000 N 91Din !
$PAR  G(CBCC_A12,MG:VA),,               +GHSERMG
$            +4602.4-3.011*T;                                    3000 N 91Din !
$PAR  G(CUB_A13,MG:VA),,                +GHSERMG+5000-3*T;       3000 N 91Din !
 PAR  G(LIQUID,MG),,                    +GLIQMG;                 3000 N 91Din !
$
 PAR  G(MG2YB_C14,MG:MG),,              +3*GHSERMG+1;,,               N 06Guo !
$
 FUNCTION GHSERMG   298.15  -8367.34+143.675547*T-26.1849782*T*LN(T)
       +4.858E-04*T**2-1.393669E-06*T**3+78950*T**(-1);
       923.00  Y  -14130.185+204.716215*T-34.3088*T*LN(T)+1.038192E+28*T**(-9);
      3000.00  N !
 FUNCTION GLIQMG    298.15  +8202.243-8.83693*T+GHSERMG-8.0176E-20*T**7;
       923.00  Y  -5439.869+195.324057*T-34.3088*T*LN(T);
      3000.00  N !
 FUNCTION GBCCMG    298.15  +GHSERMG+3100-2.1*T;                       3000 N !
$ ------------------------------------------------------------------------------
$ Yb
$
$ HCP_A3 added in unary 5.0
$
 PAR  G(FCC_A1,YB:VA),,                 +GHSERYB;                2000 N 91Din !
 PAR  G(BCC_A2,YB:VA),,                 +GBCCYB;                 2000 N 91Din !
 PAR  G(HCP_A3,YB:VA),,                 +GHSERYB+5000;           2000 N 06Guo !
 PAR  G(LIQUID,YB),,                    +GLIQYB;                 2000 N 91Din !
$
 PAR  G(MG2YB_C14,YB:YB),,              +3*GHCPYB;,,                  N 06Guo !
$
 FUNCTION GHSERYB   298.15  -9370.941+189.327664*T-40.0791*T*LN(T)
       +0.04227115*T**2-2.2242E-05*T**3;
       553.00  Y  -8192.154+121.065655*T-26.7591*T*LN(T)-0.00256065*T**2;
      1033.00  Y  +16034.89-89.478241*T+2.7623966*T*LN(T)
       -0.017961331*T**2+1.421719E-06*T**3-3631462*T**(-1);
      2000.00  N !
 FUNCTION GBCCYB    298.15  -965.99-21.293677*T-3.8534432*T*LN(T)
       -0.030009694*T**2+4.743871E-06*T**3-334650*T**(-1);
      1033.00  Y  -13368.113+188.313864*T-36.1079*T*LN(T);
      1097.00  Y  -3911.847+113.174165*T-25.7402233*T*LN(T)
       -0.004743348*T**2+3.63044E-07*T**3-1553668*T**(-1);
      2000.00  N !
 FUNCTION GLIQYB    298.15  +7030.788-40.615571*T-1.8061816*T*LN(T)
       -0.03250938*T**2+5.136665E-06*T**3-370554*T**(-1);
      1033.00  Y  -6445.835+186.690398*T-36.7774*T*LN(T);
      2000.00  N !
 FUNCTION GHCPYB    298.15  +GHSERYB+5000;                             2000 N !
$ ------------------------------------------------------------------------------
$ Binary system
$
$ From C. Guo and Z. Du 2006 (included in LB Vol. 5)
$
$ C. Guo, Z. Du, J. Alloys Compd., 422, 102-8(2006).
$
$ Checked against LB and paper. Checked at 6000 K.
$
 PAR  L(LIQUID,MG,YB;0),,               -14917.4-13.4738*T;,,         N 06Guo !
 PAR  L(LIQUID,MG,YB;1),,               -11950.9;,,                   N 06Guo !
$
 PAR  L(FCC_A1,MG,YB:VA;0),,            +19227.7-28.7651*T;,,         N 06Guo !
$
 PAR  L(BCC_A2,MG,YB:VA;0),,            +20326.6-27.4508*T;,,         N 06Guo !
 PAR  L(BCC_A2,MG,YB:VA;1),,            +8300.9;,,                    N 06Guo !
$
 PAR  L(HCP_A3,MG,YB:VA;0),,            -10229.8;,,                   N 06Guo !
$
 PAR  G(MG2YB_C14,MG:YB),,              +2*GHSERMG+GHCPYB-42599.1;,,  N 06Guo !
 PAR  G(MG2YB_C14,YB:MG),,              +2*GHCPYB+GHSERMG+42599.1;,,  N 06Guo !
 PAR  L(MG2YB_C14,MG,YB:MG;0),,         +18339.4+4.9225*T;,,          N 06Guo !
 PAR  L(MG2YB_C14,MG,YB:MG;1),,         +8322;,,                      N 06Guo !
$ Parameters incorrectly allocated in paper
$PAR  L(MG2YB_C14,MG,YB:YB;0),,         +18339.4+4.9225*T;,,          N 06Guo !
$PAR  L(MG2YB_C14,MG,YB:YB;1),,         +8322;,,                      N 06Guo !
 PAR  L(MG2YB_C14,MG:MG,YB;0),,         +18339.4+4.9225*T;,,          N 06Guo !
 PAR  L(MG2YB_C14,MG:MG,YB;1),,         +8322;,,                      N 06Guo !
$ Parameters incorrectly allocated in paper
$PAR  L(MG2YB_C14,MG:MG,YB;0),,         +61144.1+15.9376*T;,,         N 06Guo !
$PAR  L(MG2YB_C14,MG:MG,YB;1),,         -57502;,,                     N 06Guo !
 PAR  L(MG2YB_C14,YB:MG,YB;0),,         +61144.1+15.9376*T;,,         N 06Guo !
 PAR  L(MG2YB_C14,YB:MG,YB;1),,         -57502;,,                     N 06Guo !
 PAR  L(MG2YB_C14,MG,YB:YB;0),,         +61144.1+15.9376*T;,,         N 06Guo !
 PAR  L(MG2YB_C14,MG,YB:YB;1),,         -57502;,,                     N 06Guo !
$ ------------------------------------------------------------------------------
$
 ASSESSED_SYSTEM
   MG-YB(TDB -* +LIQUID +HCP_A3 +BCC_A2 +FCC_A1 +MG2YB_C14 ;P3 * ) !
$
$
 LIST-OF-REFERENCE
 NUMBER  SOURCE
  Null   'Unknown source'
  COST   'COST 507 database'
  91Din  'A.T. Dinsdale, Calphad, 15, 317-425(1991).'
  06Guo  'C. Guo, Z. Du, J. Alloys Compd., 422, 102-8(2006),
          SGTE unary database V.5.0, 2009; Yb, Mg-Yb'
!
