$
$ Database for Ni-Sc from S. Kardellass et al. 2013.
$
$ S. Kardellass, C. Servant, N. Selhaoui, A. Iddaoudi, M. Ait Amar, L. Bouirden,
$ Calphad, 42, 59-65(2013).
$
$ Dataset created 2023.11.22 by Bengt Hallstedt.
$
$ In the paper there is a Kaptay and an RK version. This is the RK version.
$
$ There is an inverse miscibility gap with a minimum at 4421 K and x(Sc)=0.73
$ and an inverse bcc region above 4577 K.
$
$ Wrong composition for NiSc2 in the paper. It has the composition Ni7Sc18,
$ not NiSc2.
$
$ Invariant equilibria differ by up to 9 K (mostly C15-Laves) due to
$ composition rounding errors.
$
$ ------------------------------------------------------------------------------
 TEMP-LIM 298.15 6000.00 !
$
$ELEMENT NAME  REF. STATE               ATOMIC MASS H298-H0    S298    !
$
 ELEMENT VA   VACUUM                      0.0          0.0      0.0    ! 
 ELEMENT NI   FCC_A1                     58.69      4787.0     29.7955 ! 
 ELEMENT SC   HCP_A3                     44.9559    5217.448   34.6435 ! 
$ ------------------------------------------------------------------------------
$ Phase definitions
$
 PHASE LIQUID:L % 1 1 !
 CONST LIQUID:L : NI SC : !
$
$ Fcc (cF4, Fm-3m) and MeX (cF8, Fm-3m)
$
 PHASE FCC_A1 %A 2 1 1 !
 CONST FCC_A1 : NI% SC : VA : !
$
$ Bcc (cI2, Im-3m)
$
 PHASE BCC_A2 %B 2 1 3 !
 CONST BCC_A2 : NI SC% : VA : !
$
$ Hcp (hP2, P6_3/mmc) and Me2X (NiAs-type, hP4, P6_3/mmc, B8_1)
$
 PHASE HCP_A3 %A 2 1 0.5 !
 CONST HCP_A3 : NI SC% : VA : !
$
$ Prototype CaCu5 (hP6, P6/mmm)
$
 PHASE NI5SC_D2D % 2 5 1 !
 CONST NI5SC_D2D : NI : SC : !
$
$ Prototype Ce2Ni7 (hP36, P6_3/mmc)
$
 PHASE NI7SC2 % 2 7 2 !
 CONST NI7SC2 : NI : SC : !
$
$ Prototype Cu2Mg (cF24, Fd-3m)
$
 PHASE C15_LAVES % 2 2 1 !
 CONST C15_LAVES : NI% SC : NI SC% : !
$
$ Prototype CsCl (cP2, Pm-3m)
$
 PHASE NISC_B2 % 2 0.47 0.53 !
 CONST NISC_B2 : NI : SC : !
$
$ Prototype NiTi2 (cF96, Fd-3m)
$
 PHASE NISC2 % 2 7 18 !
 CONST NISC2 : NI : SC : !
$ ------------------------------------------------------------------------------
$ Defaults
$
 DEFINE-SYSTEM-DEFAULT ELEMENT 2 !
 DEFAULT-COM DEFINE_SYSTEM_ELEMENT VA !
 TYPE-DEF % SEQ * !
 TYPE-DEF A GES AMEND_PHASE_DESCRIPTION @ MAGNETIC -3 0.28 !
 TYPE-DEF B GES AMEND_PHASE_DESCRIPTION @ MAGNETIC -1 0.4 !
 FUNCTION ZERO      298.15  0;                                         6000 N !
 FUNCTION UN_ASS    298.15  0;                                         6000 N !
 FUNCTION R         298.15  +8.31451;                                  6000 N !
$ ------------------------------------------------------------------------------
$ Element data
$ ------------------------------------------------------------------------------
$ Ni
$
$ FCC_A1 and LIQUID modified in unary 5.0 (slight change in upper T interval)
$ BCT_A5 added in unary 5.0
$
 PAR  G(FCC_A1,NI:VA),,                 +GHSERNI;                3000 N 91Din !
 PAR  TC(FCC_A1,NI:VA),,                  633.00;                3000 N 91Din !
 PAR  BM(FCC_A1,NI:VA),,                    0.52;                3000 N 91Din !
 PAR  G(BCC_A2,NI:VA),,                 +GHSERNI
             +8715.084-3.556*T;                                  3000 N 91Din !
 PAR  TC(BCC_A2,NI:VA),,                  575.00;                3000 N 91Din !
 PAR  BM(BCC_A2,NI:VA),,                    0.85;                3000 N 91Din !
 PAR  G(HCP_A3,NI:VA),,                 +GHSERNI+1046+1.255*T;   3000 N 91Din !
 PAR  TC(HCP_A3,NI:VA),,                  633.00;                3000 N 91Din !
 PAR  BM(HCP_A3,NI:VA),,                    0.52;                3000 N 91Din !
$PAR  G(BCT_A5,NI),,                    +GHSERNI+10023-4.556*T;  3000 N 99Gho !
$PAR  G(CUB_A13,NI:VA),,                +GHSERNI+2092;           3000 N 91Din !
$PAR  G(CBCC_A12,NI:VA),,               +GHSERNI+3556;           3000 N 91Din !
 PAR  G(LIQUID,NI),,                    +GLIQNI;                 3000 N 91Din !
$
 PAR  G(C15_LAVES,NI:NI),,              +3*GHSERNI+60000;        3000 N 13Kar !
$
 FUNCTION GHSERNI   298.15  -5179.159+117.854*T-22.096*T*LN(T)-0.0048407*T**2;
      1728.00  Y  -27840.62+279.134977*T-43.1*T*LN(T)+1.12754E+31*T**(-9);
      3000.00  N !
 FUNCTION GLIQNI    298.15  +16414.686-9.397*T+GHSERNI-3.82318E-21*T**7;
      1728.00  Y  -9549.817+268.597977*T-43.1*T*LN(T);
      3000.00  N !
 FUNCTION GBCCNI    298.15  +GHSERNI+8715.084-3.556*T;                 3000 N !
 FUNCTION GHCPNI    298.15  +GHSERNI+1046+1.255*T;                     3000 N !
$ ------------------------------------------------------------------------------
$ Sc
$
$ FCC_A1 and DHCP added in unary 4.4
$
 PAR  G(HCP_A3,SC:VA),,                 +GHSERSC;                3200 N 91Din !
 PAR  G(BCC_A2,SC:VA),,                 +GBCCSC;                 3200 N 91Din !
 PAR  G(FCC_A1,SC:VA),,                 +GHSERSC+5000;           3200 N 99Cac !
$PAR  G(DHCP,SC),,                      +GHSERSC
$            +1200+0.4157255*T;                                  3200 N 00Nor2 !
 PAR  G(LIQUID,SC),,                    +GLIQSC;                 3200 N 91Din !
$
 PAR  G(C15_LAVES,SC:SC),,              +3*GHSERSC+60000;        3200 N 13Kar !
$
 FUNCTION GHSERSC   298.15  -8689.547+153.48097*T-28.1882*T*LN(T)
       +0.00321892*T**2-1.64531E-06*T**3+72177*T**(-1);
       800.00  Y  -7511.295+132.759582*T-24.9132*T*LN(T)
       -5.73295E-04*T**2-8.59345E-07*T**3;
      1608.00  Y  +261143.04-1817.92245*T+241.441051*T*LN(T)
       -0.117529396*T**2+8.7398E-06*T**3-50607159*T**(-1);
      2000.00  Y  -30515.246+286.474338*T-44.2249*T*LN(T);
      3200.00  N !
 FUNCTION GBCCSC    298.15  +1979.728-1.024135*T+GHSERSC;
      1000.00  Y  +230161.408-2004.05469*T+276.76664*T*LN(T)
       -0.167120107*T**2+1.5637371E-05*T**3-33783257*T**(-1);
      1608.00  Y  -25928.011+283.642312*T-44.2249*T*LN(T);
      2000.00  Y  +4587.235-2.832026*T+GHSERSC;
      3200.00  N !
 FUNCTION GLIQSC    298.15  +6478.66+45.427539*T-10.7967803*T*LN(T)
       -0.020636524*T**2+2.13106E-06*T**3-158106*T**(-1);
      1608.00  Y  -11832.111+275.871695*T-44.2249*T*LN(T);
      3200.00  N !
$ ------------------------------------------------------------------------------
$ Binary system
$
$ S. Kardellass, C. Servant, N. Selhaoui, A. Iddaoudi, M. Ait Amar, L. Bouirden,
$ Calphad, 42, 59-65(2013).
$
$ Checked against paper and author's tdb. Checked at 6000 K.
$
$ In the paper there is a Kaptay and an RK version. This is the RK version.
$
$ Wrong composition for NiSc2 in the paper. It has the composition Ni7Sc18,
$ not NiSc2.
$
$ Invariant equilibria differ by up to 9 K (mostly C15-Laves) due to
$ composition rounding errors.
$
 PAR  L(LIQUID,NI,SC;0),,               -162595.5+43.5436*T;,,        N 13Kar !
 PAR  L(LIQUID,NI,SC;1),,               -1330.2931-10.0219*T;,,       N 13Kar !
$
 PAR  L(FCC_A1,NI,SC:VA;0),,            -82714.549+26.933163*T;,,     N 13Kar !
 PAR  L(BCC_A2,NI,SC:VA;0),,            -66901.9+4.8872*T;,,          N 13Kar !
 PAR  L(HCP_A3,NI,SC:VA;0),,            +39201.55-9.8530642*T;,,      N 13Kar !
$
 PAR  G(NI5SC_D2D,NI:SC),,              +5*GHSERNI+GHSERSC
             -114754.2+4.6253451*T;,,                                 N 13Kar !
 PAR  G(NI7SC2,NI:SC),,                 +7*GHSERNI+2*GHSERSC
             -220050+7.5771*T;,,                                      N 13Kar !
$
 PAR  G(C15_LAVES,NI:SC),,              +2*GHSERNI+GHSERSC
             -104990.433+12.5337*T;,,                                 N 13Kar !
 PAR  G(C15_LAVES,SC:NI),,              +2*GHSERSC+GHSERNI
             +224990.433-12.5337*T;,,                                 N 13Kar !
 PAR  L(C15_LAVES,NI,SC:SC;0),,         -0.76992564+31.11759*T;,,     N 13Kar !
 PAR  L(C15_LAVES,NI:NI,SC;0),,         -86423.874+1.0960343*T;,,     N 13Kar !
$
 PAR  G(NISC_B2,NI:SC),,                +0.47*GHSERNI+0.53*GHSERSC
             -46532.55+10.761496*T;,,                                 N 13Kar !
 PAR  G(NISC2,NI:SC),,                  +7*GHSERNI+18*GHSERSC
             -685738.75+112.60592*T;,,                                N 13Kar !
$ ------------------------------------------------------------------------------
$
$
 LIST-OF-REFERENCE
 NUMBER  SOURCE
  Null   'Unknown source'
  SGCOST 'COST 507 database, SGTE unary database V.3.0, 1996; Al, B, Nd, Ti, Zn'
  REFLAV 'Laves phase convention: G(LAVES,X:X)=+3*GHSERXX+15000'
  91Din  'A.T. Dinsdale, Calphad, 15, 317-425(1991).'
  99Cac  'G. Cacciamani, P. Riani, G. Borzone, N. Parodi, A. Saccone, R. Ferro,
          A. Pisch, R. Schmid-Fetzer, Intermetallics, 7, 101-8(1999),
          SGTE unary database V.4.4, 2001; Sc'
  99Gho  'G. Ghosh, Metall. Mater. Trans. A, 30A, 1481-94(1999),
          SGTE unary database V.5.0, 2009; Ni'
  00Nor2 'S. Norgren, PhD Thesis, KTH, Stockholm, 2000; Nd, Sc'
  13Kar  'S. Kardellass, C. Servant, N. Selhaoui, A. Iddaoudi, M. Ait Amar,
          L. Bouirden, Calphad, 42, 59-65(2013); Ni-Sc'
!
