$
$ Database for Re-Zr from J. Liu et al. 2013.
$
$ J. Liu, Y. Zhang, Z. Wang, Monatsh. Chem., 144, 1613-16(2013).
$
$ Dataset created 2024.04.25 by Bengt Hallstedt.
$
$ The phase diagram is not correctly reproduced. Using old data for Re does
$ shift the liquidus considerably, but it is too high with the old data and
$ too low with the current data.
$
$ The bcc interaction is incorrect, there is bcc all over the place. The
$ interaction is printed twice in the paper, so it is not a simple misprint.
$
$ An attempt was made to improve matters by changing the liquid and bcc
$ interactions and the Gibbs energy of ReZr2. The phase diagram is still only
$ approximately reproduced. This system needs to be reoptimized.
$
$ ------------------------------------------------------------------------------
 TEMP-LIM 298.15 6000.00 !
$
$ELEMENT NAME  REF. STATE               ATOMIC MASS H298-H0    S298    !
$
 ELEMENT VA   VACUUM                      0.0          0.0      0.0    ! 
 ELEMENT RE   HCP_A3                    186.207     5333.      36.4820 ! 
 ELEMENT ZR   HCP_A3                     91.22      5566.27    39.1809 ! 
$ ------------------------------------------------------------------------------
$ Phase definitions
$
 PHASE LIQUID:L % 1 1 !
 CONST LIQUID:L : RE ZR : !
$
$ Fcc (cF4, Fm-3m) and MeX (cF8, Fm-3m), delta-Pu and alpha-Th
$
 PHASE FCC_A1 %A 2 1 1 !
 CONST FCC_A1 : RE ZR : VA : !
$
$ Bcc (cI2, Im-3m)
$
 PHASE BCC_A2 %B 2 1 3 !
 CONST BCC_A2 : RE ZR% : VA : !
$
$ Hcp (hP2, P6_3/mmc) and Me2X (NiAs-type, hP4, P6_3/mmc, B8_1)
$
 PHASE HCP_A3 %A 2 1 0.5 !
 CONST HCP_A3 : RE% ZR% : VA : !
$
$ Prototype alpha-Mn (cI58, I-43m), prototype Re24Ti5 in Pauling
$
 PHASE RE24ZR5_A12 % 2 24 5 !
 CONST RE24ZR5_A12 : RE% ZR : RE ZR% : !
$
$ Prototype MgZn2 (hP12, P6_3/mmc)
$
 PHASE C14_LAVES % 2 2 1 !
 CONST C14_LAVES : RE% ZR : RE ZR% : !
$
$ Prototype Re25Zr21 (hR92, R-3c)
$
 PHASE REZR2 % 2 1 2 !
 CONST REZR2 : RE : ZR : !
$ ------------------------------------------------------------------------------
$ Defaults
$
 DEFINE-SYSTEM-DEFAULT ELEMENT 2 !
 DEFAULT-COM DEFINE_SYSTEM_ELEMENT VA !
 TYPE-DEF % SEQ * !
 TYPE-DEF A GES AMEND_PHASE_DESCRIPTION @ MAGNETIC -3 0.28 !
 TYPE-DEF B GES AMEND_PHASE_DESCRIPTION @ MAGNETIC -1 0.4 !
 FUNCTION ZERO      298.15  0;                                         6000 N !
 FUNCTION UN_ASS    298.15  0;                                         6000 N !
 FUNCTION R         298.15  +8.31451;                                  6000 N !
$ ------------------------------------------------------------------------------
$ Element data
$ ------------------------------------------------------------------------------
$ Re
$
$ HCP_A3 and LIQUID revised in unary 3.0
$ BCC_A2 revised in unary 4.4
$
 PAR  G(HCP_A3,RE:VA),,                 +GHSERRE;,,                   N 96Arb !
 PAR  G(FCC_A1,RE:VA),,                 +GHSERRE+11000-1.5*T;,,       N 91Din !
$PAR  G(BCC_A2,RE:VA),,                 +GHSERRE+29200-6*T;,,         N 91Din !
 PAR  G(BCC_A2,RE:VA),,                 +GHSERRE+17000-3.7*T;,,       N 01SGUN !
 PAR  G(LIQUID,RE),,                    +GLIQRE;,,                    N 96Arb !
$
 PAR  G(RE24ZR5_A12,RE:RE),,            +29*GHSERRE+145000;,,         N 13Liu !
 PAR  G(C14_LAVES,RE:RE),,              +3*GHSERRE+15000;,,           N 13Liu !
$
 FUNCTION GHSERRE   298.15  -7695.279+128.421589*T-24.348*T*LN(T)
       -0.00253505*T**2+1.92818E-07*T**3+32915*T**(-1);
      1200.00  Y  -15775.998+194.667426*T-33.586*T*LN(T)
       +0.00224565*T**2-2.81835E-07*T**3+1376270*T**(-1);
      2400.00  Y  -70882.739+462.110749*T-67.956*T*LN(T)
       +0.01184945*T**2-7.88955E-07*T**3+18075200*T**(-1);
      3458.00  Y  +346325.888-1211.37186*T+140.831655*T*LN(T)
       -0.033764567*T**2+1.053726E-06*T**3-1.34548866E+08*T**(-1);
      5000.00  Y  -78564.296+346.997842*T-49.519*T*LN(T);
      6000.00  N !
 FUNCTION GLIQRE    298.15  +23820.883-6.34538*T+GHSERRE;
      2000.00  Y  +568842.665-2527.83846*T+314.178898*T*LN(T)
       -0.08939817*T**2+3.92854E-06*T**3-1.63100987E+08*T**(-1);
      3458.00  Y  -39044.888+335.723691*T-49.519*T*LN(T);
      5000.00  Y  +39519.408-11.274151*T+GHSERRE;
      6000.00  N !
$ ------------------------------------------------------------------------------
$ Zr
$
$ CUB_A13, CBCC_A12, ORTHORHOMBIC_A20 and TETRAGONAL_U added in unary 4.1
$
 PAR  G(HCP_A3,ZR:VA)           130.00  +GHSERZR;,,                   N 91Din !
 PAR  G(BCC_A2,ZR:VA)           130.00  +GBCCZR;,,                    N 91Din !
$PAR  G(OMEGA,ZR)               130.00  +GOMEZR;,,                    N 91Din !
 PAR  G(FCC_A1,ZR:VA)           130.00  +GHSERZR+7600-0.9*T;,,        N 91Din !
$PAR  G(CBCC_A12,ZR:VA)         130.00  +GHSERZR+4602.2;,,            N 99SGUN !
$PAR  G(CUB_A13,ZR:VA)          130.00  +GHSERZR+7531.2;,,            N 99SGUN !
$PAR  G(ORTHORHOMBIC_A20,ZR)    130.00  +GBCCZR+5000;,,               N 99SGUN !
$PAR  G(TETRAGONAL_U,ZR)        130.00  +GBCCZR+5000;,,               N 99SGUN !
 PAR  G(LIQUID,ZR)              130.00  +GLIQZR;,,                    N 91Din !
$
 PAR  G(RE24ZR5_A12,ZR:ZR),,            +29*GHSERZR+145000;,,         N 13Liu !
 PAR  G(C14_LAVES,ZR:ZR),,              +3*GHSERZR+15000;,,           N 13Liu !
$
 FUNCTION GHSERZR   130.00  -7827.595+125.64905*T-24.1618*T*LN(T)
       -0.00437791*T**2+34971*T**(-1);
      2128.00  Y  -26085.921+262.724183*T-42.144*T*LN(T)-1.342896E+31*T**(-9);
      6000.00  N !
 FUNCTION GBCCZR    130.00  -525.539+124.9457*T-25.607406*T*LN(T)
       -3.40084E-04*T**2-9.729E-09*T**3+25233*T**(-1)-7.6143E-11*T**4;
      2128.00  Y  -4620.034+1.55998*T+GHSERZR+1.4103476E+32*T**(-9);
      6000.00  N !
 FUNCTION GOMEZR    130.00  -8878.082+144.432234*T-26.8556*T*LN(T)
       -0.002799446*T**2+38376*T**(-1);
      2128.00  Y  -3414.603+2.566675*T+GHSERZR+8.517346E+31*T**(-9);
      6000.00  N !
 FUNCTION GLIQZR    130.00  +18147.69-9.080812*T+GHSERZR+1.6275E-22*T**7;
      2128.00  Y  -8281.26+253.812609*T-42.144*T*LN(T);
      6000.00  N !
$ ------------------------------------------------------------------------------
$ Binary system
$
$ J. Liu, Y. Zhang, Z. Wang, Monatsh. Chem., 144, 1613-16(2013).
$
$ Checked against paper. Checked at 6000 K.
$
$ The phase diagram is not correctly reproduced. Using old data for Re does
$ shift the liquidus considerably, but it is too high with the old data and
$ too low with the current data.
$
$ The bcc interaction is incorrect, there is bcc all over the place. The
$ interaction is printed twice in the paper, so it is not a simple misprint.
$
$ An attempt was made to improve matters by changing the liquid and bcc
$ interactions and the Gibbs energy of ReZr2. The phase diagram is still only
$ approximately reproduced. This system needs to be reoptimized.
$
$PAR  L(LIQUID,RE,ZR;0),,               -128011.4+8.2143*T;,,         N 13Liu !
 PAR  L(LIQUID,RE,ZR;0),,               -120000+8.2143*T;,,           N 13Liu !
 PAR  L(LIQUID,RE,ZR;1),,               -18403.5-10.3005*T;,,         N 13Liu !
 PAR  L(LIQUID,RE,ZR;2),,               -2427.3-5.1167*T;,,           N 13Liu !
 PAR  L(LIQUID,RE,ZR;3),,               -10655.9-1.5104*T;,,          N 13Liu !
$
$PAR  L(BCC_A2,RE,ZR:VA;0),,            -15882.8-36.9078*T;,,         N 13Liu !
$PAR  L(BCC_A2,RE,ZR:VA;1),,            +171066.7-92.7908*T;,,        N 13Liu !
 PAR  L(BCC_A2,RE,ZR:VA;0),,            -60000;,,                     N 13Liu !
$
 PAR  L(HCP_A3,RE,ZR:VA;0),,            -55289.1+1.0132*T;,,          N 13Liu !
 PAR  L(HCP_A3,RE,ZR:VA;1),,            -10914;,,                     N 13Liu !
$
 PAR  G(RE24ZR5_A12,RE:ZR),,            +24*GHSERRE+5*GHSERZR
             -750150.8+5.5559*T;,,                                    N 13Liu !
 PAR  G(RE24ZR5_A12,ZR:RE),,            +24*GHSERZR+5*GHSERRE
             +30234.4;,,                                              N 13Liu !
 PAR  L(RE24ZR5_A12,RE,ZR:RE;0),,       +300032.2;,,                  N 13Liu !
 PAR  L(RE24ZR5_A12,RE,ZR:ZR;0),,       +300032.2;,,                  N 13Liu !
 PAR  L(RE24ZR5_A12,RE:RE,ZR;0),,       +302323.2;,,                  N 13Liu !
 PAR  L(RE24ZR5_A12,ZR:RE,ZR;0),,       +302323.2;,,                  N 13Liu !
$
 PAR  G(C14_LAVES,RE:ZR),,              +2*GHSERRE+GHSERZR
             -136197.2+0.7103*T;,,                                    N 13Liu !
 PAR  G(C14_LAVES,ZR:RE),,              +2*GHSERZR+GHSERRE+14964.4;,, N 13Liu !
 PAR  L(C14_LAVES,RE,ZR:RE;0),,         +80232.30;,,                  N 13Liu !
 PAR  L(C14_LAVES,RE,ZR:ZR;0),,         +80232.30;,,                  N 13Liu !
 PAR  L(C14_LAVES,RE:RE,ZR;0),,         +60232.30;,,                  N 13Liu !
 PAR  L(C14_LAVES,ZR:RE,ZR;0),,         +60232.30;,,                  N 13Liu !
$
$PAR  G(REZR2,RE:ZR),,                  +GHSERRE+2*GHSERZR
$            -76200+1.0008*T;,,                                       N 13Liu !
 PAR  G(REZR2,RE:ZR),,                  +GHSERRE+2*GHSERZR
             -81356+1.0008*T;,,                                       N 13Liu !
$
$ Metastable
$
 PAR  L(FCC_A1,RE,ZR:VA;0),,            -55289.1+1.0132*T;,,          N Same !
 PAR  L(FCC_A1,RE,ZR:VA;1),,            -10914;,,                     N Same !
$ ------------------------------------------------------------------------------
$
$
 LIST-OF-REFERENCE
 NUMBER  SOURCE
  Null   'Unknown source'
  Same   'Same or similar interaction as in the corresponding stable phase'
  COST   'COST 507 database'
  91Din  'A.T. Dinsdale, Calphad, 15, 317-425(1991).'
  96Arb  'J.W. Arblaster, Calphad, 20, 343-52(1996),
          SGTE unary database V.3.0, 1996; Re'
  99SGUN 'SGTE unary database V.4.1, 1999.'
  01SGUN 'SGTE unary database V.4.4, 2001.'
  13Liu  'J. Liu, Y. Zhang, Z. Wang, Monatsh. Chem., 144, 1613-16(2013); Re-Zr'
!
