$
$ Database for Cu-Hf from Y. Zhong et al. 2013.
$
$ Y. Zhong, A. Saengdeejing, L. Kecskes. B. Klotz, Z.-K. Liu,
$ Acta Mater., 61, 660-69(2013).
$
$ Dataset created 2020.10.25 by Bengt Hallstedt.
$
$ There is an inverse miscibility gap with a minimum at 3425 K and x(Hf)=0.39.
$
$ ------------------------------------------------------------------------------
 TEMP-LIM 298.15 6000.00 !
$
$ELEMENT NAME  REF. STATE               ATOMIC MASS H298-H0    S298    !
$
 ELEMENT VA   VACUUM                      0.0          0.0      0.0    ! 
 ELEMENT CU   FCC_A1                     63.546     5004.      33.15   !
 ELEMENT HF   HCP_A3                    178.49      5845.0     43.56   ! 
$ ------------------------------------------------------------------------------
$ Phase definitions
$
 PHASE LIQUID:L % 1 1 !
 CONST LIQUID:L : CU HF : !
$
$ Fcc (cF4, Fm-3m) and MeX (cF8, Fm-3m)
$
 PHASE FCC_A1 %A 2 1 1 !
 CONST FCC_A1 : CU% HF : VA : !
$
$ Bcc (cI2, Im-3m)
$
 PHASE BCC_A2 %B 2 1 3 !
 CONST BCC_A2 : CU HF% : VA : !
$
$ Hcp (hP2, P6_3/mmc) and Me2X (NiAs-type, hP4, P6_3/mmc, B8_1)
$
 PHASE HCP_A3 %A 2 1 0.5 !
 CONST HCP_A3 : CU HF% : VA : !
$
$ Prototype AuBe5 (cF24, F-43m); assumed to be the same as for Cu5Zr
$
 PHASE CU5HF_C15B % 2 5 1 !
 CONST CU5HF_C15B : CU : HF : !
$
$ Prototype Ag51Gd14 (hP68, P6/m)
$
 PHASE CU51HF14 % 2 51 14 !
 CONST CU51HF14 : CU : HF : !
$
$ Prototype Cu8Hf3 (oP44, Pnma)
$
 PHASE CU8HF3 % 2 8 3 !
 CONST CU8HF3 : CU : HF : !
$
$ Prototype Ni10Zr7 (oC68, Cmca)
$
 PHASE CU10HF7 % 2 10 7 !
 CONST CU10HF7 : CU : HF : !
$
$ Prototype CuZr2 (tI6, I4/mmm)
$
 PHASE CUHF2 % 2 1 2 !
 CONST CUHF2 : CU : HF : !
$ ------------------------------------------------------------------------------
$ Defaults
$
 DEFINE-SYSTEM-DEFAULT ELEMENT 2 !
 DEFAULT-COM DEFINE_SYSTEM_ELEMENT VA !
 TYPE-DEFINITION % SEQ * !
 TYPE_DEF A GES AMEND_PHASE_DESCRIPTION @ MAGNETIC -3 0.28 !
 TYPE_DEF B GES AMEND_PHASE_DESCRIPTION @ MAGNETIC -1 0.4 !
 FUNCTION ZERO      298.15  0;                                         6000 N !
 FUNCTION UN_ASS    298.15  0;                                         6000 N !
 FUNCTION R         298.15  +8.31451;                                  6000 N !
$ ------------------------------------------------------------------------------
$ Element data
$ ------------------------------------------------------------------------------
$ Cu
$
 PAR  G(FCC_A1,CU:VA),,                 +GHSERCU;                3200 N 91Din !
 PAR  G(BCC_A2,CU:VA),,                 +GHSERCU+4017-1.255*T;   3200 N 91Din !
 PAR  G(HCP_A3,CU:VA),,                 +GHSERCU+600+0.2*T;      3200 N 91Din !
 PAR  G(LIQUID,CU),,                    +GLIQCU;                 3200 N 91Din !
$
 FUNCTION GHSERCU   298.15  -7770.458+130.485235*T-24.112392*T*LN(T)
       -0.00265684*T**2+1.29223E-07*T**3+52478*T**(-1);
      1357.77  Y  -13542.026+183.803828*T-31.38*T*LN(T)+3.64167E+29*T**(-9);
      3200.00  N !
 FUNCTION GLIQCU    298.15  +12964.735-9.511904*T+GHSERCU-5.8489E-21*T**7;
      1357.77  Y  -46.545+173.881484*T-31.38*T*LN(T);
      3200.00  N !
$ ------------------------------------------------------------------------------
$ Hf
$
$ HCP_A3 and BCC_A2 modified in unary 5.0
$ (upper T interval added + trailing decimals added)
$
 PAR  G(HCP_A3,HF:VA),,                 +GHSERHF;                3001 N 91Din !
 PAR  G(BCC_A2,HF:VA),,                 +GBCCHF;                 3001 N 91Din !
 PAR  G(FCC_A1,HF:VA),,                 +GHSERHF+10000-2.2*T;    3001 N 91Din !
 PAR  G(LIQUID,HF),,                    +GLIQHF;                 3001 N 91Din !
$
 FUNCTION GHSERHF   298.15  -6987.297+110.744026*T-22.7075*T*LN(T)
       -0.004146145*T**2-4.77E-10*T**3-22590*T**(-1);
      2506.00  Y  -1446776.329+6193.609991*T-787.5363829*T*LN(T)
       +0.1735215*T**2-7.575759E-06*T**3+5.01742495E+08*T**(-1);
      3000.00  Y  -34274.698+277.882368*T-44*T*LN(T);
      3001.00  N !
 FUNCTION GBCCHF    298.15  +5370.703+103.836026*T-22.8995*T*LN(T)
       -0.004206605*T**2+8.71923E-07*T**3-22590*T**(-1)-1.446E-10*T**4;
      2506.00  Y  +1912456.771-8624.20573*T+1087.6141247*T*LN(T)
       -0.286857065*T**2+1.3427829E-05*T**3-6.10085091E+08*T**(-1);
      3000.00  Y  -32498.178+276.723247*T-44*T*LN(T);
      3001.00  N !
 FUNCTION GLIQHF    298.15  +27402.256-10.953093*T+GHSERHF;
      1000.00  Y  +49731.499-149.91739*T+12.116812*T*LN(T)
       -0.021262021*T**2+1.376466E-06*T**3-4449699*T**(-1);
      2506.00  Y  -4247.217+265.470523*T-44*T*LN(T);
      3001.00  N !
$ ------------------------------------------------------------------------------
$ Binary system
$
$ Y. Zhong, A. Saengdeejing, L. Kecskes. B. Klotz, Z.-K. Liu,
$ Acta Mater., 61, 660-69(2013).
$
$ Checked against paper. Checked at 6000K.
$
$ There is an inverse miscibility gap with a minimum at 3425 K and x(Hf)=0.39.
$
 PAR  L(LIQUID,CU,HF;0),,               -75016+17.909*T;,,            N 13Zho !
 PAR  L(LIQUID,CU,HF;1),,               -30630+25.215*T;,,            N 13Zho !
 PAR  L(LIQUID,CU,HF;2),,               +27926-23.264*T;,,            N 13Zho !
$
 PAR  L(FCC_A1,CU,HF:VA;0),,            -9484;,,                      N 13Zho !
 PAR  L(BCC_A2,CU,HF:VA;0),,            -13344;,,                     N 13Zho !
 PAR  L(HCP_A3,CU,HF:VA;0),,            +46239;,,                     N 13Zho !
$
 PAR  G(CU5HF_C15B,CU:HF),,             +5*GHSERCU+GHSERHF
             -72842+10.606*T;,,                                       N 13Zho !
 PAR  G(CU51HF14,CU:HF),,               +51*GHSERCU+14*GHSERHF
             -936709+118.549*T;,,                                     N 13Zho !
 PAR  G(CU8HF3,CU:HF),,                 +8*GHSERCU+3*GHSERHF
             -167055+21.791*T;,,                                      N 13Zho !
 PAR  G(CU10HF7,CU:HF),,                +10*GHSERCU+7*GHSERHF
             -275780+31.983*T;,,                                      N 13Zho !
 PAR  G(CUHF2,CU:HF),,                  +GHSERCU+2*GHSERHF
             -48071+4.157*T;,,                                        N 13Zho !
$ ------------------------------------------------------------------------------
$
$
 LIST-OF-REFERENCE
 NUMBER  SOURCE
  Null   'Unknown source'
  Same   'Same or similar interaction as in the corresponding stable phase'
  REFLAV 'Laves phase convention: G(LAVES,X:X)=+3*GHSERXX+15000'
  COST   'COST 507 database'
  91Din  'A.T. Dinsdale, Calphad, 15, 317-425(1991).'
  13Zho  'Y. Zhong, A. Saengdeejing, L. Kecskes. B. Klotz, Z.-K. Liu,
          Acta Mater., 61, 660-69(2013); Cu-Hf'
!
