$
$ Database for Ga-Li from W.X. Yuan et al. 2003.
$
$ W.X. Yuan, W.J. Wang, Y.T. Song, X.L. Chen, Scripta Mater., 48, 1053-59(2003).
$
$ Dataset created 2018.07.08 by Bengt Hallstedt.
$ 2021.01.03: Modified for use with GES6.
$
$ All Delta-S parameters have wrong signs. The GaLi interaction parameters
$ have been swapped.
$
$ Invariant equilibria differ by up to 7 K, except GaLi+Ga2Li3=Ga4Li5, which
$ is 27 K too low.
$
$ There is a large inverse GaLi-B32 phase field for Li-rich compositions above
$ 2700 K. This is a problem with unary bcc-Li, which is stable above 3600 K.
$
$ ------------------------------------------------------------------------------
 TEMP-LIM 298.15 6000.00 !
$
$ELEMENT NAME  REF. STATE               ATOMIC MASS H298-H0    S298    !
$
 ELEMENT VA   VACUUM                      0.0          0.0      0.0    ! 
 ELEMENT GA   ORTHORHOMBIC_GA            69.72      5572.0     40.7271 ! 
 ELEMENT LI   BCC_A2                      6.941     4632.00    29.12   ! 
$ ------------------------------------------------------------------------------
$ Phase definitions
$
 PHASE LIQUID:L % 1 1 !
 CONST LIQUID:L : GA LI : !
$
$ Fcc (cF4, Fm-3m) and MeX (cF8, Fm-3m)
$
 PHASE FCC_A1 %A 2 1 1 !
 CONST FCC_A1 : GA LI : VA : !
$
$ Bcc (cI2, Im-3m)
$
 PHASE BCC_A2 %B 2 1 3 !
 CONST BCC_A2 : GA LI% : VA : !
$
$ Hcp (hP2, P6_3/mmc) and Me2X (NiAs-type, hP4, P6_3/mmc, B8_1)
$
 PHASE HCP_A3 %A 2 1 0.5 !
 CONST HCP_A3 : GA LI : VA : !
$
$ alpha-Ga (oC8, Cmca)
$
 PHASE ORTHORHOMBIC_A11 % 1 1 !
 CONST ORTHORHOMBIC_A11 : GA : !
$
$ Prototype Ga14Li3 (hR20, R-3m, 166)
$
 PHASE GA14LI3 % 2 14 3 !
 CONST GA14LI3 : GA : LI : !
$
$ Prototype Ga7Li2 (oC304, Cmcm, 63)
$
 PHASE GA7LI2 % 2 7 2 !
 CONST GA7LI2 : GA : LI : !
$
$ unknown structure 
$
 PHASE GA9LI5 % 2 9 5 !
 CONST GA9LI5 : GA : LI : !
$
$ Prototype NaTl (cF16, Fd-3m)
$
 PHASE GALI_B32 % 2 1 1 !
 CONST GALI_B32 : GA% LI : LI% VA : !
$
$ Prototype Ga4Li5 (hP9, P-3m1, 164)
$
 PHASE GA4LI5 % 2 4 5 !
 CONST GA4LI5 : GA : LI : !
$
$ Prototype Al2Li3 (hR5, R-3m)
$
 PHASE GA2LI3 % 2 2 3 !
 CONST GA2LI3 : GA : LI : !
$
$ Prototype GaLi2 (oC12, Cmcm, 63)
$
 PHASE GALI2 % 2 1 2 !
 CONST GALI2 : GA : LI : !
$ ------------------------------------------------------------------------------
$ Defaults
$
 DEFINE-SYSTEM-DEFAULT ELEMENT 2 !
 DEFAULT-COM DEFINE_SYSTEM_ELEMENT VA !
 TYPE-DEF % SEQ * !
 TYPE-DEF A GES AMEND_PHASE_DESCRIPTION @ MAGNETIC -3 0.28 !
 TYPE-DEF B GES AMEND_PHASE_DESCRIPTION @ MAGNETIC -1 0.4 !
 FUNCTION ZERO      298.15  0;                                         6000 N !
 FUNCTION UN_ASS    298.15  0;                                         6000 N !
 FUNCTION R         298.15  +8.31451;                                  6000 N !
$ ------------------------------------------------------------------------------
$ Element data
$ ------------------------------------------------------------------------------
$ Ga
$
$ DIAMOND_A4 added in unary 5.0
$
$ Changed name from ORTHORHOMBIC_GA to ORTHORHOMBIC_A11
$
 PAR  G(ORTHORHOMBIC_A11,GA)    200.00  +GHSERGA;                4000 N 91Din !
 PAR  G(FCC_A1,GA:VA)           200.00  +GHSERGA+3800-10.2*T;    4000 N 91Din !
 PAR  G(BCC_A2,GA:VA)           200.00  +GHSERGA+4500-11.7*T;    4000 N 91Din !
 PAR  G(HCP_A3,GA:VA)           200.00  +GHSERGA+4500-9.5*T;     4000 N 91Din !
$PAR  G(DIAMOND_A4,GA)          200.00  +GHSERGA+20900-2*T;      4000 N 09SGUN !
$PAR  G(BCT_A5,GA)              200.00  +GHSERGA+3846-9.8*T;     4000 N 91Din !
$PAR  G(TETRAGONAL_A6,GA)       200.00  +GHSERGA+3500-10*T;      4000 N 91Din !
 PAR  G(LIQUID,GA)              200.00  +GLIQGA;                 4000 N 91Din !
$
 PAR  G(GALI_B32,GA:VA),,               +GHSERGA+10000;,,             N 03Yua !
$
 FUNCTION GHSERGA   200.00  -21312.331+585.263691*T-108.228783*T*LN(T)
       +0.227155636*T**2-1.18575257E-04*T**3+439954*T**(-1);
       302.91  Y  -7055.643+132.73019*T-26.0692906*T*LN(T)
       +1.506E-04*T**2-4.0173E-08*T**3-118332*T**(-1)+1.64547E+23*T**(-9);
      4000.00  N !
 FUNCTION GLIQGA    200.00  +5491.298-18.073995*T+GHSERGA-7.0171E-17*T**7;
       302.91  Y  +5666.455-18.681147*T+GHSERGA-1.64547E+23*T**(-9);
      4000.00  N !
 FUNCTION GHCPGA    298.15  +GHSERGA+4500-9.5*T;                       6000 N !
$ ------------------------------------------------------------------------------
$ Li
$
 PAR  G(BCC_A2,LI:VA)           200.00  +GHSERLI;                3000 N 91Din !
 PAR  G(FCC_A1,LI:VA)           200.00  +GHSERLI-108+1.3*T;      3000 N 91Din !
 PAR  G(HCP_A3,LI:VA)           200.00  +GHSERLI-154+2*T;        3000 N 91Din !
 PAR  G(LIQUID,LI)              200.00  +GLIQLI;                 3000 N 91Din !
$
 PAR  G(GALI_B32,LI:LI),,               +2*GHSERLI;,,                 N 03Yua !
 PAR  G(GALI_B32,LI:VA),,               +GHSERLI+71218-13.04*T;,,     N 03Yua !
$
 FUNCTION GHSERLI   200.00  -10583.817+217.637482*T-38.940488*T*LN(T)
       +0.035466931*T**2-1.9869816E-05*T**3+159994*T**(-1);
       453.60  Y  -559579.123+10547.8799*T-1702.88865*T*LN(T)
       +2.25832944*T**2-5.71066077E-04*T**3+33885874*T**(-1);
       500.00  Y  -9062.994+179.278285*T-31.2283718*T*LN(T)
       +0.002633221*T**2-4.38058E-07*T**3-102387*T**(-1);
      3000.00  N !
 FUNCTION GLIQLI    200.00  +2700.205-5.795621*T+GHSERLI;
       250.00  Y  +12015.027-362.187078*T+61.6104424*T*LN(T)
       -0.182426463*T**2+6.3955671E-05*T**3-559968*T**(-1);
       453.60  Y  -6057.31+172.652183*T-31.2283718*T*LN(T)
       +0.002633221*T**2-4.38058E-07*T**3-102387*T**(-1);
       500.00  Y  +3005.684-6.626102*T+GHSERLI;
      3000.00  N !
$ ------------------------------------------------------------------------------
$ Binary system
$
$ W.X. Yuan, W.J. Wang, Y.T. Song, X.L. Chen, Scripta Mater., 48, 1053-59(2003).
$
$ Checked against paper. Checked at 6000K.
$
$ All Delta-S parameters have wrong signs. The GaLi interaction parameters
$ have been swapped.
$
$ Invariant equilibria differ by up to 7 K, except GaLi+Ga2Li3=Ga4Li5, which
$ is 27 K too low.
$
$ There is a large inverse GaLi-B32 phase field for Li-rich compositions above
$ 2700 K. This is a problem with unary bcc-Li, which is stable above 3600 K.
$
 PAR  L(LIQUID,GA,LI;0),,               -47950.794+4.811*T;,,         N 03Yua !
 PAR  L(LIQUID,GA,LI;1),,               +100.07;,,                    N 03Yua !
$
 PAR  L(BCC_A2,GA,LI:VA;0),,            +UN_ASS;,,                    N !
$
 PAR  G(GA14LI3,GA:LI),,                +14*GHSERGA+3*GHSERLI
             -237983+43.86*T;,,                                       N 03Yua !
 PAR  G(GA7LI2,GA:LI),,                 +7*GHSERGA+2*GHSERLI
             -148500+6.84*T;,,                                        N 03Yua !
 PAR  G(GA9LI5,GA:LI),,                 +9*GHSERGA+5*GHSERLI
             -329000+29.12*T;,,                                       N 03Yua !
$
 PAR  G(GALI_B32,GA:LI),,               +GHSERGA+GHSERLI
             -61218+13.04*T;,,                                        N 03Yua !
 PAR  L(GALI_B32,GA,LI:LI;0),,          +40000-50*T;,,                N 03Yua !
 PAR  L(GALI_B32,GA,LI:VA;0),,          +40000-50*T;,,                N 03Yua !
 PAR  L(GALI_B32,GA:LI,VA;0),,          -4000-24*T;,,                 N 03Yua !
 PAR  L(GALI_B32,LI:LI,VA;0),,          -4000-24*T;,,                 N 03Yua !
$
 PAR  G(GA4LI5,GA:LI),,                 +4*GHSERGA+5*GHSERLI
             -256500+63.81*T;,,                                       N 03Yua !
 PAR  G(GA2LI3,GA:LI),,                 +2*GHSERGA+3*GHSERLI
             -127400+22.85*T;,,                                       N 03Yua !
 PAR  G(GALI2,GA:LI),,                  +GHSERGA+2*GHSERLI
             -63900+7.65*T;,,                                         N 03Yua !
$ ------------------------------------------------------------------------------
$
$
 LIST-OF-REFERENCE
 NUMBER  SOURCE
  Null   'Unknown source'
  Same   'Same or similar interaction as in the corresponding stable phase'
  REFLAV 'Laves phase convention: G(LAVES,X:X)=+3*GHSERXX+15000'
  COST   'COST 507 database'
  91Din  'A.T. Dinsdale, Calphad, 15, 317-425(1991).'
  09SGUN 'SGTE unary database V.5.0, 2009.'
  03Yua  'W.X. Yuan, W.J. Wang, Y.T. Song, X.L. Chen,
          Scripta Mater., 48, 1053-59(2003); Ga-Li'
!
