$
$ Database for Zr-B from G. Cacciamani et al. 2011.
$
$ G. Cacciamani, P. Riani, F. Valenza, Calphad, 35, 601-19(2011).
$
$ Dataset created 2024.08.20 by Bengt Hallstedt.
$
$ Modified from 09Tok. B interstitial and ZrB2 modified.
$
$ The experimentally observed structure for ZrB is NaCl type, but DFT
$ calculations in 09Tok show the FeB type to be considerably more stable
$ (-67 kJ/mol vs -40 kJ/mol).
$
$ There are no parameters in the paper. They were taken from a supplemental tdb.
$
$ ------------------------------------------------------------------------------
 TEMP-LIM 298.15 6000.00 !
$
$ELEMENT NAME  REF. STATE               ATOMIC MASS H298-H0    S298    !
$
 ELEMENT VA   VACUUM                      0.0          0.0      0.0    ! 
 ELEMENT B    BETA_RHOMBO_B              10.81      1222.0      5.9    ! 
 ELEMENT ZR   HCP_A3                     91.22      5566.27    39.1809 ! 
$ ------------------------------------------------------------------------------
$ Phase definitions
$
 PHASE LIQUID:L % 1 1 !
 CONST LIQUID:L : B ZR : !
$
$ Fcc (cF4, Fm-3m) and MeX (cF8, Fm-3m)
$
 PHASE FCC_A1 %A 2 1 1 !
 CONST FCC_A1 : ZR : B VA% : !
$
$ Bcc (cI2, Im-3m)
$
 PHASE BCC_A2 %B 2 1 3 !
 CONST BCC_A2 : ZR : B VA% : !
$
$ Hcp (hP2, P6_3/mmc) and Me2X (NiAs-type, hP4, P6_3/mmc, B8_1)
$
 PHASE HCP_A3 %A 2 1 0.5 !
 CONST HCP_A3 : ZR : B VA% : !
$
$ Prototype beta-B (hR105, R-3m)
$
 PHASE BETA_RHOMBO_B % 1 1 !
 CONST BETA_RHOMBO_B : B : !
$
$ Prototype NaCl (cF8, Fm-3m, B1) or FeB (oP8, Pnma, B27)
$
 PHASE ZRB % 2 1 1 !
 CONST ZRB : ZR : B : !
$
$ Prototype AlB2 (hP3, P6/mmm)
$
 PHASE MB2_C32 % 2 1 2 !
 CONST MB2_C32 : VA ZR% : B : !
$
$ Prototype UB12 (cF52, Fm-3m)
$
 PHASE ZRB12_D2F % 2 1 12 !
 CONST ZRB12_D2F : ZR : B : !
$ ------------------------------------------------------------------------------
$ Defaults
$
 DEFINE-SYSTEM-DEFAULT ELEMENT 2 !
 DEFAULT-COM DEFINE_SYSTEM_ELEMENT VA !
 TYPE-DEF % SEQ * !
 TYPE-DEF A GES AMEND_PHASE_DESCRIPTION @ MAGNETIC -3 0.28 !
 TYPE-DEF B GES AMEND_PHASE_DESCRIPTION @ MAGNETIC -1 0.4 !
 FUNCTION ZERO      298.15  0;                                         6000 N !
 FUNCTION UN_ASS    298.15  0;                                         6000 N !
 FUNCTION R         298.15  +8.31451;                                  6000 N !
$ ------------------------------------------------------------------------------
$ Element data
$ ------------------------------------------------------------------------------
$ B
$
$ FCC_A1, HCP_A3, DIAMOND_A4 and GRAPHITE added in unary 3.0
$ BCC_A2 added in unary 4.1
$ GRAPHITE revised in unary 4.4 (using the value from COST 507)
$ FCC_A1, BCC_A2 and HCP_A3 removed in unary 5.0
$ ALPHA_RHOMBO_B added in unary 5.0
$
$ FCC_A1, BCC_A2 and HCP_A3 still in SGSOL 5.0
$ The value for FCC_A1 in COST (and SGTE) is possibly incorrect.
$
 PAR  G(BETA_RHOMBO_B,B),,              +GHSERBB;,,                   N 91Din !
$PAR  G(ALPHA_RHOMBO_B,B),,             +GALPBB;,,                    N 09SGUN !
$PAR  G(FCC_A1,B:VA),,                  +GHSERBB+43514-12.217*T;,,    N SGCOST !
$PAR  G(FCC_A1,B:VA),,                  +GHSERBB+50208-13.472*T;,,    N 94Hal !
$PAR  G(BCC_A2,B:VA),,                  +GHSERBB+43514-12.217*T;,,    N 94Hal !
$PAR  G(HCP_A3,B:VA),,                  +GHSERBB+50208-9.706*T;,,     N SGCOST !
$PAR  G(GRAPHITE,B),,                   +GHSERBB+10000-2*T;,,         N SGCOST !
$PAR  G(GRAPHITE,B),,                   +GHSERBB+5000;,,              N 96SGUN !
$PAR  G(DIAMOND_A4,B),,                 +GHSERBB+10;,,                N 99SGUN !
$PAR  G(DIAMOND_A4,B),,                 +GHSERBB+20;,,                N COST !
$PAR  G(DIAMOND_A4,B),,                 +GHSERBB;,,                   N 96SGUN !
 PAR  G(LIQUID,B),,                     +GLIQBB;,,                    N 91Din !
$
 PAR  G(MB2_C32,VA:B),,                 +2*GHSERBB+60000;,,           N 11Cac !
$
 FUNCTION GHSERBB   298.15  -7735.284+107.111864*T-15.6641*T*LN(T)
       -0.006864515*T**2+6.18878E-07*T**3+370843*T**(-1);
      1100.00  Y  -16649.474+184.801744*T-26.6047*T*LN(T)
       -7.9809E-04*T**2-2.556E-08*T**3+1748270*T**(-1);
      2348.00  Y  -36667.582+231.336244*T-31.5957527*T*LN(T)
       -0.00159488*T**2+1.34719E-07*T**3+11205883*T**(-1);
      3000.00  Y  -21530.653+222.396264*T-31.4*T*LN(T);
      6000.00  N !
 FUNCTION GALPBB    298.15  -6076.24+86.648762*T-12.942464*T*LN(T)
       -7.089468E-3*T**2+0.659896E-6*T**3-45*T**(-1);
      1400.00  Y  +28477.506-106.789208*T+12.1072478*T*LN(T)
       -13.316875E-3*T**2+0.706895E-6*T**3-8002403*T**(-1);
      3000.00  Y  -25699.64+225.127135*T-31.4*T*LN(T);
      6000.00  N !
 FUNCTION GLIQBB    298.15  +48458.559-20.268025*T+GHSERBB;
       500.00  Y  +41119.703+82.101722*T-14.9827763*T*LN(T)
       -0.007095669*T**2+5.07347E-07*T**3+335484*T**(-1);
      2348.00  Y  +28842.012+200.94731*T-31.4*T*LN(T);
      3000.00  Y  +50372.665-21.448954*T+GHSERBB;
      6000.00  N !
 FUNCTION GFCCBB    298.15  +GHSERBB+43514-12.217*T;                   6000 N !
 FUNCTION GBCCBB    298.15  +GHSERBB+43514-12.217*T;                   6000 N !
$ ------------------------------------------------------------------------------
$ Zr
$
$ CUB_A13, CBCC_A12, ORTHORHOMBIC_A20 and TETRAGONAL_U added in unary 4.1
$
 PAR  G(HCP_A3,ZR:VA)           130.00  +GHSERZR;,,                   N 91Din !
 PAR  G(BCC_A2,ZR:VA)           130.00  +GBCCZR;,,                    N 91Din !
$PAR  G(OMEGA,ZR)               130.00  +GOMEZR;,,                    N 91Din !
 PAR  G(FCC_A1,ZR:VA)           130.00  +GHSERZR+7600-0.9*T;,,        N 91Din !
$PAR  G(CBCC_A12,ZR:VA)         130.00  +GHSERZR+4602.2;,,            N 99SGUN !
$PAR  G(CUB_A13,ZR:VA)          130.00  +GHSERZR+7531.2;,,            N 99SGUN !
$PAR  G(ORTHORHOMBIC_A20,ZR)    130.00  +GBCCZR+5000;,,               N 99SGUN !
$PAR  G(TETRAGONAL_U,ZR)        130.00  +GBCCZR+5000;,,               N 99SGUN !
 PAR  G(LIQUID,ZR)              130.00  +GLIQZR;,,                    N 91Din !
$
 FUNCTION GHSERZR   130.00  -7827.595+125.64905*T-24.1618*T*LN(T)
       -0.00437791*T**2+34971*T**(-1);
      2128.00  Y  -26085.921+262.724183*T-42.144*T*LN(T)-1.342896E+31*T**(-9);
      6000.00  N !
 FUNCTION GBCCZR    130.00  -525.539+124.9457*T-25.607406*T*LN(T)
       -3.40084E-04*T**2-9.729E-09*T**3+25233*T**(-1)-7.6143E-11*T**4;
      2128.00  Y  -4620.034+1.55998*T+GHSERZR+1.4103476E+32*T**(-9);
      6000.00  N !
 FUNCTION GOMEZR    130.00  -8878.082+144.432234*T-26.8556*T*LN(T)
       -0.002799446*T**2+38376*T**(-1);
      2128.00  Y  -3414.603+2.566675*T+GHSERZR+8.517346E+31*T**(-9);
      6000.00  N !
 FUNCTION GLIQZR    130.00  +18147.69-9.080812*T+GHSERZR+1.6275E-22*T**7;
      2128.00  Y  -8281.26+253.812609*T-42.144*T*LN(T);
      6000.00  N !
$ ------------------------------------------------------------------------------
$ Binary system
$
$ G. Cacciamani, P. Riani, F. Valenza, Calphad, 35, 601-19(2011).
$
$ Checked against paper and author's tdb. Checked at 6000 K.
$
$ Modified from 09Tok. B interstitial and ZrB2 modified.
$
$ The experimentally observed structure for ZrB is NaCl type, but DFT
$ calculations in 09Tok show the FeB type to be considerably more stable
$ (-67 kJ/mol vs -40 kJ/mol).
$
$ There are no parameters in the paper. They were taken from a supplemental tdb.
$
 PAR  L(LIQUID,B,ZR;0),,                -230000+17.1*T;,,             N 09Tok !
 PAR  L(LIQUID,B,ZR;1),,                -81000;,,                     N 09Tok !
 PAR  L(LIQUID,B,ZR;2),,                +10000;,,                     N 09Tok !
$
 PAR  G(BCC_A2,ZR:B),,                  +GBCCZR+3*GHSERBB-150000;,,   N 11Cac !
 PAR  G(HCP_A3,ZR:B),,                  +UN_ASS;,,                    N 11Cac !
$
 PAR  G(ZRB,ZR:B),,                     +GHSERZR+GHSERBB
             -142600-67.38*T+8.8*T*LN(T);,,                           N 09Tok !
 PAR  G(MB2_C32,ZR:B),,                 +GHSERZR+2*GHSERBB
             -300900-12*T+1.5*T*LN(T)+0.00405*T**2;,,                 N 09Tok !
 PAR  G(ZRB12_D2F,ZR:B),,               +GHSERZR+12*GHSERBB
             -312130+516.1*T-66.3*T*LN(T);,,                          N 09Tok !
$
$ Metastable
$
 PAR  G(FCC_A1,ZR:B),,                  +UN_ASS;,,                    N !
$ ------------------------------------------------------------------------------
$
 ASSESSED_SYSTEM
   B-ZR(TDB -* +LIQUID +BETA_RHOMBO +HCP_A3 +BCC_A2 +ZRB12_D2F +MB2_C32
   +ZRB ;P3 TMM:300/4000 *) !
$
$
 LIST-OF-REFERENCE
 NUMBER  SOURCE
  Null   'Unknown source'
  REFLAV 'Laves phase convention: G(LAVES,X:X)=+3*GHSERXX+15000'
  COST   'COST 507 database'
  SGCOST 'COST 507 database, SGTE unary database V.3.0, 1996; Al, B, Nd, Ti, Zn'
  91Din  'A.T. Dinsdale, Calphad, 15, 317-425(1991).'
  94Hal  'B. Hallemans, P. Wollants, J.R. Roos,
          Z. Metallkd., 85, 676-82(1994), SGTE unary database V.4.1, 1999; B'
  96SGUN 'SGTE unary database V.3.0, 1996.'
  99SGUN 'SGTE unary database V.4.1, 1999.'
  09SGUN 'SGTE unary database V.5.0, 2009.'
  09Tok  'T. Tokunaga, K. Terashima, H. Ohtani, M. Hasebe,
          Mater. Trans. JIM, 49, 2534-40(2009); Zr-B'
  11Cac  'G. Cacciamani, P. Riani, F. Valenza, Calphad, 35, 601-19(2011); Zr-B'
!
