$
$ Database for Sr-Te from S. Yu et al. 2022.
$
$ S. Yu, J. Wang, D. Cui, S. Chen, Q. Wu, Y. Du,
$ J. Phase Equilib. Diffus., 43, 193-213(2022).
$
$ Dataset created 2022.10.08 by Bengt Hallstedt.
$
$ Temperature dependencies are very strong.
$
$ All parameters misprinted in the paper, probably not the final version.
$ Correction in JPED 44, 340-42(2023).
$
$ ------------------------------------------------------------------------------
 TEMP-LIM 298.15 6000.00 !
$
$ELEMENT NAME  REF. STATE               ATOMIC MASS H298-H0    S298    !
$
 ELEMENT VA   VACUUM                      0.0          0.0      0.0    ! 
 ELEMENT SR   FCC_A1                     87.62      6568.      55.694  ! 
 ELEMENT TE   HEXAGONAL_A8              127.60      6080.      49.221  ! 
$ ------------------------------------------------------------------------------
$ Phase definitions
$
 PHASE LIQUID:L % 1 1 !
 CONST LIQUID:L : SR TE : !
$
$ Fcc (cF4, Fm-3m) and MeX (cF8, Fm-3m)
$
 PHASE FCC_A1 %A 2 1 1 !
 CONST FCC_A1 : SR : VA : !
$
$ Bcc (cI2, Im-3m)
$
 PHASE BCC_A2 %B 2 1 3 !
 CONST BCC_A2 : SR : VA : !
$
$ Hcp (hP2, P6_3/mmc) and Me2X (NiAs-type, hP4, P6_3/mmc, B8_1)
$
 PHASE HCP_A3 %A 2 1 0.5 !
 CONST HCP_A3 : SR : VA: !
$
$ Prototype gamma-Se (hP3, P3_121)
$ The phase is named HEXAGONAL_A8 in the SGTE unary database and
$ TRIGONAL_A8 in LB.
$
 PHASE HEXAGONAL_A8 % 1 1 !
 CONST HEXAGONAL_A8 : TE : !
$
$ Prototype NaCl (cF8, Fm-3m)
$
 PHASE SRTE_B1 % 2 1 1 !
 CONST SRTE_B1 : SR : TE : !
$
$ unknown structure
$
 PHASE SR2TE3 % 2 2 3 !
 CONST SR2TE3 : SR : TE : !
$
$ unknown structure
$
 PHASE SRTE2 % 2 1 2 !
 CONST SRTE2 : SR : TE : !
$ ------------------------------------------------------------------------------
$ Defaults
$
 DEFINE-SYSTEM-DEFAULT ELEMENT 2 !
 DEFAULT-COM DEFINE_SYSTEM_ELEMENT VA !
 TYPE-DEF % SEQ * !
 TYPE-DEF A GES AMEND_PHASE_DESCRIPTION @ MAGNETIC -3 0.28 !
 TYPE-DEF B GES AMEND_PHASE_DESCRIPTION @ MAGNETIC -1 0.4 !
 FUNCTION ZERO      298.15  0;                                         6000 N !
 FUNCTION UN_ASS    298.15  0;                                         6000 N !
 FUNCTION R         298.15  +8.31451;                                  6000 N !
$ ------------------------------------------------------------------------------
$ Element data
$ ------------------------------------------------------------------------------
$ Sr
$
 PAR  G(FCC_A1,SR:VA),,                 +GHSERSR;                3000 N 91Din !
 PAR  G(BCC_A2,SR:VA),,                 +GBCCSR;                 3000 N 91Din !
 PAR  G(HCP_A3,SR:VA),,                 +GHSERSR+250+0.7*T;      3000 N 91Din !
 PAR  G(LIQUID,SR),,                    +GLIQSR;                 3000 N 91Din !
$
 FUNCTION GHSERSR   298.15  -7532.367+107.183879*T-23.905*T*LN(T)
       -0.00461225*T**2-1.67477E-07*T**3-2055*T**(-1);
       820.00  Y  -13380.102+153.196104*T-30.0905432*T*LN(T)
       -0.003251266*T**2+1.84189E-07*T**3+850134*T**(-1);
      3000.00  N !
 FUNCTION GBCCSR    298.15  -6779.234+116.583654*T-25.6708365*T*LN(T)
       -0.003126762*T**2+2.2965E-07*T**3+27649*T**(-1);
       820.00  Y  -6970.594+122.067301*T-26.57*T*LN(T)
       -0.0019493*T**2-1.7895E-08*T**3+16495*T**(-1);
      1050.00  Y  +8168.357+0.423037*T-9.7788593*T*LN(T)
       -0.009539908*T**2+5.20221E-07*T**3-2414794*T**(-1);
      3000.00  N !
 FUNCTION GLIQSR    298.15  +2194.997-10.118994*T-5.0668978*T*LN(T)
       -0.031840595*T**2+4.981237E-06*T**3-265559*T**(-1);
      1050.00  Y  -10855.29+213.406219*T-39.463*T*LN(T);
      3000.00  N !
$ ------------------------------------------------------------------------------
$ Te
$
$ HEXAGONAL_A8 and LIQUID revised in unary 3.0
$
$ RHOMBOHEDRAL_A7 from 89Gho not included in unary
$
 PAR  G(HEXAGONAL_A8,TE),,              +GHSERTE;                1600 N 95Dav !
$PAR  G(RHOMBOHEDRAL_A7,TE),,           +GHSERTE+15*T;           1600 N 89Gho !
 PAR  G(LIQUID,TE),,                    +GLIQTE;                 1600 N 95Dav !
$
 FUNCTION GHSERTE   298.15  -10544.679+183.372894*T-35.6687*T*LN(T)
       +0.01583435*T**2-5.240417E-06*T**3+155015*T**(-1);
       722.66  Y  +9160.595-129.265373*T+13.004*T*LN(T)
       -0.0362361*T**2+5.006367E-06*T**3-1286810*T**(-1);
      1150.00  Y  -12781.349+174.901226*T-32.5596*T*LN(T);
      1600.00  N !
 FUNCTION GLIQTE    298.15  -17554.731+685.877639*T-126.318*T*LN(T)
       +0.2219435*T**2-9.42075E-05*T**3+827930*T**(-1);
       626.49  Y  -3165763.48+46756.357*T-7196.41*T*LN(T)
       +7.09775*T**2-0.00130692833*T**3+2.58051E+08*T**(-1);
       722.66  Y  +180326.959-1500.57909*T+202.743*T*LN(T)
       -0.142016*T**2+1.6129733E-05*T**3-24238450*T**(-1);
      1150.00  Y  +19110.036-26.1929273*T+GHSERTE;
      1600.00  N !
$ ------------------------------------------------------------------------------
$ Binary system
$
$ S. Yu, J. Wang, D. Cui, S. Chen, Q. Wu, Y. Du,
$ J. Phase Equilib. Diffus., 43, 193-213(2022).
$
$ Checked against paper and author's tdb. Checked at 6000 K.
$
$ Temperature dependencies are very strong.
$
$ All parameters misprinted in the paper, probably not the final version.
$ Correction in JPED 44, 340-42(2023).
$
 PAR  L(LIQUID,SR,TE;0),,               -171563-65.55*T;,,            N 22Yu !
 PAR  L(LIQUID,SR,TE;1),,               -17000;,,                     N 22Yu !
 PAR  L(LIQUID,SR,TE;2),,               +45441;,,                     N 22Yu !
$
 PAR  G(SRTE_B1,SR:TE),,                +GHSERSR+GHSERTE
             -334586+77.852*T;,,                                      N 22Yu !
 PAR  G(SR2TE3,SR:TE),,                 +2*GHSERSR+3*GHSERTE
             -679185+153.78*T;,,                                      N 22Yu !
 PAR  G(SRTE2,SR:TE),,                  +GHSERSR+2*GHSERTE
             -340074+72.717*T;,,                                      N 22Yu !
$ ------------------------------------------------------------------------------
$
$
 LIST-OF-REFERENCE
 NUMBER  SOURCE
  Null   'Unknown source'
  Same   'Same or similar interaction as in the corresponding stable phase'
  REFLAV 'Laves phase convention: G(LAVES,X:X)=+3*GHSERXX+15000'
  COST   'COST 507 database, 1998'
  89Gho  'G. Ghosh, H.L. Lukas, L. Delaey,
          Z. Metallkd., 80, 731-36 (1989); Sb-Te'
  91Din  'A.T. Dinsdale, Calphad, 15, 317-425(1991).'
  95Dav  'A.V. Davydov, M.H. Rand, B.B. Argent, Calphad, 19, 375-87(1995),
          SGTE unary database V.3.0, 1996; Te'
  22Yu   'S. Yu, J. Wang, D. Cui, S. Chen, Q. Wu, Y. Du,
          J. Phase Equilib. Diffus., 43, 193-213(2022); Sr-Te'
!
