$
$ Database for Er-Pd from Z. Du and H. Yang 2000.
$
$ Z. Du, H. Yang, J. Alloys Compd., 299, 199-204(2000).
$
$ Dataset created 2018.02.25 by Bengt Hallstedt.
$ 2020.12.26: Modified for use with GES6.
$
$ The interaction parameters and lattice stability for fcc-Er are not
$ acceptable. This is also the case for ErPd-B27 and ErPd-B2.
$
$ ------------------------------------------------------------------------------
 TEMP-LIM 298.15 6000.00 !
$
$ELEMENT NAME  REF. STATE               ATOMIC MASS H298-H0    S298    !
$
 ELEMENT VA   VACUUM                      0.0          0.0      0.0    ! 
 ELEMENT ER   HCP_A3                    167.26      7392.2912  73.17816! 
 ELEMENT PD   FCC_A1                    106.42      5468.488   37.8234 ! 
$ ------------------------------------------------------------------------------
$ Phase definitions
$
 PHASE LIQUID:L % 1 1 !
 CONST LIQUID:L : ER PD : !
$
$ Fcc (cF4, Fm-3m) and MeX (cF8, Fm-3m)
$
 PHASE FCC_A1 %A 2 1 1 !
 CONST FCC_A1 : ER PD% : VA : !
$
$ Bcc (cI2, Im-3m)
$
 PHASE BCC_A2 %B 2 1 3 !
 CONST BCC_A2 : ER PD : VA : !
$
$ Hcp (hP2, P6_3/mmc) and Me2X (NiAs-type, hP4, P6_3/mmc, B8_1)
$
 PHASE HCP_A3 %A 2 1 0.5 !
 CONST HCP_A3 : ER% PD : VA : !
$
$ Prototype Dy5Pd2 (cF144, Fd-3m)
$
 PHASE ER5PD2 % 2 5 2 !
 CONST ER5PD2 : ER : PD : !
$
$ Prototype Si2U3 (tP10, P4/mbm)
$
 PHASE ER3PD2_D5A % 2 3 2 !
 CONST ER3PD2_D5A : ER : PD : !
$
$ Prototype FeB (oP8, Pnma), low T
$
 PHASE ERPD_B27 % 2 1 1 !
 CONST ERPD_B27 : ER : ER PD% : !
$
$ Prototype CsCl (cP2, Pm-3m), high T
$
 PHASE ERPD_B2 % 2 1 1 !
 CONST ERPD_B2 : ER : ER PD% : !
$
$ Prototype Pd4Pu3 (hR14, R-3)
$
 PHASE ER3PD4 % 2 3 4 !
 CONST ER3PD4 : ER : PD : !
$
$ Unknown structure
$
 PHASE ER2PD3_LT % 2 2 3 !
 CONST ER2PD3_LT : ER : PD : !
$
$ Unknown structure
$
 PHASE ER2PD3_HT % 2 2 3 !
 CONST ER2PD3_HT : ER : PD : !
$
$ Unknown structure
$
 PHASE ER10PD21 % 2 10 21 !
 CONST ER10PD21 : ER : PD : !
$
$ Prototype AuCu3 (cP4, Pm-3m)
$
 PHASE ERPD3_L12 % 2 1 3 !
 CONST ERPD3_L12 : ER% PD : PD : !
$
$ Unknown structure
$
 PHASE ERPD7 % 2 1 7 !
 CONST ERPD7 : ER : PD : !
$ ------------------------------------------------------------------------------
$ Defaults
$
 DEFINE-SYSTEM-DEFAULT ELEMENT 2 !
 DEFAULT-COM DEFINE_SYSTEM_ELEMENT VA !
 TYPE-DEF % SEQ * !
 TYPE-DEF A GES AMEND_PHASE_DESCRIPTION @ MAGNETIC -3 0.28 !
 TYPE-DEF B GES AMEND_PHASE_DESCRIPTION @ MAGNETIC -1 0.4 !
 FUNCTION ZERO      298.15  0;                                         6000 N !
 FUNCTION UN_ASS    298.15  0;                                         6000 N !
 FUNCTION R         298.15  +8.31451;                                  6000 N !
$ ------------------------------------------------------------------------------
$ Element data
$ ------------------------------------------------------------------------------
$ Er
$
$ BCC_A2 added in unary 4.4
$
$ FCC_A1 from 02Cac not included in unary (but it should be)
$ FCC_A1 from 99Du, 00Du and 11Don not included in unary
$ The value from 00Du is absurd
$
 PAR  G(HCP_A3,ER:VA),,                 +GHSERER;                3200 N 91Din !
$PAR  G(FCC_A1,ER:VA),,                 +GHSERER+5000;           3200 N 99Du !
 PAR  G(FCC_A1,ER:VA),,                 +GHSERER+344620;         3200 N 00Du !
$PAR  G(FCC_A1,ER:VA),,                 +GHSERER
$            +1950-0.831451*T;                                   3200 N 02Cac !
$PAR  G(FCC_A1,ER:VA),,                 +GHSERER+2000;           3200 N 11Don !
 PAR  G(BCC_A2,ER:VA),,                 +GHSERER
             +4600-2.494353*T;                                   3200 N 00Nor1 !
 PAR  G(LIQUID,ER),,                    +GLIQER;                 3200 N 91Din !
$
 PAR  G(ERPD_B27,ER:ER),,               +2*GHSERER+256845;,,          N 00Du !
 PAR  G(ERPD_B2,ER:ER),,                +2*GHSERER
             +304466+24.901*T;,,                                      N 00Du !
$
 FUNCTION GHSERER   298.15  -8489.136+116.698964*T-28.3846744*T*LN(T)
       +9.95792E-04*T**2-9.52557E-07*T**3+9581*T**(-1);
      1802.00  Y  -445688.206+2233.10212*T-298.135131*T*LN(T)
       +0.065950553*T**2-3.041405E-06*T**3+1.23973199E+08*T**(-1);
      3200.00  N !
 FUNCTION GLIQER    298.15  +19382.102-10.241846*T+GHSERER;
       500.00  Y  +17912.678+0.355564*T-12.0761776*T*LN(T)
       -0.014414687*T**2+1.316517E-06*T**3-528122*T**(-1);
      1802.00  Y  +747.131+187.623024*T-38.702*T*LN(T);
      3200.00  N !
$ ------------------------------------------------------------------------------
$ Pd
$
$ RHOMBOHEDRAL_A7 added in unary 5.0
$
 PAR  G(FCC_A1,PD:VA),,                 +GHSERPD;                4000 N 91Din !
 PAR  G(BCC_A2,PD:VA),,                 +GHSERPD+10500-1.8*T;    4000 N 91Din !
 PAR  G(HCP_A3,PD:VA),,                 +GHSERPD+2000+0.1*T;     4000 N 91Din !
$PAR  G(RHOMBOHEDRAL_A7,PD),,           +GHSERPD+4000;           4000 N 06Vre !
 PAR  G(LIQUID,PD),,                    +GLIQPD;                 4000 N 91Din !
$
 PAR  G(ERPD3_L12,PD:PD),,              +4*GHSERPD+10492;,,           N 00Du !
$
 FUNCTION GHSERPD   298.15  -10204.027+176.076315*T-32.211*T*LN(T)
       +0.007120975*T**2-1.919875E-06*T**3+168687*T**(-1);
       900.00  Y  +917.062+49.659892*T-13.5708*T*LN(T)
       -0.00717522*T**2+1.91115E-07*T**3-1112465*T**(-1);
      1828.00  Y  -67161.018+370.102147*T-54.2067086*T*LN(T)
       +0.002091396*T**2-6.2811E-08*T**3+18683526*T**(-1);
      4000.00  N !
 FUNCTION GLIQPD    298.15  +11506.758-5.112162*T+GHSERPD;
       600.00  Y  +23405.778-116.918419*T+10.8922031*T*LN(T)
       -0.027266568*T**2+2.430675E-06*T**3-1853674*T**(-1);
      1828.00  Y  -12373.637+251.416903*T-41.17*T*LN(T);
      4000.00  N !
$ ------------------------------------------------------------------------------
$ Binary system
$
$ Z. Du, H. Yang, J. Alloys Compd., 299, 199-204(2000).
$
$ Checked against paper. Checked at 6000 K.
$
$ The interaction parameters and lattice stability for fcc-Er are not
$ acceptable. This is also the case for ErPd-B27 and ErPd-B2.
$
 PAR  L(LIQUID,ER,PD;0),,               -368991+24.014*T;,,           N 00Du !
 PAR  L(LIQUID,ER,PD;1),,               +144011-10.082*T;,,           N 00Du !
$
 PAR  L(FCC_A1,ER,PD:VA;0),,            -859094+37.316*T;,,           N 00Du !
 PAR  L(HCP_A3,ER,PD:VA;0),,            +100000;,,                    N 00Du !
$
 PAR  G(ER5PD2,ER:PD),,                 +5*GHSERER+2*GHSERPD
             -438832+29.007*T;,,                                      N 00Du !
 PAR  G(ER3PD2_D5A,ER:PD),,             +3*GHSERER+2*GHSERPD
             -432499+37.993*T;,,                                      N 00Du !
$
 PAR  G(ERPD_B27,ER:PD),,               +GHSERER+GHSERPD
             -183153+1.551*T;,,                                       N 00Du !
 PAR  L(ERPD_B27,ER:ER,PD;0),,          -306264;,,                    N 00Du !
$
 PAR  G(ERPD_B2,ER:PD),,                +GHSERER+GHSERPD
             -180463-1.725*T;,,                                       N 00Du !
 PAR  L(ERPD_B2,ER:ER,PD;0),,           -369289;,,                    N 00Du !
$
 PAR  G(ER3PD4,ER:PD),,                 +3*GHSERER+4*GHSERPD
             -648017-3.848*T;,,                                       N 00Du !
 PAR  G(ER2PD3_LT,ER:PD),,              +2*GHSERER+3*GHSERPD
             -466614+3.24*T;,,                                        N 00Du !
 PAR  G(ER2PD3_HT,ER:PD),,              +2*GHSERER+3*GHSERPD
             -458747-2.288*T;,,                                       N 00Du !
 PAR  G(ER10PD21,ER:PD),,               +10*GHSERER+21*GHSERPD
             -2929281+106.496*T;,,                                    N 00Du !
$
 PAR  G(ERPD3_L12,ER:PD),,              +GHSERER+3*GHSERPD
             -376278+22.892*T;,,                                      N 00Du !
 PAR  L(ERPD3_L12,ER,PD:PD;0),,         -52533;,,                     N 00Du !
$
 PAR  G(ERPD7,ER:PD),,                  +GHSERER+7*GHSERPD
             -446044+58.926*T;,,                                      N 00Du !
$
$ Metastable
$
 PAR  L(BCC_A2,ER,PD:VA;0),,            +100000;,,                    N Same !
$ ------------------------------------------------------------------------------
$
$
 LIST-OF-REFERENCE
 NUMBER  SOURCE
  Null   'Unknown source'
  Same   'Same or similar interaction as in the corresponding stable phase'
  COST   'COST 507 database'
  91Din  'A.T. Dinsdale, Calphad, 15, 317-425(1991).'
  99Du   'Z. Du, D. Wang, W. Zhang, J. Alloys. Compd., 284, 206-12(1999); Er'
  00Du   'Z. Du, H. Yang, J. Alloys Compd., 299, 199-204(2000); Er-Pd'
  00Nor1 'S. Norgren, J. Phase Equilib., 21, 148-56(2000),
          SGTE unary database V.4.4, 2001; Er, Ho'
  02Cac  'G. Cacciamani, A. Saccone, S. De Negri, R. Ferro,
          J. Phase Equilib., 23, 38-50(2002); Er'
  06Vre  'J. Vrestal, J. Pinkas, A. Watson, A. Scott, J. Houserova, A. Kroupa,
          Calphad, 30, 14-17(2006), SGTE unary database V.5.0, 2009; Pd'
  11Don  'H.Q. Dong, X.M. Tao, H.S. Liu, T. Laurila, M. Paulastro-Krockel,
          J. Alloys Compd., 509, 4439-44(2011); Er'
!
