$
$ Database for Cu-N from K. Frisk 1991
$
$ K. Frisk, Report IM-2929, 1991.
$
$ Dataset created 2015.05.23 by Bengt Hallstedt.
$ 2020.12.26: Modified for use with GES6.
$
$ The solubility of N in fcc-Cu is extremely small. Results without the gas
$ included are not reasonable; there is then a large bcc region in the center.
$
$ The bcc phase is far too stable.
$
$ ------------------------------------------------------------------------------
 TEMP-LIM 298.15 6000.00 !
$
$ELEMENT NAME  REF. STATE               ATOMIC MASS H298-H0    S298    !
$
 ELEMENT VA   VACUUM                      0.0          0.0      0.0    ! 
 ELEMENT CU   FCC_A1                     63.546     5004.      33.15   !
 ELEMENT N    1/2_MOLE_N2(G)             14.007     4335.0     95.751  ! 
$ ------------------------------------------------------------------------------
$ Species
$
 SPECIE  N2                                 N2 !
$ ------------------------------------------------------------------------------
$ Phase definitions
$
 PHASE LIQUID:L % 1 1 !
 CONST LIQUID:L : CU N : !
$
$ Fcc (cF4, Fm-3m) and MeX (cF8, Fm-3m)
$
 PHASE FCC_A1 %A 2 1 1 !
 CONST FCC_A1 : CU : N VA% : !
$
$ Bcc (cI2, Im-3m)
$
 PHASE BCC_A2 %B 2 1 3 !
 CONST BCC_A2 : CU : N VA% : !
$
$ Hcp (hP2, P6_3/mmc) and Me2X (NiAs-type, hP4, P6_3/mmc, B8_1)
$
 PHASE HCP_A3 % 2 1 0.5 !
 CONST HCP_A3 : CU : N VA% : !
$
 PHASE N2GAS % 1 1 !
 CONST N2GAS : N2 : !
$ ------------------------------------------------------------------------------
$ Defaults
$
 DEFINE-SYSTEM-DEFAULT ELEMENT 2 !
 DEFAULT-COM DEFINE_SYSTEM_ELEMENT VA !
 TYPE-DEF % SEQ * !
 TYPE-DEF A GES AMEND_PHASE_DESCRIPTION @ MAGNETIC -3 0.28 !
 TYPE-DEF B GES AMEND_PHASE_DESCRIPTION @ MAGNETIC -1 0.4 !
 FUNCTION ZERO      298.15  0;                                         6000 N !
 FUNCTION UN_ASS    298.15  0;                                         6000 N !
 FUNCTION R         298.15  +8.31451;                                  6000 N !
 FUNCTION RTLNP     298.15  +8.31451*T*LN(1E-05*P);                    6000 N !
$ ------------------------------------------------------------------------------
$ Element data
$ ------------------------------------------------------------------------------
$ Cu
$
 PAR  G(FCC_A1,CU:VA),,                 +GHSERCU;                3200 N 91Din !
 PAR  G(BCC_A2,CU:VA),,                 +GHSERCU+4017-1.255*T;   3200 N 91Din !
 PAR  G(HCP_A3,CU:VA),,                 +GHSERCU+600+0.2*T;      3200 N 91Din !
 PAR  G(LIQUID,CU),,                    +GLIQCU;                 3200 N 91Din !
$
 FUNCTION GHSERCU   298.15  -7770.458+130.485235*T-24.112392*T*LN(T)
       -0.00265684*T**2+1.29223E-07*T**3+52478*T**(-1);
      1357.77  Y  -13542.026+183.803828*T-31.38*T*LN(T)+3.642E+29*T**(-9);
      3200.00  N !
 FUNCTION GLIQCU    298.15  +12964.735-9.511904*T+GHSERCU-5.8489E-21*T**7;
      1357.77  Y  -46.545+173.881484*T-31.38*T*LN(T);
      3200.00  N !
$ ------------------------------------------------------------------------------
$ N
$
 PAR  G(N2GAS,N2),,                     +2*GHSERNN+RTLNP;,,           N 91Din !
 PAR  G(LIQUID,N),,                     +GHSERNN+29950+59.02*T;,,     N 91Din !
$
 FUNCTION GHSERNN   298.15  -3750.675-9.45425*T-12.7819*T*LN(T)
       -0.00176686*T**2+2.681E-09*T**3-32374*T**(-1);
       950.00  Y  -7358.85+17.2003*T-16.3699*T*LN(T)
       -6.5107E-04*T**2+3.0097E-08*T**3+563070*T**(-1);
      3350.00  Y  -16392.8+50.26*T-20.4695*T*LN(T)
       +2.39754E-04*T**2-8.333E-09*T**3+4596375*T**(-1);
      6000.00  N !
$ ------------------------------------------------------------------------------
$ Binary system
$
$ K. Frisk, Report IM-2929, 1991.
$
$ The solubility of N in fcc-Cu is extremely small. Results without the gas
$ included are not reasonable; there is then a large bcc region in the center.
$
$ The bcc phase is far too stable.
$
 PAR  L(LIQUID,CU,N;0),,                +33115;,,                     N 91Fri !
$
 PAR  G(FCC_A1,CU:N),,                  +GHSERCU+GHSERNN+374805;,,    N 91Fri !
$
$ metastable
$
 PAR  G(BCC_A2,CU:N),,                  +GHSERCU+3*GHSERNN
             +100000+200*T;,,                                         N 91Fri !
 PAR  G(HCP_A3,CU:N),,                  +GHSERCU+0.5*GHSERNN
             +300000;,,                                               N 91Fri !
$ ------------------------------------------------------------------------------
$
$
 LIST-OF-REFERENCE
 NUMBER  SOURCE
  Null   'Unknown source'
  Same   'Same or similar interaction as in the corresponding stable phase'
  REFLAV 'Laves phase convention: G(LAVES,X:X)=+3*GHSERXX+15000'
  91Din  'A.T. Dinsdale, Calphad, 15, 317-425(1991).'
  91Fri  'K. Frisk, Report IM-2929, 1991; Cu-N, Cu-Fe-C-N'
!
