$
$ Database for Cu-Nb from Hämäläinen et al. 1990 (Included in LB Vol. 3)
$
$ M. Hamalainen, K. Jaaskelainen, R. Luoma, M. Nuotio, P. Taskinen,
$ O. Teppo, Calphad, 14, 125-37(1990).
$
$ Dataset created 2009.11.29 by Bengt Hallstedt.
$ 2020.12.26: Modified for use with GES6.
$
$ The temperature dependence of the liquid interaction is much too large.
$
$ ------------------------------------------------------------------------------
 TEMP-LIM 298.15 6000.00 !
$
$ELEMENT NAME  REF. STATE               ATOMIC MASS H298-H0    S298    !
$
 ELEMENT VA   VACUUM                      0.0          0.0      0.0    ! 
 ELEMENT CU   FCC_A1                     63.546     5004.      33.15   !
 ELEMENT NB   BCC_A2                     92.9064    5220.0     36.27   ! 
$ ------------------------------------------------------------------------------
$ Phase definitions
$
 PHASE LIQUID:L % 1 1 !
 CONST LIQUID:L : CU NB : !
$
$ Fcc (cF4, Fm-3m) and MeX (cF8, Fm-3m)
$
 PHASE FCC_A1 %A 2 1 1 !
 CONST FCC_A1 : CU% NB : VA : !
$
$ Bcc (cI2, Im-3m)
$
 PHASE BCC_A2 %B 2 1 3 !
 CONST BCC_A2 : CU NB% : VA : !
$
$ Hcp (hP2, P6_3/mmc) and Me2X (NiAs-type, hP4, P6_3/mmc, B8_1)
$
 PHASE HCP_A3 %A 2 1 0.5 !
 CONST HCP_A3 : CU NB : VA : !
$ ------------------------------------------------------------------------------
$ Defaults
$
 DEFINE-SYSTEM-DEFAULT ELEMENT 2 !
 DEFAULT-COM DEFINE_SYSTEM_ELEMENT VA !
 TYPE-DEF % SEQ * !
 TYPE-DEF A GES AMEND_PHASE_DESCRIPTION @ MAGNETIC -3 0.28 !
 TYPE-DEF B GES AMEND_PHASE_DESCRIPTION @ MAGNETIC -1 0.4 !
 FUNCTION ZERO      298.15  0;                                         6000 N !
 FUNCTION UN_ASS    298.15  0;                                         6000 N !
 FUNCTION R         298.15  +8.31451;                                  6000 N !
$ ------------------------------------------------------------------------------
$ Element data
$ ------------------------------------------------------------------------------
$ Cu
$
 PAR  G(FCC_A1,CU:VA),,                 +GHSERCU;                3200 N 91Din !
 PAR  G(BCC_A2,CU:VA),,                 +GHSERCU+4017-1.255*T;   3200 N 91Din !
 PAR  G(HCP_A3,CU:VA),,                 +GHSERCU+600+0.2*T;      3200 N 91Din !
 PAR  G(LIQUID,CU),,                    +GLIQCU;                 3200 N 91Din !
$
 FUNCTION GHSERCU   298.15  -7770.458+130.485235*T-24.112392*T*LN(T)
       -0.00265684*T**2+1.29223E-07*T**3+52478*T**(-1);
      1357.77  Y  -13542.026+183.803828*T-31.38*T*LN(T)+3.64167E+29*T**(-9);
      3200.00  N !
 FUNCTION GLIQCU    298.15  +12964.735-9.511904*T+GHSERCU-5.8489E-21*T**7;
      1357.77  Y  -46.545+173.881484*T-31.38*T*LN(T);
      3200.00  N !
$ ------------------------------------------------------------------------------
$ Nb
$
 PAR  G(BCC_A2,NB:VA),,                 +GHSERNB;,,                   N 91Din !
 PAR  G(FCC_A1,NB:VA),,                 +GHSERNB+13500+1.7*T;,,       N 91Din !
 PAR  G(HCP_A3,NB:VA),,                 +GHSERNB+10000+2.4*T;,,       N 91Din !
 PAR  G(LIQUID,NB),,                    +GLIQNB;,,                    N 91Din !
$
 FUNCTION GHSERNB   298.15  -8519.353+142.045475*T-26.4711*T*LN(T)
       +2.03475E-04*T**2-3.5012E-07*T**3+93399*T**(-1);
      2750.00  Y  -37669.3+271.720843*T-41.77*T*LN(T)+1.528238E+32*T**(-9);
      6000.00  N !
 FUNCTION GLIQNB    298.15  +29781.555-10.816418*T+GHSERNB-3.06098E-23*T**7;
      2750.00  Y  -7499.398+260.756148*T-41.77*T*LN(T);
      6000.00  N !
$ ------------------------------------------------------------------------------
$ Binary system
$
$ From Hämäläinen et al. 1990 (Included in LB Vol. 3)
$
$ M. Hamalainen, K. Jaaskelainen, R. Luoma, M. Nuotio, P. Taskinen,
$ O. Teppo, Calphad, 14, 125-37(1990).
$
$ Checked against LB and paper. Checked at 6000 K.
$
$ The temperature dependence of the liquid interaction is much too large.
$
 PAR L(LIQUID,CU,NB;0),,                +204361.19-89.93141*T;,,      N 90Ham !
 PAR L(LIQUID,CU,NB;1),,                -105148.17+57.81653*T;,,      N 90Ham !
$
 PAR L(FCC_A1,CU,NB:VA;0),,             +45699.84-5.22785*T;,,        N 90Ham !
$
 PAR L(BCC_A2,CU,NB:VA;0),,             +49480.18;,,                  N 90Ham !
$
$ metastable
$
 PAR L(HCP_A3,CU,NB:VA;0),,             +45699.84-5.22785*T;,,        N Same !
$ ------------------------------------------------------------------------------
$
 ASSESSED_SYSTEM
  CU-NB(TDB -* +LIQUID +FCC_A1 +BCC_A2  ;P3 TMM:500/3000 *) !
$
$
 LIST-OF-REFERENCE
 NUMBER  SOURCE
  Null   'Unknown source'
  Same   'Same or similar interaction as in the corresponding stable phase'
  COST   'COST 507 database'
  90Ham  'M. Hamalainen, K. Jaaskelainen, R. Luoma, M. Nuotio, P. Taskinen,
          O. Teppo, Calphad, 14, 125-37(1990); Cu-Nb'
  91Din  'A.T. Dinsdale, Calphad, 15, 317-425(1991).'
!
