$
$ Database for Er-B from S.L. Wang et al. 2012.
$
$ S.L. Wang, J.J. Han, C.P. Wang, S.Z. Kou, X.J. Liu,
$ J. Alloys Compd., 513, 27-34(2012).
$
$ Dataset created 2018.06.24 by Bengt Hallstedt.
$ 2020.12.26: Modified for use with GES6.
$
$ ErB12 is not stable below 624 K and ErB66 not below 1143 K.
$
$ There is an inverse miscibility gap with a minimum at 4150 K and x(B)=0.45.
$
$ ------------------------------------------------------------------------------
 TEMP-LIM 298.15 6000.00 !
$
$ELEMENT NAME  REF. STATE               ATOMIC MASS H298-H0    S298    !
$
 ELEMENT VA   VACUUM                      0.0          0.0      0.0    ! 
 ELEMENT B    BETA_RHOMBO_B              10.81      1222.0      5.9    ! 
 ELEMENT ER   HCP_A3                    167.26      7392.2912  73.17816! 
$ ------------------------------------------------------------------------------
$ Phase definitions
$
 PHASE LIQUID:L % 1 1 !
 CONST LIQUID:L : B ER : !
$
$ Fcc (cF4, Fm-3m) and MeX (cF8, Fm-3m)
$
 PHASE FCC_A1 %A 2 1 1 !
 CONST FCC_A1 : B : VA : !
$
$ Bcc (cI2, Im-3m)
$
 PHASE BCC_A2 %B 2 1 3 !
 CONST BCC_A2 : B ER : VA : !
$
$ Hcp (hP2, P6_3/mmc) and Me2X (NiAs-type, hP4, P6_3/mmc, B8_1)
$
 PHASE HCP_A3 %A 2 1 0.5 !
 CONST HCP_A3 : B ER% : VA : !
$
$ Prototype alpha-B (hR12, R-3m)
$
 PHASE ALPHA_RHOMBO_B % 1 1 !
 CONST ALPHA_RHOMBO_B : B : !
$
$ Prototype beta-B (hR105, R-3m)
$
 PHASE BETA_RHOMBO_B % 1 1 !
 CONST BETA_RHOMBO_B : B : !
$
$ Prototype AlB2 (hP3, P6/mmm)
$
 PHASE ERB2_C32 % 2 1 2 !
 CONST ERB2_C32 : ER : B : !
$
$ Prototype UB4 (tP20, P4/mbm)
$
 PHASE ERB4_D1E % 2 1 4 !
 CONST ERB4_D1E : ER : B : !
$
$ Prototype UB12 (cF52, Fm-3m)
$
 PHASE ERB12_D2F % 2 1 12 !
 CONST ERB12_D2F : ER : B : !
$
$ Prototype YB66 (cF1936, Fm-3c)
$
 PHASE ERB66 % 2 1 66 !
 CONST ERB66 : ER : B : !
$ ------------------------------------------------------------------------------
$ Defaults
$
 DEFINE-SYSTEM-DEFAULT ELEMENT 2 !
 DEFAULT-COM DEFINE_SYSTEM_ELEMENT VA !
 TYPE-DEF % SEQ * !
 TYPE-DEF A GES AMEND_PHASE_DESCRIPTION @ MAGNETIC -3 0.28 !
 TYPE-DEF B GES AMEND_PHASE_DESCRIPTION @ MAGNETIC -1 0.4 !
 FUNCTION ZERO      298.15  0;                                         6000 N !
 FUNCTION UN_ASS    298.15  0;                                         6000 N !
 FUNCTION R         298.15  +8.31451;                                  6000 N !
$ ------------------------------------------------------------------------------
$ Element data
$ ------------------------------------------------------------------------------
$ B
$
$ FCC_A1, HCP_A3, DIAMOND_A4 and GRAPHITE added in unary 3.0
$ BCC_A2 added in unary 4.1
$ GRAPHITE revised in unary 4.4 (using the value from COST 507)
$ FCC_A1, BCC_A2 and HCP_A3 removed in unary 5.0
$ ALPHA_RHOMBO_B added in unary 5.0
$
$ FCC_A1, BCC_A2 and HCP_A3 still in SGSOL 5.0
$ The value for FCC_A1 in COST (and SGTE) is possibly incorrect.
$
 PAR  G(BETA_RHOMBO_B,B),,              +GHSERBB;,,                   N 91Din !
 PAR  G(ALPHA_RHOMBO_B,B),,             +GALPBB;,,                    N 09SGUN !
$PAR  G(FCC_A1,B:VA),,                  +GHSERBB+43514-12.217*T;,,    N SGCOST !
 PAR  G(FCC_A1,B:VA),,                  +GHSERBB+50208-13.472*T;,,    N 94Hal !
 PAR  G(BCC_A2,B:VA),,                  +GHSERBB+43514-12.217*T;,,    N 94Hal !
 PAR  G(HCP_A3,B:VA),,                  +GHSERBB+50208-9.706*T;,,     N SGCOST !
$PAR  G(GRAPHITE,B),,                   +GHSERBB+10000-2*T;,,         N SGCOST !
$PAR  G(GRAPHITE,B),,                   +GHSERBB+5000;,,              N 96SGUN !
$PAR  G(DIAMOND_A4,B),,                 +GHSERBB+10;,,                N 99SGUN !
$PAR  G(DIAMOND_A4,B),,                 +GHSERBB+20;,,                N COST !
$PAR  G(DIAMOND_A4,B),,                 +GHSERBB;,,                   N 96SGUN !
 PAR  G(LIQUID,B),,                     +GLIQBB;,,                    N 91Din !
$
 FUNCTION GHSERBB   298.15  -7735.284+107.111864*T-15.6641*T*LN(T)
       -0.006864515*T**2+6.18878E-07*T**3+370843*T**(-1);
      1100.00  Y  -16649.474+184.801744*T-26.6047*T*LN(T)
       -7.9809E-04*T**2-2.556E-08*T**3+1748270*T**(-1);
      2348.00  Y  -36667.582+231.336244*T-31.5957527*T*LN(T)
       -0.00159488*T**2+1.34719E-07*T**3+11205883*T**(-1);
      3000.00  Y  -21530.653+222.396264*T-31.4*T*LN(T);
      6000.00  N !
 FUNCTION GALPBB    298.15  -6076.24+86.648762*T-12.942464*T*LN(T)
       -7.089468E-3*T**2+0.659896E-6*T**3-45*T**(-1);
      1400.00  Y  +28477.506-106.789208*T+12.1072478*T*LN(T)
       -13.316875E-3*T**2+0.706895E-6*T**3-8002403*T**(-1);
      3000.00  Y  -25699.64+225.127135*T-31.4*T*LN(T);
      6000.00  N !
 FUNCTION GLIQBB    298.15  +48458.559-20.268025*T+GHSERBB;
       500.00  Y  +41119.703+82.101722*T-14.9827763*T*LN(T)
       -0.007095669*T**2+5.07347E-07*T**3+335484*T**(-1);
      2348.00  Y  +28842.012+200.94731*T-31.4*T*LN(T);
      3000.00  Y  +50372.665-21.448954*T+GHSERBB;
      6000.00  N !
 FUNCTION GFCCBB    298.15  +GHSERBB+43514-12.217*T;                   6000 N !
$ ------------------------------------------------------------------------------
$ Er
$
$ BCC_A2 added in unary 4.4
$
$ FCC_A1 from 02Cac not included in unary (but it should be)
$ FCC_A1 from 99Du and 11Don not included in unary
$
 PAR  G(HCP_A3,ER:VA),,                 +GHSERER;                3200 N 91Din !
$PAR  G(FCC_A1,ER:VA),,                 +GHSERER+5000;           3200 N 99Du !
$PAR  G(FCC_A1,ER:VA),,                 +GHSERER
$            +1950-0.831451*T;                                   3200 N 02Cac !
$PAR  G(FCC_A1,ER:VA),,                 +GHSERER+2000;           3200 N 11Don !
 PAR  G(BCC_A2,ER:VA),,                 +GHSERER
             +4600-2.494353*T;                                   3200 N 00Nor1 !
 PAR  G(LIQUID,ER),,                    +GLIQER;                 3200 N 91Din !
$
 FUNCTION GHSERER   298.15  -8489.136+116.698964*T-28.3846744*T*LN(T)
       +9.95792E-04*T**2-9.52557E-07*T**3+9581*T**(-1);
      1802.00  Y  -445688.206+2233.10212*T-298.135131*T*LN(T)
       +0.065950553*T**2-3.041405E-06*T**3+1.23973199E+08*T**(-1);
      3200.00  N !
 FUNCTION GLIQER    298.15  +19382.102-10.241846*T+GHSERER;
       500.00  Y  +17912.678+0.355564*T-12.0761776*T*LN(T)
       -0.014414687*T**2+1.316517E-06*T**3-528122*T**(-1);
      1802.00  Y  +747.131+187.623024*T-38.702*T*LN(T);
      3200.00  N !
$ ------------------------------------------------------------------------------
$ Binary system
$
$ S.L. Wang, J.J. Han, C.P. Wang, S.Z. Kou, X.J. Liu,
$ J. Alloys Compd., 513, 27-34(2012).
$
$ Checked against paper. Checked at 6000K.
$
$ ErB12 is not stable below 624 K and ErB66 not below 1143 K.
$
$ There is an inverse miscibility gap with a minimum at 4150 K and x(B)=0.45.
$
 PAR  L(LIQUID,B,ER;0),,                -80742+24.399*T;,,            N 12Wan !
 PAR  L(LIQUID,B,ER;1),,                -60000+6.6*T;,,               N 12Wan !
 PAR  L(LIQUID,B,ER;2),,                +16500-15*T;,,                N 12Wan !
 PAR  L(LIQUID,B,ER;3),,                -3*T;,,                       N 12Wan !
$
 PAR  L(HCP_A3,B,ER:VA;0),,             +50000;,,                     N 12Wan !
$
 PAR  G(ERB2_C32,ER:B),,                +GHSERER+2*GHSERBB
             -83100+3*T;,,                                            N 12Wan !
 PAR  G(ERB4_D1E,ER:B),,                +GHSERER+4*GHSERBB
             -85500-16.55*T;,,                                        N 12Wan !
 PAR  G(ERB12_D2F,ER:B),,               +GHSERER+12*GHSERBB
             -85800-26.975*T;,,                                       N 12Wan !
 PAR  G(ERB66,ER:B),,                   +GHSERER+66*GHSERBB
             -87100-43.885*T;,,                                       N 12Wan !
$
$ Metastable
$
 PAR  L(BCC_A2,B,ER:VA;0),,             +50000;,,                     N Same !
$ ------------------------------------------------------------------------------
$
$
 LIST-OF-REFERENCE
 NUMBER  SOURCE
  Null   'Unknown source'
  Same   'Same or similar interaction as in the corresponding stable phase'
  REFLAV 'Laves phase convention: G(LAVES,X:X)=+3*GHSERXX+15000'
  COST   'COST 507 database'
  SGCOST 'COST 507 database, SGTE unary database V.3.0, 1996; Al, B, Nd, Ti, Zn'
  91Din  'A.T. Dinsdale, Calphad, 15, 317-425(1991).'
  94Hal  'B. Hallemans, P. Wollants, J.R. Roos,
          Z. Metallkd., 85, 676-82(1994), SGTE unary database V.4.1, 1999; B'
  96SGUN 'SGTE unary database V.3.0, 1996.'
  99Du   'Z. Du, D. Wang, W. Zhang, J. Alloys. Compd., 284, 206-12(1999); Er'
  99SGUN 'SGTE unary database V.4.1, 1999.'
  00Nor1 'S. Norgren, J. Phase Equilib., 21, 148-56(2000),
          SGTE unary database V.4.4, 2001; Er, Ho'
  02Cac  'G. Cacciamani, A. Saccone, S. De Negri, R. Ferro,
          J. Phase Equilib., 23, 38-50(2002); Er'
  09SGUN 'SGTE unary database V.5.0, 2009.'
  11Don  'H.Q. Dong, X.M. Tao, H.S. Liu, T. Laurila, M. Paulastro-Krockel,
          J. Alloys Compd., 509, 4439-44(2011); Er'
  12Wan  'S.L. Wang, J.J. Han, C.P. Wang, S.Z. Kou, X.J. Liu,
          J. Alloys Compd., 513, 27-34(2012); Er-B'
!
