$
$ Database for Ga-As from C. Chatillon et al. 1990 (included in LB Vol. 1)
$
$ C. Chatillon, I. Ansara, A. Watson, B.B. Argent, Calphad, 14, 203-14(1990).
$
$ Dataset created 2012.09.21 by Bengt Hallstedt.
$ 2021.01.03: Modified for use with GES6.
$
$ ------------------------------------------------------------------------------
 TEMP-LIM 298.15 6000.00 !
$
$ELEMENT NAME  REF. STATE               ATOMIC MASS H298-H0    S298    !
$
 ELEMENT VA   VACUUM                      0.0          0.0      0.0    ! 
 ELEMENT AS   RHOMBOHEDRAL_A7            74.922     5117.032   35.6895 ! 
 ELEMENT GA   ORTHORHOMBIC_GA            69.72      5572.0     40.7271 ! 
$ ------------------------------------------------------------------------------
$ Species
$
 SPECIE  AS2                                AS2 !
 SPECIE  AS4                                AS4 !
 SPECIE  GAAS                               AS1GA1 !
 SPECIE  GA2                                GA2 !
$ ------------------------------------------------------------------------------
$ Phase definitions
$
 PHASE LIQUID:L % 1 1 !
 CONST LIQUID:L : AS GA : !
$
$ Fcc (cF4, Fm-3m) and MeX (cF8, Fm-3m)
$
 PHASE FCC_A1 %A 2 1 1 !
 CONST FCC_A1 : AS GA : VA : !
$
$ Bcc (cI2, Im-3m)
$
 PHASE BCC_A2 %B 2 1 3 !
 CONST BCC_A2 : AS GA : VA : !
$
$ Hcp (hP2, P6_3/mmc) and Me2X (NiAs-type, hP4, P6_3/mmc, B8_1)
$
 PHASE HCP_A3 %A 2 1 0.5 !
 CONST HCP_A3 : AS GA : VA : !
$
$ Prototype alpha-As (hR2, R-3m)
$
 PHASE RHOMBOHEDRAL_A7 % 1 1 !
 CONST RHOMBOHEDRAL_A7 : AS : !
$
$ alpha-Ga (oC8, Cmca)
$
 PHASE ORTHORHOMBIC_A11 % 1 1 !
 CONST ORTHORHOMBIC_A11 : GA : !
$
$ Prototype ZnS (cF8, F-43m)
$
 PHASE ZINCBLENDE_B3 % 2 1 1 !
 CONST ZINCBLENDE_B3 : GA : AS : !
$
 PHASE GAS:G % 1 1 !
 CONST GAS:G : AS AS2 AS4 GAAS GA GA2 : !
$ ------------------------------------------------------------------------------
$ Defaults
$
 DEFINE-SYSTEM-DEFAULT ELEMENT 2 !
 DEFAULT-COM DEFINE_SYSTEM_ELEMENT VA !
 TYPE-DEF % SEQ * !
 TYPE-DEF A GES AMEND_PHASE_DESCRIPTION @ MAGNETIC -3 0.28 !
 TYPE-DEF B GES AMEND_PHASE_DESCRIPTION @ MAGNETIC -1 0.4 !
 FUNCTION ZERO      298.15  0;                                         6000 N !
 FUNCTION UN_ASS    298.15  0;                                         6000 N !
 FUNCTION R         298.15  +8.31451;                                  6000 N !
 FUNCTION RTLNP     298.15  +8.31451*T*LN(1E-05*P);                    6000 N !
$ ------------------------------------------------------------------------------
$ Element data
$ ------------------------------------------------------------------------------
$ As
$
$ RED_P added in unary 4.4
$
 PAR  G(RHOMBOHEDRAL_A7,AS),,           +GHSERAS;                1200 N 91Din !
 PAR  G(FCC_A1,AS:VA),,                 +GHSERAS+24874-14.74*T;  1200 N 91Din !
 PAR  G(BCC_A2,AS:VA),,                 +GHSERAS+24874-16.1*T;   1200 N 91Din !
 PAR  G(HCP_A3,AS:VA),,                 +GHSERAS+24874-14*T;     1200 N 91Din !
$PAR  G(RED_P,AS),,                     +GHSERAS+5782-3.85466*T; 1200 N 01SGUN !
 PAR  G(LIQUID,AS),,                    +GHSERAS
             +24442.9-22.424679*T;                               1200 N 91Din !
$
 PAR  G(GAS,AS),,                       +AS1G+RTLNP;,,                N 00SUB !
 PAR  G(GAS,AS2),,                      +AS2G+RTLNP;,,                N 00SUB !
 PAR  G(GAS,AS4),,                      +AS4G+RTLNP;,,                N 00SUB !
$
 FUNCTION GHSERAS   298.15  -7270.447+122.211069*T-23.3144*T*LN(T)
       -0.00271613*T**2+11600*T**(-1);
      1090.00  Y  -10454.913+163.457433*T-29.216037*T*LN(T);
      1200.00  N !
 FUNCTION GLIQAS    298.15  +GHSERAS+24442.9-22.424679*T;              6000 N !
 FUNCTION GHCPAS    298.15  +GHSERAS+24874-14*T;                       6000 N !
 FUNCTION AS1G      298.15  +272027.85-32.2533338*T-21.21551*T*LN(T)
       +4.3891495E-04*T**2-7.393995E-08*T**3+9666.555*T**(-1);
      1800.00  Y  +293094.184-133.732322*T-8.281945*T*LN(T)
       -0.002703715*T**2+3.43112833E-08*T**3-6025190*T**(-1);
      3700.00  Y  +260892.566-76.0337618*T-14.46743*T*LN(T)
       -0.002830183*T**2+8.062755E-08*T**3+16685580*T**(-1);
      6400.00  Y  -42687.3967+565.669048*T-87.99118*T*LN(T)
       +0.005136275*T**2-8.21615833E-08*T**3+2.534398E+08*T**(-1);
     60000.00  N !
 FUNCTION AS2G      298.15  +179351.548+10.5519715*T-37.35966*T*LN(T)
       -5.61806E-05*T**2-2.13098E-08*T**3+104881.15*T**(-1);
      2200.00  Y  +190396.109-11.4088459*T-35.19088*T*LN(T)
       +8.55731E-04*T**2-1.59161083E-07*T**3-5169920*T**(-1);
      4500.00  Y  +461366.155-824.888486*T+62.44495*T*LN(T)
       -0.014841615*T**2+3.152775E-07*T**3-1.469506E+08*T**(-1);
      6000.00  N !
 FUNCTION AS4G      298.15  +129731.745+230.754352*T-83.04465*T*LN(T)
       -2.5148475E-05*T**2+1.00444733E-09*T**3+252728.45*T**(-1);   
      6000.00  N !
$ ------------------------------------------------------------------------------
$ Ga
$
$ DIAMOND_A4 added in unary 5.0
$
$ Changed name from ORTHORHOMBIC_GA to ORTHORHOMBIC_A11
$
 PAR  G(ORTHORHOMBIC_A11,GA)    200.00  +GHSERGA;                4000 N 91Din !
 PAR  G(FCC_A1,GA:VA)           200.00  +GHSERGA+3800-10.2*T;    4000 N 91Din !
 PAR  G(BCC_A2,GA:VA)           200.00  +GHSERGA+4500-11.7*T;    4000 N 91Din !
 PAR  G(HCP_A3,GA:VA)           200.00  +GHSERGA+4500-9.5*T;     4000 N 91Din !
$PAR  G(DIAMOND_A4,GA)          200.00  +GHSERGA+20900-2*T;      4000 N 09SGUN !
$PAR  G(BCT_A5,GA)              200.00  +GHSERGA+3846-9.8*T;     4000 N 91Din !
$PAR  G(TETRAGONAL_A6,GA)       200.00  +GHSERGA+3500-10*T;      4000 N 91Din !
 PAR  G(LIQUID,GA)              200.00  +GLIQGA;                 4000 N 91Din !
$
 PAR  G(GAS,GA),,                       +F10135T+RTLNP;,,             N 97SUB !
 PAR  G(GAS,GA2),,                      +F10197T+RTLNP;,,             N 97SUB !
$
 FUNCTION GHSERGA   200.00  -21312.331+585.263691*T-108.228783*T*LN(T)
       +0.227155636*T**2-1.18575257E-04*T**3+439954*T**(-1);
       302.91  Y  -7055.643+132.73019*T-26.0692906*T*LN(T)
       +1.506E-04*T**2-4.0173E-08*T**3-118332*T**(-1)+1.64547E+23*T**(-9);
      4000.00  N !
 FUNCTION GLIQGA    200.00  +5491.298-18.073995*T+GHSERGA-7.0171E-17*T**7;
       302.91  Y  +5666.455-18.681147*T+GHSERGA-1.64547E+23*T**(-9);
      4000.00  N !
$ Ga(g)
 FUNCTION F10135T   298.15  +259072.278+88.0130706*T-38.71057*T*LN(T)
       +0.01053784*T**2-9.86907833E-07*T**3+338489.2*T**(-1);
       600.00  Y  +263812.519+33.4871435*T-30.75007*T*LN(T)
       +0.00537745*T**2-5.46534E-07*T**3-150942.65*T**(-1);
      1400.00  Y  +270292.501-28.1810494*T-21.9834*T*LN(T)
       +3.192416E-04*T**2-1.46299133E-08*T**3-992093*T**(-1);
      6000.00  Y  +340110.007-140.262257*T-9.704267*T*LN(T)
       -4.5138725E-04*T**2-1.13427367E-08*T**3-68387950*T**(-1);
     10000.00  N !
$ Ga2(g)
 FUNCTION F10197T   298.15  +422882.385-36.0787973*T-33.72863*T*LN(T)
       -0.009368525*T**2+7.62775167E-07*T**3-19520.385*T**(-1);
      1100.00  Y  +419324.178+8.33965897*T-40.33555*T*LN(T)
       -0.0041854135*T**2+2.679565E-08*T**3+312119.6*T**(-1);
      2500.00  N !
$ ------------------------------------------------------------------------------
$ Binary system
$
$ From C. Chatillon et al. 1990 (included in LB Vol. 1)
$
$ C. Chatillon, I. Ansara, A. Watson, B.B. Argent, Calphad, 14, 203-14(1990).
$
$ Checked against LB and paper. Checked at 6000 K.
$
 PAR  L(LIQUID,AS,GA;0),,               -25503.6-4.3109*T;,,          N 90Cha !
 PAR  L(LIQUID,AS,GA;1),,               -5174.7;,,                    N 90Cha !
$
 PAR  G(ZINCBLENDE_B3,GA:AS),,          +2*GB3GAAS;,,                 N 90Cha !
$
 PAR  G(GAS,GAAS),,                     +AS1GA1G+RTLNP;,,             N 00SUB !
$
 FUNCTION GB3GAAS   298.15  -52176+132.71628*T-24.340629*T*LN(T)
       -5.579E-04*T**2+63835*T**(-1)-3.5689E-07*T**3;
      6000.00  N !
$ GaAs (g)
 FUNCTION AS1GA1G   298.15  +351178.641-7.5681515*T-37.37525*T*LN(T)
       -1.94556E-05*T**2+1.63943067E-09*T**3+41187.295*T**(-1);
      2500.00  N !
$ ------------------------------------------------------------------------------
$
 ASSESSED_SYSTEM
  AS-GA(TDB -* +GAS +LIQ +ORTHO_A11 +RHOMB_A7 +ZINCB_B3
  ;P3 TMM:200/1600  DOR:GAS STP:.3/1000/1 STP:.7/300/1) !
$
$
 LIST-OF-REFERENCE
 NUMBER  SOURCE
  Null   'Unknown source'
  Same   'Same or similar interaction as in the corresponding stable phase'
  REFLAV 'Laves phase convention: G(LAVES,X:X)=+3*GHSERXX+15000'
  COST   'COST 507 database, 1998'
  90Cha  'C. Chatillon, I. Ansara, A. Watson, B.B. Argent,
          Calphad, 14, 203-14(1990); Ga-As'
  91Din  'A.T. Dinsdale, Calphad, 15, 317-425(1991).'
  97SUB  'SGTE substance database, version 1997'
  00SUB  'SGTE substance database, version 2000'
  01SGUN 'SGTE unary database V.4.4, 2001.'
  09SGUN 'SGTE unary database V.5.0, 2009.'
!
