$
$ Database for Bi-Ce from J. Li et al. 2012
$
$ J. Li, Y. Cai, Q. Chen, H. Zhang, H.S. Liu, Z.P. Jin,
$ Calphad, 38, 133-39(2012).
$
$ Dataset created 2016.09.23 by Bengt Hallstedt.
$ 2020.12.25: Modified for use with GES6.
$ 2023.02.24: Unary Bi changed from V4.4 to V5.0.
$
$ Changing from fractional to integar compositions results in large errors
$ in the peritectic temperatures for BI2CE and BICE2. The parameters of
$ of these phases were adjusted. Other invariant equilibria are less than 6 K
$ different.
$
$ There is an inverse miscibility gap with a minimum at 4934 K and x(Ce)=0.12.
$
$ The fcc interaction is not reasonable.
$
$ The compositions for liquid fcc and bcc given in the table of invariant
$ equilibria in the paper are incorrect.
$
$ ------------------------------------------------------------------------------
 TEMP-LIM 298.15 6000.00 !
$
$ELEMENT NAME  REF. STATE               ATOMIC MASS H298-H0    S298    !
$
 ELEMENT VA   VACUUM                      0.0          0.0      0.0    ! 
 ELEMENT BI   RHOMBOHEDRAL_A7           208.98      6426.6     56.735  !
 ELEMENT CE   FCC_A1                    140.12      7280.16    69.454  ! 
$ ------------------------------------------------------------------------------
$ Phase definitions
$
 PHASE LIQUID:L % 1 1 !
 CONST LIQUID:L : BI CE : !
$
$ Fcc (cF4, Fm-3m) and MeX (cF8, Fm-3m)
$
 PHASE FCC_A1 %A 2 1 1 !
 CONST FCC_A1 : BI CE% : VA : !
$
$ Bcc (cI2, Im-3m)
$
 PHASE BCC_A2 %B 2 1 3 !
 CONST BCC_A2 : BI CE% : VA : !
$
$ Hcp (hP2, P6_3/mmc) and Me2X (NiAs-type, hP4, P6_3/mmc, B8_1)
$
 PHASE HCP_A3 %A 2 1 0.5 !
 CONST HCP_A3 : BI CE : VA: !
$
$ Prototype alpha-As (hR2, R-3m)
$
 PHASE RHOMBOHEDRAL_A7 % 1 1 !
 CONST RHOMBOHEDRAL_A7 : BI : !
$
$ Pearson aP*
$
 PHASE BI2CE % 2 2 1 !
 CONST BI2CE : BI : CE : !
$
$ Prototype NaCl (cF8, Fm-3m)
$
 PHASE BICE_B1 % 2 1 1 !
 CONST BICE_B1 : BI : CE : !
$
$ Prototype Th3P4 (cI28, I-43d)
$
 PHASE BI3CE4_D73 % 2 3 4 !
 CONST BI3CE4_D73 : BI : CE : !
$
$ Prototype Mn5Si3 (hP16, P6_3/mcm)
$
 PHASE BI3CE5_D88 % 2 3 5 !
 CONST BI3CE5_D88 : BI : CE : !
$
$ Prototype La2Sb (tI12, I4/mmm)
$
 PHASE BICE2 % 2 1 2 !
 CONST BICE2 : BI : CE : !
$ ------------------------------------------------------------------------------
$ Defaults
$
 DEFINE-SYSTEM-DEFAULT ELEMENT 2 !
 DEFAULT-COM DEFINE_SYSTEM_ELEMENT VA !
 TYPE-DEF % SEQ * !
 TYPE-DEF A GES AMEND_PHASE_DESCRIPTION @ MAGNETIC -3 0.28 !
 TYPE-DEF B GES AMEND_PHASE_DESCRIPTION @ MAGNETIC -1 0.4 !
 FUNCTION ZERO      298.15  0;                                         6000 N !
 FUNCTION UN_ASS    298.15  0;                                         6000 N !
 FUNCTION R         298.15  +8.31451;                                  6000 N !
$ ------------------------------------------------------------------------------
$ Element data
$ ------------------------------------------------------------------------------
$ Bi
$
$ RHOMBOHEDRAL_A7 and LIQUID modified in unary 5.0
$ DIAMOND_A4 added in unary 5.0
$
$ DHCP is not included in unary
$ BCT_A5 from 96Lee not included in unary
$
 PAR  G(RHOMBOHEDRAL_A7,BI),,           +GHSERBI;                3000 N 09SGUN !
 PAR  G(FCC_A1,BI:VA),,                 +GHSERBI+9900-12.5*T;    3000 N 91Din !
 PAR  G(BCC_A2,BI:VA),,                 +GHSERBI+11297-13.9*T;   3000 N 91Din !
 PAR  G(HCP_A3,BI:VA),,                 +GHSERBI+9900-11.8*T;    3000 N 91Din !
$PAR  G(DHCP,BI),,                      +GHSERBI+5000;           3000 N 10Wan !
$PAR  G(DIAMOND_A4,BI),,                +GHSERBI
$            +11296.8+9.253655*T;                                3000 N 88Che2 !
$PAR  G(BCT_A5,BI),,                    +GHSERBI+4184.07;        3000 N 91Din !
$PAR  G(BCT_A5,BI),,                    +GHSERBI+13526.3;        3000 N 96Lee !
$PAR  G(TETRAGONAL_A6,BI),,             +GHSERBI+4184.07;        3000 N 91Din !
$PAR  G(TET_ALPHA1_A6,BI),,             +GHSERBI+4234;           3000 N 91Din !
 PAR  G(LIQUID,BI),,                    +GLIQBI;                 3000 N 09SGUN !
$
 FUNCTION GHSERBI   298.15  -7817.776+128.418925*T-28.4096529*T*LN(T)
       +0.012338888*T**2-8.381598E-6*T**3;
       544.55  Y  +29293.369-379.605174*T+49.678*T*LN(T)
       -0.0730245*T**2+1.3052833E-5*T**3-3544705*T**(-1)+1.66309E+25*T**(-9);
       800.00  Y  -11085.609+182.955328*T-36.041*T*LN(T)
       +7.4641E-3*T**2-1.05047E-6*T**3+5175*T**(-1)+1.66309E+25*T**(-9);
      1200.00  Y  -7580.864+124.770814*T-27.196*T*LN(T)+1.66309E+25*T**(-9);
      3000.00  N !
 FUNCTION GLIQBI    298.15  +11246.017-20.636399*T+GHSERBI-5.9608E-19*T**7;
       544.55  Y  +40629.667-400.415652*T+49.678*T*LN(T)
       -0.0730245*T**2+1.3052833E-5*T**3-3544705*T**(-1);
       800.00  Y  +250.689+162.14485*T-36.041*T*LN(T)
       +0.0074641*T**2-1.05047E-6*T**3+5175*T**(-1);
      1200.00  Y  +3755.434+103.960336*T-27.196*T*LN(T);
      3000.00 N !
$ ------------------------------------------------------------------------------
$ Ce
$
$ HCP_A3 and DHCP added in unary 3.0
$ HCP_A3 and DHCP revised in unary 4.4
$
 PAR  G(FCC_A1,CE:VA),,                 +GHSERCE;                4000 N 91Din !
 PAR  G(BCC_A2,CE:VA),,                 +GBCCCE;                 4000 N 91Din !
 PAR  G(HCP_A3,CE:VA),,                 +GHSERCE+300;            4000 N Frank !
$PAR  G(HCP_A3,CE:VA),,                 +GHSERCE+50000;          4000 N 96SGUN !
$PAR  G(DHCP,CE:VA),,                   +GHSERCE
$            -122.539+0.433*T;                                   4000 N 99Gsc !
$PAR  G(DHCP,CE),,                      +GHSERCE-190+0.56886*T;  4000 N 96SGUN !
 PAR  G(LIQUID,CE),,                    +GLIQCE;                 4000 N 91Din !
$
 FUNCTION GHSERCE   298.15  -7160.519+84.23022*T-22.3664*T*LN(T)
       -0.0067103*T**2-3.20773E-07*T**3-18117*T**(-1);
      1000.00  Y  -79678.506+659.4604*T-101.32248*T*LN(T)
       +0.026046487*T**2-1.930297E-06*T**3+11531707*T**(-1);
      2000.00  Y  -14198.639+190.370192*T-37.6978*T*LN(T);
      4000.00  N !
 FUNCTION GBCCCE    298.15  -1354.69-5.21501*T-7.7305867*T*LN(T)
       -0.029098402*T**2+4.784299E-06*T**3-196303*T**(-1);
      1000.00  Y  -12101.106+187.449688*T-37.6142*T*LN(T);
      1072.00  Y  -11950.375+186.333811*T-37.4627992*T*LN(T)
       -5.7145E-05*T**2+2.348E-09*T**3-25897*T**(-1);
      4000.00  N !
 FUNCTION GLIQCE    298.15  +4117.865-11.423898*T-7.5383948*T*LN(T)
       -0.02936407*T**2+4.827734E-06*T**3-198834*T**(-1);
      1000.00  Y  -6730.605+183.023193*T-37.6978*T*LN(T);
      4000.00  N !
$ ------------------------------------------------------------------------------
$ Binary system
$
$ J. Li, Y. Cai, Q. Chen, H. Zhang, H.S. Liu, Z.P. Jin,
$ Calphad, 38, 133-39(2012).
$
$ Checked against paper. Checked at 6000 K.
$
$ Changing from fractional to integar compositions results in large errors
$ in the peritectic temperatures for BI2CE and BICE2. The parameters of
$ of these phases were adjusted. Other invariant equilibria are less than 6 K
$ different.
$
$ There is an inverse miscibility gap with a minimum at 4934 K and x(Ce)=0.12.
$
$ The fcc interaction is not reasonable.
$
$ The compositions for liquid fcc and bcc given in the table of invariant
$ equilibria in the paper are incorrect.
$
 PAR  L(LIQUID,BI,CE;0),,               -249267.26+29.87*T
             +0.198*T*LN(T);,,                                        N 12Li !
 PAR  L(LIQUID,BI,CE;1),,               -18760.41+18.97*T;,,          N 12Li !
 PAR  L(LIQUID,BI,CE;2),,               +47458.51;,,                  N 12Li !
$
 PAR  L(FCC_A1,BI,CE:VA;0),,            +100000;,,                    N 12Li !
 PAR  L(BCC_A2,BI,CE:VA;0),,            -182333.46+5.65*T;,,          N 12Li !
$
$ Original parameter below
$PAR  G(BI2CE,BI:CE),,                  +2*GHSERBI+GHSERCE
$            -245414.61+42.54*T;,,                                    N 12Li !
 PAR  G(BI2CE,BI:CE),,                  +2*GHSERBI+GHSERCE
             -246810+42.54*T;,,                                       N 12Li !
 PAR  G(BICE_B1,BI:CE),,                +GHSERBI+GHSERCE
             -221082.68+36.38*T;,,                                    N 12Li !
 PAR  G(BI3CE4_D73,BI:CE),,             +3*GHSERBI+4*GHSERCE
             -702236.08+88.97*T;,,                                    N 12Li !
 PAR  G(BI3CE5_D88,BI:CE),,             +3*GHSERBI+5*GHSERCE
             -734186.64+98.24*T;,,                                    N 12Li !
$ Original parameter below
$PAR  G(BICE2,BI:CE),,                  +GHSERBI+2*GHSERCE
$            -245458.83+32.07*T;,,                                    N 12Li !
 PAR  G(BICE2,BI:CE),,                  +GHSERBI+2*GHSERCE
             -247124+32.07*T;,,                                       N 12Li !
$
$ Metastable
$
 PAR  L(HCP_A3,BI,CE:VA;0),,            -182333.46+5.65*T;,,          N Same !
$ ------------------------------------------------------------------------------
$
$
 LIST-OF-REFERENCE
 NUMBER  SOURCE
  Null   'Unknown source'
  Same   'Same or similar interaction as in the corresponding stable phase'
  COST   'COST 507 database'
  Frank  'Peter Franke, unpublished, SGTE unary database V.4.4, 2001; Ce'
  88Che2 'P.-Y. Chevalier, Thermochim. Acta, 132, 111-16(1988),
          SGTE unary database V.5.0, 2009; Bi' 
  91Din  'A.T. Dinsdale, Calphad, 15, 317-425(1991).'
  96Lee  'B.-J. Lee, Calphad, 20, 471-80(1996); Bi'
  96SGUN 'SGTE unary database V.3.0, 1996.'
  99Gsc  'K.A. Gschneidner, Jr., V.K. Pecharsky, J. Phase Equilib.,
          20, 612-14(1999), SGTE unary database V.4.4, 2001; Ce'
  09SGUN 'SGTE unary database V.5.0, 2009.'
  10Wan  'C.P. Wang, H.L. Zhang, A.T. Tang, F.S. Pan, X.J. Liu,
          J. Alloys Compd., 502, 43-48(2010); Bi'
  12Li   'J. Li, Y. Cai, Q. Chen, H. Zhang, H.S. Liu, Z.P. Jin,
          Calphad, 38, 133-39(2012); Bi-Ce'
!
