$
$ Database for Pd-Rh from J. Korb 2004 (included in LB Vol. 5)
$
$ J. Korb, unpublished, 2004.
$
$ Dataset created 2016.03.13 by Bengt Hallstedt.
$ 2021.02.03: Modified for use with GES6.
$
$ ------------------------------------------------------------------------------
 TEMP-LIM 298.15 6000.00 !
$
$ELEMENT NAME  REF. STATE               ATOMIC MASS H298-H0    S298    !
$
 ELEMENT VA   VACUUM                      0.0          0.0      0.0    ! 
 ELEMENT PD   FCC_A1                    106.42      5468.488   37.8234 ! 
 ELEMENT RH   FCC_A1                    102.9055    4920.384   31.5557 ! 
$ ------------------------------------------------------------------------------
$ Phase definitions
$
 PHASE LIQUID:L % 1 1 !
 CONST LIQUID:L : PD RH : !
$
$ Fcc (cF4, Fm-3m) and MeX (cF8, Fm-3m)
$
 PHASE FCC_A1 %A 2 1 1 !
 CONST FCC_A1 : PD RH : VA : !
$
$ Bcc (cI2, Im-3m)
$
 PHASE BCC_A2 %B 2 1 3 !
 CONST BCC_A2 : PD RH : VA : !
$
$ Hcp (hP2, P6_3/mmc) and Me2X (NiAs-type, hP4, P6_3/mmc, B8_1)
$
 PHASE HCP_A3 %A 2 1 0.5 !
 CONST HCP_A3 : PD RH : VA : !
$ ------------------------------------------------------------------------------
$ Defaults
$
 DEFINE-SYSTEM-DEFAULT ELEMENT 2 !
 DEFAULT-COM DEFINE_SYSTEM_ELEMENT VA !
 TYPE-DEF % SEQ * !
 TYPE-DEF A GES AMEND_PHASE_DESCRIPTION @ MAGNETIC -3 0.28 !
 TYPE-DEF B GES AMEND_PHASE_DESCRIPTION @ MAGNETIC -1 0.4 !
 FUNCTION ZERO      298.15  0;                                         6000 N !
 FUNCTION UN_ASS    298.15  0;                                         6000 N !
 FUNCTION R         298.15  +8.31451;                                  6000 N !
$ ------------------------------------------------------------------------------
$ Element data
$ ------------------------------------------------------------------------------
$ Pd
$
$ RHOMBOHEDRAL_A7 added in unary 5.0
$
 PAR  G(FCC_A1,PD:VA),,                 +GHSERPD;                4000 N 91Din !
 PAR  G(BCC_A2,PD:VA),,                 +GHSERPD+10500-1.8*T;    4000 N 91Din !
 PAR  G(HCP_A3,PD:VA),,                 +GHSERPD+2000+0.1*T;     4000 N 91Din !
$PAR  G(RHOMBOHEDRAL_A7,PD),,           +GHSERPD+4000;           4000 N 06Vre !
 PAR  G(LIQUID,PD),,                    +GLIQPD;                 4000 N 91Din !
$
 FUNCTION GHSERPD   298.15  -10204.027+176.076315*T-32.211*T*LN(T)
       +0.007120975*T**2-1.919875E-06*T**3+168687*T**(-1);
       900.00  Y  +917.062+49.659892*T-13.5708*T*LN(T)
       -0.00717522*T**2+1.91115E-07*T**3-1112465*T**(-1);
      1828.00  Y  -67161.018+370.102147*T-54.2067086*T*LN(T)
       +0.002091396*T**2-6.2811E-08*T**3+18683526*T**(-1);
      4000.00  N !
 FUNCTION GLIQPD    298.15  +11506.758-5.112162*T+GHSERPD;
       600.00  Y  +23405.778-116.918419*T+10.8922031*T*LN(T)
       -0.027266568*T**2+2.430675E-06*T**3-1853674*T**(-1);
      1828.00  Y  -12373.637+251.416903*T-41.17*T*LN(T);
      4000.00  N !
$ ------------------------------------------------------------------------------
$ Rh
$
 PAR  G(FCC_A1,RH:VA),,                 +GHSERRH;                2500 N 91Din !
 PAR  G(BCC_A2,RH:VA),,                 +GHSERRH+19000-4.7*T;    2500 N 91Din !
 PAR  G(HCP_A3,RH:VA),,                 +GHSERRH+3000-0.5*T;     2500 N 91Din !
 PAR  G(LIQUID,RH),,                    +GLIQRH;                 2500 N 91Din !
$
 FUNCTION GHSERRH   298.15  -7848.828+132.020923*T-24.0178336*T*LN(T)
       -0.003424186*T**2-1.68032E-07*T**3+55846*T**(-1);
      1200.00  Y  -28367.852+305.771019*T-48.3766632*T*LN(T)
       +0.00966345*T**2-1.512774E-06*T**3+3348162*T**(-1);
      2237.00  Y  -6237470.48+30151.6342*T-3874.21058*T*LN(T)
       +1.04921361*T**2-5.3978814E-05*T**3+1.88036218E+09*T**(-1);
      2450.00  Y  -44863.489+344.889895*T-50.58456*T*LN(T);
      2500.00  N !
 FUNCTION GLIQRH    298.15  +19092.91-6.92133*T+GHSERRH;
       700.00  Y  +35898.508-147.926418*T+15.6492377*T*LN(T)
       -0.028665357*T**2+2.100572E-06*T**3-2638940*T**(-1);
      2237.00  Y  -18208.54+332.974832*T-50.58456*T*LN(T);
      2500.00  N !
$ ------------------------------------------------------------------------------
$ Binary system
$
$ From from J. Korb 2004 (included in LB Vol. 5)
$
$ J. Korb, unpublished, 2004.
$
$ Checked against LB. Checked at 6000 K.
$
 PAR  L(LIQUID,PD,RH;0),,               +17927.5;,,                   N 04Kor !
$
 PAR  L(FCC_A1,PD,RH:VA;0),,            +19484.2;,,                   N 04Kor !
 PAR  L(FCC_A1,PD,RH:VA;1),,            -604.872;,,                   N 04Kor !
$
$ Metastable
$
 PAR  L(BCC_A2,PD,RH:VA;0),,            +19484.2;,,                   N Same !
 PAR  L(BCC_A2,PD,RH:VA;1),,            -604.872;,,                   N Same !
$
 PAR  L(HCP_A3,PD,RH:VA;0),,            +19484.2;,,                   N Same !
 PAR  L(HCP_A3,PD,RH:VA;1),,            -604.872;,,                   N Same !
$ ------------------------------------------------------------------------------
$
 ASSESSED_SYSTEM
  PD-RH(TDB -* +LIQUID +FCC_A1 ;G5 C_S:FCC_A1/RH:VA MAJ:FCC_A1/PD:VA 
  ;P3 STP:.5/800/1 STP:.2/1900/1) !
$
$
 LIST-OF-REFERENCE
 NUMBER  SOURCE
  Null   'Unknown source'
  Same   'Same or similar interaction as in the corresponding stable phase'
  COST   'COST 507 database'
  91Din  'A.T. Dinsdale, Calphad, 15, 317-425(1991).'
  04Kor  'J. Korb, unpublished, 2004; Pd-Rh'
  06Vre  'J. Vrestal, J. Pinkas, A. Watson, A. Scott, J. Houserova, A. Kroupa,
          Calphad, 30, 14-17(2006), SGTE unary database V.5.0, 2009; Pd'
!
