$
$ Database for Cu-Sc from H. Bo et al. 2010.
$
$ H. Bo, L.B. Liu, Z.P. Jin, J. Alloys Compd., 490, 318-25(2010).
$
$ Dataset created 2019.07.26 by Bengt Hallstedt.
$ 2020.12.26: Modified for use with GES6.
$
$ There is a wide inverse miscibility gap with a minimum at 2778 K and
$ x(Sc)=0.48.
$
$ The CuSc-B2 parameter is misprinted in the paper.
$
$ The Sc-rich eutectic is 20 K too low.
$
$ ------------------------------------------------------------------------------
 TEMP-LIM 298.15 6000.00 !
$
$ELEMENT NAME  REF. STATE               ATOMIC MASS H298-H0    S298    !
$
 ELEMENT VA   VACUUM                      0.0          0.0      0.0    ! 
 ELEMENT CU   FCC_A1                     63.546     5004.0     33.15   !
 ELEMENT SC   HCP_A3                     44.9559    5217.448   34.6435 ! 
$ ------------------------------------------------------------------------------
$ Phase definitions
$
 PHASE LIQUID:L % 1 1 !
 CONST LIQUID:L : CU SC : !
$
$ Fcc (cF4, Fm-3m) and MeX (cF8, Fm-3m)
$
 PHASE FCC_A1 % 2 1 1 !
 CONST FCC_A1 : CU% SC : VA : !
$
$ Bcc (cI2, Im-3m)
$
 PHASE BCC_A2 % 2 1 3 !
 CONST BCC_A2 : CU SC% : VA : !
$
$ Hcp (hP2, P6_3/mmc) and Me2X (NiAs-type, hP4, P6_3/mmc, B8_1)
$
 PHASE HCP_A3 % 2 1 0.5 !
 CONST HCP_A3 : CU SC% : VA : !
$
$ Pearson tI* (Probably prototype MoNi4 (tI10, I4/m)), see Ag-Sc
$
 PHASE CU4SC_D1A % 2 4 1 !
 CONST CU4SC_D1A : CU : SC : !
$
$ Prototype MoSi2 (tI6, I4/mmm)
$
 PHASE CU2SC_C11B % 2 2 1 !
 CONST CU2SC_C11B : CU : SC : !
$
$ Prototype CsCl (cP2, Pm-3m)
$
 PHASE CUSC_B2 % 2 1 1 !
 CONST CUSC_B2 : CU : SC : !
$ ------------------------------------------------------------------------------
$ Defaults
$
 DEFINE-SYSTEM-DEFAULT ELEMENT 2 !
 DEFAULT-COM DEFINE_SYSTEM_ELEMENT VA !
 TYPE-DEF % SEQ * !
 FUNCTION ZERO      298.15  0;                                         6000 N !
 FUNCTION UN_ASS    298.15  0;                                         6000 N !
 FUNCTION R         298.15  +8.31451;                                  6000 N !
$ ------------------------------------------------------------------------------
$ Element data
$ ------------------------------------------------------------------------------
$ Cu
$
 PAR  G(FCC_A1,CU:VA),,                 +GHSERCU;                3200 N 91Din !
 PAR  G(BCC_A2,CU:VA),,                 +GHSERCU+4017-1.255*T;   3200 N 91Din !
 PAR  G(HCP_A3,CU:VA),,                 +GHSERCU+600+0.2*T;      3200 N 91Din !
 PAR  G(LIQUID,CU),,                    +GLIQCU;                 3200 N 91Din !
$
 FUNCTION GHSERCU   298.15  -7770.458+130.485235*T-24.112392*T*LN(T)
       -0.00265684*T**2+1.29223E-07*T**3+52478*T**(-1);
      1357.77  Y  -13542.026+183.803828*T-31.38*T*LN(T)+3.64167E+29*T**(-9);
      3200.00  N !
 FUNCTION GLIQCU    298.15  +12964.735-9.511904*T+GHSERCU-5.8489E-21*T**7;
      1357.77  Y  -46.545+173.881484*T-31.38*T*LN(T);
      3200.00  N !
$ ------------------------------------------------------------------------------
$ Sc
$
$ FCC_A1 and DHCP added in unary 4.4
$
 PAR  G(HCP_A3,SC:VA),,                 +GHSERSC;                3200 N 91Din !
 PAR  G(BCC_A2,SC:VA),,                 +GBCCSC;                 3200 N 91Din !
 PAR  G(FCC_A1,SC:VA),,                 +GHSERSC+5000;           3200 N 99Cac !
$PAR  G(DHCP,SC),,                      +GHSERSC
$            +1200+0.4157255*T;                                  3200 N 00Nor2 !
 PAR  G(LIQUID,SC),,                    +GLIQSC;                 3200 N 91Din !
$
 FUNCTION GHSERSC   298.15  -8689.547+153.48097*T-28.1882*T*LN(T)
       +0.00321892*T**2-1.64531E-06*T**3+72177*T**(-1);
       800.00  Y  -7511.295+132.759582*T-24.9132*T*LN(T)
       -5.73295E-04*T**2-8.59345E-07*T**3;
      1608.00  Y  +261143.04-1817.92245*T+241.441051*T*LN(T)
       -0.117529396*T**2+8.7398E-06*T**3-50607159*T**(-1);
      2000.00  Y  -30515.246+286.474338*T-44.2249*T*LN(T);
      3200.00  N !
 FUNCTION GBCCSC    298.15  +1979.728-1.024135*T+GHSERSC;
      1000.00  Y  +230161.408-2004.05469*T+276.76664*T*LN(T)
       -0.167120107*T**2+1.5637371E-05*T**3-33783257*T**(-1);
      1608.00  Y  -25928.011+283.642312*T-44.2249*T*LN(T);
      2000.00  Y  +4587.235-2.832026*T+GHSERSC;
      3200.00  N !
 FUNCTION GLIQSC    298.15  +6478.66+45.427539*T-10.7967803*T*LN(T)
       -0.020636524*T**2+2.13106E-06*T**3-158106*T**(-1);
      1608.00  Y  -11832.111+275.871695*T-44.2249*T*LN(T);
      3200.00  N !
$ ------------------------------------------------------------------------------
$ Binary system
$
$ H. Bo, L.B. Liu, Z.P. Jin, J. Alloys Compd., 490, 318-25(2010).
$
$ Checked against paper. Checked at 6000 K.
$
$ There is a wide inverse miscibility gap with a minimum at 2778 K and
$ x(Sc)=0.48.
$
$ The CuSc-B2 parameter is misprinted in the paper.
$
$ The Sc-rich eutectic is 20 K too low.
$
 PAR  L(LIQUID,CU,SC;0),,               -96000+45.799*T;,,            N 10Bo !
 PAR  L(LIQUID,CU,SC;1),,               -12417+5.869*T;,,             N 10Bo !
 PAR  L(LIQUID,CU,SC;2),,               +12271-9.715*T;,,             N 10Bo !
$
 PAR  L(FCC_A1,CU,SC:VA;0),,            -3890;,,                      N 10Bo !
 PAR  L(BCC_A2,CU,SC:VA;0),,            +6001;,,                      N 10Bo !
 PAR  L(HCP_A3,CU,SC:VA;0),,            +14500-3*T;,,                 N 10Bo !
$
 PAR  G(CU4SC_D1A,CU:SC),,              +4*GHSERCU+GHSERSC
             -64156+13*T;,,                                           N 10Bo !
 PAR  G(CU2SC_C11B,CU:SC),,             +2*GHSERCU+GHSERSC
             -58500+17*T;,,                                           N 10Bo !
 PAR  G(CUSC_B2,CU:SC),,                +GHSERCU+GHSERSC
             -44705+11.35*T;,,                                        N 10Bo !
$ ------------------------------------------------------------------------------
$
$
 LIST-OF-REFERENCE
 NUMBER  SOURCE
  Null   'Unknown source'
  Same   'Same or similar interaction as in the corresponding stable phase'
  COST   'COST 507 database'
  91Din  'A.T. Dinsdale, Calphad, 15, 317-425(1991).'
  99Cac  'G. Cacciamani, P. Riani, G. Borzone, N. Parodi, A. Saccone, R. Ferro,
          A. Pisch, R. Schmid-Fetzer, Intermetallics, 7, 101-8(1999)
          SGTE unary database V.4.4, 2001; Sc'
  00Nor2 'S. Norgren, PhD Thesis, KTH, Stockholm, 2000,
          SGTE unary database V.4.4, 2001; Nd, Sc'
  10Bo   'H. Bo, L.B. Liu, Z.P. Jin, J. Alloys Compd., 490, 318-25(2010); Cu-Sc'
!
