$
$ Database for Ni-O from M. Kowalski and P.J. Spencer 1995
$
$ M. Kowalski, P.J. Spencer, Calphad, 19, 229-43(1995).
$
$ Dataset created 2010.02.15 by Bengt Hallstedt.
$ 2021.02.02: Modified for use with GES6.
$ 2023.11.21: Changed phase name HALITE_B1 to OXIDE_B1.
$
$ ------------------------------------------------------------------------------
 TEMP-LIM 298.15 6000.00 !
$
$ELEMENT NAME  REF. STATE               ATOMIC MASS H298-H0    S298    !
$
 ELEMENT /-   ELECTRON_GAS                0.0          0.0      0.0    ! 
 ELEMENT VA   VACUUM                      0.0          0.0      0.0    ! 
 ELEMENT NI   FCC_A1                     58.69      4787.0     29.7955 ! 
 ELEMENT O    1/2_MOLE_O2(G)             15.999     4341.0    102.52   ! 
$ ------------------------------------------------------------------------------
$ Species
$
 SPECIE  NI+2                               NI1/+2 !
 SPECIE  NI+3                               NI1/+3 !
 SPECIE  NI2                                NI2 !
 SPECIE  NIO                                NI1O1 !
 SPECIE  O-2                                O/-2 !
 SPECIE  O2                                 O2 !
 SPECIE  O3                                 O3 !
$ ------------------------------------------------------------------------------
$ Phase definitions
$
 PHASE ION:Y % 2 1 1 !
 CONST ION:Y : NI+2 : O-2 VA : !
$
 PHASE LIQUID:L % 1 1 !
 CONST LIQUID:L : NI NIO : !
$
$ Fcc (cF4, Fm-3m) and MeX (cF8, Fm-3m)
$
 PHASE FCC_A1 %A 2 1 1 !
 CONST FCC_A1 : NI : O VA% : !
$
$ Bcc (cI2, Im-3m)
$
 PHASE BCC_A2 %B 2 1 3 !
 CONST BCC_A2 : NI : O VA% : !
$
$ Hcp (hP2, P6_3/mmc) and Me2X (NiAs-type, hP4, P6_3/mmc, B8_1)
$
 PHASE HCP_A3 %A 2 1 0.5 !
 CONST HCP_A3 : NI : VA : !
$
$ Prototype NaCl (cF8, Fm-3m)
$
 PHASE OXIDE_B1:I %C 2 1 1 !
 CONST OXIDE_B1:I : NI+2% NI+3 VA : O-2 : !
$
 PHASE GAS:G % 1 1 !
 CONST GAS:G : NI NI2 NIO O O2% O3 : !
$
 PHASE O2GAS % 1 1 !
 CONST O2GAS : O2 : !
$ ------------------------------------------------------------------------------
$ Defaults
$
 DEFINE-SYSTEM-DEFAULT ELEMENT 2 !
 DEFAULT-COM DEFINE_SYSTEM_ELEMENT VA /- !
 DEFAULT-COM REJECT_PHASE ION !
 TYPE-DEF % SEQ * !
 TYPE-DEF A GES AMEND_PHASE_DESCRIPTION @ MAGNETIC -3 0.28 !
 TYPE-DEF B GES AMEND_PHASE_DESCRIPTION @ MAGNETIC -1 0.4 !
 TYPE-DEF C GES AMEND_PHASE_DESCRIPTION @ MAGNETIC -1 0.3 !
 FUNCTION ZERO      298.15  0;                                         6000 N !
 FUNCTION UN_ASS    298.15  0;                                         6000 N !
 FUNCTION R         298.15  +8.31451;                                  6000 N !
 FUNCTION RTLNP     298.15  +8.31451*T*LN(1E-05*P);                    6000 N !
$ ------------------------------------------------------------------------------
$ Element data
$ ------------------------------------------------------------------------------
$ Ni
$
$ FCC_A1 and LIQUID modified in unary 5.0 (slight change in upper T interval)
$ BCT_A5 added in unary 5.0
$
 PAR  G(FCC_A1,NI:VA),,                 +GHSERNI;                3000 N 91Din !
 PAR  TC(FCC_A1,NI:VA),,                  633.00;                3000 N 91Din !
 PAR  BM(FCC_A1,NI:VA),,                    0.52;                3000 N 91Din !
 PAR  G(BCC_A2,NI:VA),,                 +GHSERNI
             +8715.084-3.556*T;                                  3000 N 91Din !
 PAR  TC(BCC_A2,NI:VA),,                  575.00;                3000 N 91Din !
 PAR  BM(BCC_A2,NI:VA),,                    0.85;                3000 N 91Din !
 PAR  G(HCP_A3,NI:VA),,                 +GHSERNI+1046+1.255*T;   3000 N 91Din !
 PAR  TC(HCP_A3,NI:VA),,                  633.00;                3000 N 91Din !
 PAR  BM(HCP_A3,NI:VA),,                    0.52;                3000 N 91Din !
$PAR  G(BCT_A5,NI),,                    +GHSERNI+10023-4.556*T;  3000 N 99Gho !
$PAR  G(CBCC_A12,NI:VA),,               +GHSERNI+3556;           3000 N 91Din !
$PAR  G(CUB_A13,NI:VA),,                +GHSERNI+2092;           3000 N 91Din !
 PAR  G(LIQUID,NI),,                    +GLIQNI;                 3000 N 91Din !
$
 PAR  G(ION,NI+2:VA),,                  +GLIQNI;,,                    N 91Din !
$
 PAR  G(GAS,NI),,                       +F13191T+RTLNP;,,             N 97SUB !
 PAR  G(GAS,NI2),,                      +F13265T+RTLNP;,,             N 97SUB !
$
 FUNCTION GHSERNI   298.15  -5179.159+117.854*T-22.096*T*LN(T)-0.0048407*T**2;
      1728.00  Y  -27840.62+279.134977*T-43.1*T*LN(T)+1.12754E+31*T**(-9);
      3000.00  N !
 FUNCTION GLIQNI    298.15  +16414.686-9.397*T+GHSERNI-3.82318E-21*T**7;
      1728.00  Y  -9549.817+268.597977*T-43.1*T*LN(T);
      3000.00  N !
 FUNCTION GBCCNI    298.15  +GHSERNI+8715.084-3.556*T;                 6000 N !
$ Ni(g)
 FUNCTION F13191T   298.15  +417658.868-44.7777921*T-20.056*T*LN(T)
       -0.0060415*T**2+1.24774E-06*T**3-16320*T**(-1);
       800.00  Y  +413885.448+9.41787679*T-28.332*T*LN(T)
       +0.00173115*T**2-8.399E-08*T**3+289050*T**(-1);
      3900.00  Y  +440866.732-62.5810038*T-19.819*T*LN(T)
       +5.067E-04*T**2-4.93233333E-08*T**3-15879735*T**(-1);
      7600.00  Y  +848806.287-813.398164*T+64.69*T*LN(T)
       -0.00731865*T**2+8.71833333E-08*T**3-3.875846E+08*T**(-1);
     10000.00  N !
$ Ni2(g)
 FUNCTION F13265T   298.15  +638073.279-68.1901928*T-24.897*T*LN(T)
       -0.0313584*T**2+5.93355333E-06*T**3-14215*T**(-1);
       800.00  Y  +611401.772+268.084821*T-75.25401*T*LN(T)
       +0.01088525*T**2-7.08741667E-07*T**3+2633835*T**(-1);
      2100.00  Y  +637459.339+72.0712678*T-48.587*T*LN(T)
       -9.09E-05*T**2+9.12933333E-08*T**3-1191755*T**(-1);
      4500.00  Y  +564540.781+329.599011*T-80.11301*T*LN(T)
       +0.00578085*T**2-1.08841667E-07*T**3+29137900*T**(-1);
      6000.00  N !
$ ------------------------------------------------------------------------------
$ O
$
$ GHSEROO modified in unary 3.0
$
 PAR  G(O2GAS,O2),,                     +2*GHSEROO+RTLNP;,,           N 91Din !
$
 PAR  G(GAS,O),,                        +O1G+RTLNP;,,                 N 00SUB !
 PAR  G(GAS,O2),,                       +2*GHSEROO+RTLNP;,,           N 91Din !
 PAR  G(GAS,O3),,                       +O3G+RTLNP;,,                 N 00SUB !
$
 PAR  G(OXIDE_B1,VA:O-2),,              +ZERO;,,                      N 91Sun !
$
 FUNCTION GSOLOO    298.15  +GHSEROO+65*T;                             6000 N !
$ 1/2 O2(g)
 FUNCTION GHSEROO   298.15  -3480.87-25.503038*T-11.1355*T*LN(T)
       -0.005098875*T**2+6.61845833E-07*T**3-38365*T**(-1);
      1000.00  Y  -6568.763+12.659879*T-16.8138*T*LN(T)
       -5.957975E-04*T**2+6.781E-09*T**3+262905*T**(-1);
      3300.00  Y  -13986.728+31.259624*T-18.9536*T*LN(T)
       -4.25243E-04*T**2+1.0721E-08*T**3+4383200*T**(-1);
      6000.00  N !
$ O(g)
 FUNCTION O1G       298.15  +243206.494-20.8612587*T-21.01555*T*LN(T)
       +1.2687055E-04*T**2-1.23131283E-08*T**3-42897.09*T**(-1);
      2950.00  Y  +252301.423-52.0847285*T-17.21188*T*LN(T)
       -5.413565E-04*T**2+7.64520667E-09*T**3-3973170.5*T**(-1);
      6000.00  N !
$ O3(g)
 FUNCTION O3G       298.15  +130696.944-37.9096651*T-27.58118*T*LN(T)
     -0.02763076*T**2+4.60539333E-06*T**3+99530.45*T**(-1);
     700.00  Y  +114760.623+176.626736*T-60.10286*T*LN(T)
     +0.00206456*T**2-5.17486667E-07*T**3+1572175*T**(-1);
    1300.00  Y  +49468.3958+710.094819*T-134.3696*T*LN(T)
     +0.039707355*T**2-4.10457667E-06*T**3+12362250*T**(-1);
    2100.00  Y  +866367.075-3566.80563*T+421.2001*T*LN(T)
     -0.1284109*T**2+5.44768833E-06*T**3-2.1304835E+08*T**(-1);
    2800.00  Y  +409416.384-1950.70834*T+223.4437*T*LN(T)
     -0.0922361*T**2+4.306855E-06*T**3-21589870*T**(-1);
    3500.00  Y  -1866338.6+6101.13383*T-764.8435*T*LN(T)
     +0.09852775*T**2-2.59784667E-06*T**3+9.610855E+08*T**(-1);
    4900.00  Y  +97590.0432+890.79836*T-149.9608*T*LN(T)
     +0.01283575*T**2-3.555105E-07*T**3-2.1699975E+08*T**(-1);
    6000.00  N !
$ ------------------------------------------------------------------------------
$ Binary system
$
$ M. Kowalski, P.J. Spencer, Calphad, 19, 229-43(1995).
$
$ Checked against 95Kow. Ionic liquid also checked. Magnetic definition for
$ HALITE checked with 90Tay.
$
 PAR  G(ION,NI+2:O-2),,                 +2*GNIO+108784-48.826*T;,,    N 95Kow !
 PAR  L(ION,NI+2:O-2,VA;0),,            +331065.2-127.4650*T;,,       N 95Kow !
$
 PAR  G(LIQUID,NIO),,                   +GNIO+54392-24.413*T;,,       N 95Kow !
 PAR  L(LIQUID,NI,NIO;0),,              +165532.6-63.7325*T;,,        N 95Kow !
$
 PAR  G(FCC_A1,NI:O),,                  +GHSERNI+GSOLOO;,,            N 95Kow !
 PAR  L(FCC_A1,NI:O,VA;0),,             -165608+32.24*T;,,            N 95Kow !
$
 PAR  G(BCC_A2,NI:O),,                  +GBCCNI+3*GSOLOO;,,           N Null !
 PAR  L(BCC_A2,NI:O,VA;0),,             -400000+50*T;            3000 N Null !
$
 PAR  G(OXIDE_B1,NI+2:O-2;0),,          +GNIO;                   3000 N 90Tay !
 PAR  TC(OXIDE_B1,NI+2:O-2;0),,          +519;                   3000 N 90Tay !
 PAR  BM(OXIDE_B1,NI+2:O-2;0),,            +0.9873;              3000 N 90Tay !
 PAR  G(OXIDE_B1,NI+3:O-2;0),,           +GNIO
             +132919.5-64.8855*T;                                3000 N 90Tay !
 PAR  TC(OXIDE_B1,NI+3:O-2;0),,          +519;                   3000 N 90Tay !
 PAR  BM(OXIDE_B1,NI+3:O-2;0),,            +0.9873;              3000 N 90Tay !
$
 PAR  G(GAS,NIO),,                      +F13213T+RTLNP;,,             N 97SUB !
$
 FUNCTION GNIO      298.15  -254927.2+276.208*T-46.0391*T*LN(T)
       -9.31454E-3*T**2+1.29092E-6*T**3+382916*T**(-1);
      1000.00  Y  -256835.2+340.043*T-56.36068*T*LN(T)
       +2.54106E-3*T**2-8.11809E-7*T**3+1270*T**(-1);
      1800.00  Y  -259131.4+337.305*T-55.75758*T*LN(T)
       +2.20246E-3*T**2-7.80093E-7*T**3;
      3000.00  N !
$ NiO(g)
 FUNCTION F13213T    2.98150E+02  +275156.638-9.16432523*T-32.674*T*LN(T)
       -0.00254775*T**2-1.31201667E-07*T**3+109000*T**(-1);
       700.00  Y  +279389.197-44.4518849*T-27.903*T*LN(T)
       -0.00350505*T**2-5.10013333E-07*T**3-458630*T**(-1);
      1300.00  Y  +295728.644-209.613503*T-4.215*T*LN(T)
       -0.0179776*T**2+1.09025167E-06*T**3-2390490*T**(-1);
      2400.00  Y  +206797.992+271.404115*T-66.93201*T*LN(T)
       +0.0014191*T**2-2.255E-08*T**3+20851205*T**(-1);
      5400.00  Y  +285045.253+50.7304853*T-40.685*T*LN(T)
       -0.0024736*T**2+8.4875E-08*T**3-22870970*T**(-1);
      6000.00  N !
$ ------------------------------------------------------------------------------
$
$
 LIST-OF-REFERENCE
 NUMBER  SOURCE
  Null   'Unknown source'
  Same   'Same or similar interaction as in the corresponding stable phase'
  REFLAV 'Laves phase convention: G(LAVES,X:X)=+3*GHSERXX+15000'
  90Tay  'J.R. Taylor, A.T. Dinsdale, Z. Metallkde., 81, 354-66(1990); Ni-O'
  91Din  'A.T. Dinsdale, Calphad, 15, 317-425(1991).'
  91Sun  'B. Sundman, J. Phase Equilib., 12, 127-40(1991); Fe-O'
  93Hal  'B. Hallstedt, J. Phase Equilib., 14, 662-75(1993); Al-O'
  95Kow  'M. Kowalski, P.J. Spencer, Calphad, 19, 229-43(1995); Ni-O'
  97SUB  'SGTE substance database, version 1997'
  99Gho  'G. Ghosh, Metall. Mater. Trans. A, 30A, 1481-94(1999),
          SGTE unary database V.5.0, 2009; Ni'
  00SUB  'SGTE substance database, version 2000'
!
