$
$ Database for Sb-Zn from Y. Liu and J.-C. Tedenac 2009.
$
$ Y. Liu, J.-C. Tedenac, Calphad, 33, 684-94(2009).
$
$ Dataset created 2019.12.15 by Bengt Hallstedt.
$
$ Modified from 07Li.
$
$ The modelling of SB3ZN4_EPS is scary.
$
$ ------------------------------------------------------------------------------
 TEMP-LIM 298.15 6000.00 !
$
$ELEMENT NAME  REF. STATE               ATOMIC MASS H298-H0    S298    !
$
 ELEMENT VA   VACUUM                      0.0          0.0      0.0    ! 
 ELEMENT SB   RHOMBOHEDRAL_A7           121.75      5870.152   45.5219 ! 
 ELEMENT ZN   HCP_A3                     65.38      5657.0     41.63   ! 
$ ------------------------------------------------------------------------------
$ Phase definitions
$
 PHASE LIQUID:L % 1 1 !
 CONST LIQUID:L : SB ZN : !
$
$ Fcc (cF4, Fm-3m) and MeX (cF8, Fm-3m)
$
 PHASE FCC_A1 %A 2 1 1 !
 CONST FCC_A1 : SB ZN : VA : !
$
$ Bcc (cI2, Im-3m)
$
 PHASE BCC_A2 %B 2 1 3 !
 CONST BCC_A2 : SB ZN : VA : !
$
$ Hcp (hP2, P6_3/mmc) and Me2X (NiAs-type, hP4, P6_3/mmc, B8_1)
$
 PHASE HCP_A3 %A 2 1 0.5 !
 CONST HCP_A3 : SB ZN : VA : !
$
$ Prototype alpha-As (hR2, R-3m)
$
 PHASE RHOMBOHEDRAL_A7 % 1 1 !
 CONST RHOMBOHEDRAL_A7 : SB : !
$
$ Prototype CdSb (oP16, Pbca), beta
$
 PHASE SBZN_BE % 2 1 1 !
 CONST SBZN_BE : SB : VA ZN% : !
$
$ Prototype Sb17Zn23 (hR22, R-3c), epsilon
$
 PHASE SB3ZN4_EPS % 2 3 4 !
 CONST SB3ZN4_EPS : SB : VA ZN% : !
$
$ Unknown structure, delta
$
 PHASE SB3ZN4_DELTA % 2 3.087 3.913 !
 CONST SB3ZN4_DELTA : SB : ZN : !
$
$ Unknown structure, delta-prime
$
 PHASE SB3ZN4_PRIME % 2 3.094 3.906 !
 CONST SB3ZN4_PRIME : SB : ZN : !
$
$ Prototype Sb2Zn3-ht1 (oP30, Pmmn), eta, ht1
$
 PHASE SB2ZN3_ETA % 2 2 3 !
 CONST SB2ZN3_ETA : SB : ZN : !
$
$ Prototype Sb2Zn3-ht2 (oP192, Pccn), zeta, ht2
$
 PHASE SB2ZN3_ZETA % 2 2.025 2.975 !
 CONST SB2ZN3_ZETA : SB : ZN : !
$ ------------------------------------------------------------------------------
$ Defaults
$
 DEFINE-SYSTEM-DEFAULT ELEMENT 2 !
 DEFAULT-COM DEFINE_SYSTEM_ELEMENT VA !
 TYPE-DEF % SEQ * !
 TYPE-DEF A GES AMEND_PHASE_DESCRIPTION @ MAGNETIC -3 0.28 !
 TYPE-DEF B GES AMEND_PHASE_DESCRIPTION @ MAGNETIC -1 0.4 !
 FUNCTION ZERO      298.15  0;                                         6000 N !
 FUNCTION UN_ASS    298.15  0;                                         6000 N !
 FUNCTION R         298.15  +8.31451;                                  6000 N !
$ ------------------------------------------------------------------------------
$ Element data
$ ------------------------------------------------------------------------------
$ Sb
$
$ BCT_A5 revised in unary 3.0
$
$ BCT_A5 the value from 91Din is used in LBall-v7+fun.tdb.
$ BCT_A5 the value from 96SGUN is used in SGSOL 5.0.
$ It is only needed in Sb-Sn.
$
 PAR  G(RHOMBOHEDRAL_A7,SB),,           +GHSERSB;                2000 N 91Din !
 PAR  G(FCC_A1,SB:VA),,                 +GHSERSB+19874-13.7*T;   2000 N 91Din !
 PAR  G(BCC_A2,SB:VA),,                 +GHSERSB+19874-15.1*T;   2000 N 91Din !
 PAR  G(HCP_A3,SB:VA),,                 +GHSERSB+19874-13*T;     2000 N 91Din !
$PAR  G(BCT_A5,SB),,                    +GHSERSB+13000-8*T;      2000 N 96SGUN !
$PAR  G(BCT_A5,SB),,                    +GHSERSB+1000;           2000 N 91Din !
 PAR  G(LIQUID,SB),,                    +GLIQSB;                 2000 N 91Din !
$
 PAR  G(SBZN_BE,SB:VA),,                +GHSERSB+10000;,,             N 09Liu !
 PAR  G(SB3ZN4_EPS,SB:VA),,             +3*GHSERSB+500000;,,          N 09Liu !
$
 FUNCTION GHSERSB   298.15  -9242.858+156.154689*T-30.5130752*T*LN(T)
       +0.007748768*T**2-3.003415E-06*T**3+100625*T**(-1);
       903.78  Y  -11738.83+169.485872*T-31.38*T*LN(T)+1.616849E+27*T**(-9);
      2000.00  N !
 FUNCTION GLIQSB    298.15  +19822.328-21.923164*T+GHSERSB-1.74847E-20*T**7;
       903.78  Y  +8175.359+147.455986*T-31.38*T*LN(T);
      2000.00  N !
$ ------------------------------------------------------------------------------
$ Zn
$
$ BCT_A5 and DIAMOND_A4 added in unary 3.0
$ HCP_A3 revised in unary 4.1 (due to introduction of HCP_ZN)
$ RHOMBOHEDRAL_A7 and TETRAGONAL_A6 added in unary 4.1
$ TETRAGONAL_A6 revised in unary 4.4
$ CBCC_A12 and CUB_A13 added in unary 4.4
$ HCP_A3 and LIQUID modified in unary 5.0 (melting T and coefficients adjusted)
$ RHOMBO_A10 added in unary 5.0
$
$ Pure Zn restored as HCP_A3
$
 PAR  G(HCP_A3,ZN:VA),,                 +GHSERZN;                1700 N 91Din !
$PAR  G(HCP_A3,ZN:VA),,                 +GHSERZN
$            +2969.82-1.56968*T;                                 1700 N 93Kow !
 PAR  G(FCC_A1,ZN:VA),,                 +GHSERZN
             +2969.82-1.56968*T;                                 1700 N 91Din !
 PAR  G(BCC_A2,ZN:VA),,                 +GHSERZN
             +2886.96-2.5104*T;                                  1700 N 91Din !
$PAR  G(DIAMOND_A4,ZN),,                +GHSERZN+30*T;           1700 N SGCOST !
$PAR  G(BCT_A5,ZN),,                    +GHSERZN
$            +2886.96-2.5104*T;                                  1700 N SGCOST !
$PAR  G(TETRAGONAL_A6,ZN),,             +GHSERZN+4184;           1700 N 96Lee !
$PAR  G(TETRAGONAL_A6,ZN),,             +GHSERZN
$            +2886.96-2.5104*T;                                  1700 N 99SGUN !
$PAR  G(RHOMBOHEDRAL_A7,ZN),,           +GHSERZN+2300+11.5*T;    1700 N 99SGUN !
$PAR  G(RHOMBO_A10,ZN),,                +GLIQZN-2000+10*T;       1700 N 98Han !
$PAR  G(CBCC_A12,ZN:VA),,               +GHSERZN+2000;           1700 N 01Mie !
$PAR  G(CUB_A13,ZN:VA),,                +GHSERZN+2000;           1700 N 01Mie !
 PAR  G(LIQUID,ZN),,                    +GLIQZN;                 1700 N 91Din !
$
 FUNCTION GHSERZN   298.15  -7285.787+118.470069*T-23.701314*T*LN(T)
       -0.001712034*T**2-1.264963E-06*T**3;
       692.677 Y  -11070.546+172.345644*T-31.38*T*LN(T)+4.7047E+26*T**(-9);
      1700.00  N !
 FUNCTION GLIQZN    298.15  +7157.222-10.29305*T+GHSERZN-3.58949E-19*T**7;
       692.677 Y  -3620.385+161.60854*T-31.38*T*LN(T);
      1700.00  N !
 FUNCTION GBCCZN    298.15  +GHSERZN+2886.96-2.5104*T;                 6000 N !
$ ------------------------------------------------------------------------------
$ Binary system
$
$ Y. Liu, J.-C. Tedenac, Calphad, 33, 684-94(2009).
$
$ Checked against paper and author's tdb. Checked at 6000 K.
$
$ Modified from 07Li.
$
$ There is a small, but clearly visible, Sb solubility in hcp-Zn in the
$ calculated diagram (both present tdb and author's tdb), which is not shown
$ in the diagram in the paper.
$
$ The modelling of SB3ZN4_EPS is scary.
$
 PAR  L(LIQUID,SB,ZN;0),,               -12211-1.2982*T;,,            N 09Liu !
 PAR  L(LIQUID,SB,ZN;1),,               -3654.1+1.4485*T;,,           N 09Liu !
 PAR  L(LIQUID,SB,ZN;2),,               +29969-23.69*T;,,             N 09Liu !
$
 PAR  L(HCP_A3,SB,ZN:VA;0),,            +UN_ASS;,,                    N !
$
 PAR  G(SBZN_BE,SB:ZN),,                +GHSERSB+GHSERZN
             -22976+8.8382*T;,,                                       N 09Liu !
 PAR  L(SBZN_BE,SB:VA,ZN;0),,           +1.7451+19.176*T;,,           N 09Liu !
 PAR  L(SBZN_BE,SB:VA,ZN;1),,           +3467.9;,,                    N 09Liu !
$
 PAR  G(SB3ZN4_EPS,SB:ZN),,             +3*GHSERSB+4*GHSERZN
             -65571+14.263*T;,,                                       N 09Liu !
 PAR  L(SB3ZN4_EPS,SB:VA,ZN;0),,        -951880+193.24*T;,,           N 09Liu !
 PAR  L(SB3ZN4_EPS,SB:VA,ZN;1),,        -384288;,,                    N 09Liu !
$
 PAR  G(SB3ZN4_DELTA,SB:ZN),,           +3.087*GHSERSB+3.913*GHSERZN
             -51485-5.0983*T;,,                                       N 09Liu !
 PAR  G(SB3ZN4_PRIME,SB:ZN),,           +3.094*GHSERSB+3.906*GHSERZN
             -14477-51.208*T;,,                                       N 09Liu !
 PAR  G(SB2ZN3_ZETA,SB:ZN),,            +2.025*GHSERSB+2.975*GHSERZN
             -25717-17.192*T;,,                                       N 09Liu !
 PAR  G(SB2ZN3_ETA,SB:ZN),,             +2*GHSERSB+3*GHSERZN
             -30439-10.133*T;,,                                       N 09Liu !
$ ------------------------------------------------------------------------------
$
 ASSESSED_SYSTEM
  SB-ZN(TDB -* +LIQUID +HCP_A3 +RHOMBO_A7 +SBZN_BE +SB3ZN4_EPS +SB3ZN4_DELTA
  +SB3ZN4_PRIME +SB2ZN3_ZETA +SB2ZN3_ETA ;P3 TMM:200/1000 STP:.2/800) !
$
$
 LIST-OF-REFERENCE
 NUMBER  SOURCE
  Null   'Unknown source'
  Same   'Same or similar interaction as in the corresponding stable phase'
  REFLAV 'Laves phase convention: G(LAVES,X:X)=+3*GHSERXX+15000'
  COST   'COST 507 database, 1998'
  SGCOST 'COST 507 database, SGTE unary database V.3.0, 1996; Al, B, Nd, Ti, Zn'
  91Din  'A.T. Dinsdale, Calphad, 15, 317-425(1991).'
  93Kow  'M. Kowalski, P.J. Spencer, J. Phase Equilib., 14, 432-38 (1993),
          SGTE unary database V.4.1, 1999; Zn'
  96Lee  'B.-J. Lee, Calphad, 20, 471-80(1996)
          SGTE unary database V.4.4, 2001; Zn'
  96SGUN 'SGTE unary database V.3.0, 1996.'
  98Han  'S.C. Hansen, Calphad, 22, 359-73(1998),
          SGTE unary database V.5.0, 2009; Zn'
  99SGUN 'SGTE unary database V.4.1, 1999.'
  01Mie  'J. Miettinen, Calphad, 25, 43-58(2001),
          SGTE unary database V.4.4, 2001; Sn, Zn'
  09Liu  'Y. Liu, J.-C. Tedenac, Calphad, 33, 684-94(2009); Sb-Zn'
!
