$
$ Database for Cu-Pd from W. Huang et al. 2007
$
$ W. Huang, S.M. Opalka, D. Wang, T.B. Flanagan,
$ Calphad, 31, 315-29(2007).
$
$ Dataset created 2009.12.13 by Bengt Hallstedt.
$ 2020.12.26: Modified for use with GES6.
$
$ Cu3Pd ordering is not included.
$ B2_BCC is modelled as a separate phase, not add-on.
$
$ Inverse miscibility gap with minimum at 5360K and x(Pd)=0.61.
$
$ ------------------------------------------------------------------------------
 TEMP-LIM 298.15 6000.00 !
$
$ELEMENT NAME  REF. STATE               ATOMIC MASS H298-H0    S298    !
$
 ELEMENT VA   VACUUM                      0.0          0.0      0.0    ! 
 ELEMENT CU   FCC_A1                     63.546     5004.      33.15   !
 ELEMENT PD   FCC_A1                    106.42      5468.488   37.8234 ! 
$ ------------------------------------------------------------------------------
$ Phase definitions
$
 PHASE LIQUID:L % 1 1 !
 CONST LIQUID:L : CU PD : !
$
$ Fcc (cF4, Fm-3m) and MeX (cF8, Fm-3m)
$
 PHASE FCC_A1 %A 2 1 1 !
 CONST FCC_A1 : CU% PD% : VA : !
$
$ Bcc (cI2, Im-3m)
$
 PHASE BCC_A2 %B 2 1 3 !
 CONST BCC_A2 : CU PD : VA : !
$
$ Prototype CsCl (cP2, Pm-3m), no vacancies!
$
 PHASE B2_BCC %B 3 0.5 0.5 1 !
 CONST B2_BCC : CU% PD : CU PD% : VA : !
$
$ Hcp (hP2, P6_3/mmc) and Me2X (NiAs-type, hP4, P6_3/mmc, B8_1)
$
 PHASE HCP_A3 %A 2 1 0.5 !
 CONST HCP_A3 : CU PD : VA : !
$ ------------------------------------------------------------------------------
$ Defaults
$
 DEFINE-SYSTEM-DEFAULT ELEMENT 2 !
 DEFAULT-COM DEFINE_SYSTEM_ELEMENT VA !
 TYPE-DEF % SEQ * !
 TYPE-DEF A GES AMEND_PHASE_DESCRIPTION @ MAGNETIC -3 0.28 !
 TYPE-DEF B GES AMEND_PHASE_DESCRIPTION @ MAGNETIC -1 0.4 !
 FUNCTION ZERO      298.15  0;                                         6000 N !
 FUNCTION UN_ASS    298.15  0;                                         6000 N !
 FUNCTION R         298.15  +8.31451;                                  6000 N !
$ ------------------------------------------------------------------------------
$ Element data
$ ------------------------------------------------------------------------------
$ Cu
$
 PAR  G(FCC_A1,CU:VA),,                 +GHSERCU;                3200 N 91Din !
 PAR  G(BCC_A2,CU:VA),,                 +GHSERCU+4017-1.255*T;   3200 N 91Din !
 PAR  G(HCP_A3,CU:VA),,                 +GHSERCU+600+0.2*T;      3200 N 91Din !
 PAR  G(LIQUID,CU),,                    +GLIQCU;                 3200 N 91Din !
$
 PAR  G(B2_BCC,CU:CU:VA),,              +GHSERCU+4017-1.255*T;   3200 N 91Din !
$
 FUNCTION GHSERCU   298.15  -7770.458+130.485235*T-24.112392*T*LN(T)
       -0.00265684*T**2+1.29223E-07*T**3+52478*T**(-1);
      1357.77  Y  -13542.026+183.803828*T-31.38*T*LN(T)+3.64167E+29*T**(-9);
      3200.00  N !
 FUNCTION GLIQCU    298.15  +12964.735-9.511904*T+GHSERCU-5.8489E-21*T**7;
      1357.77  Y  -46.545+173.881484*T-31.38*T*LN(T);
      3200.00  N !
$ ------------------------------------------------------------------------------
$ Pd
$
$ RHOMBOHEDRAL_A7 added in unary 5.0
$
 PAR  G(FCC_A1,PD:VA),,                 +GHSERPD;                4000 N 91Din !
 PAR  G(BCC_A2,PD:VA),,                 +GHSERPD+10500-1.8*T;    4000 N 91Din !
 PAR  G(HCP_A3,PD:VA),,                 +GHSERPD+2000+0.1*T;     4000 N 91Din !
$PAR  G(RHOMBOHEDRAL_A7,PD),,           +GHSERPD+4000;           4000 N 06Vre !
 PAR  G(LIQUID,PD),,                    +GLIQPD;                 4000 N 91Din !
$
 PAR  G(B2_BCC,PD:PD:VA),,              +GHSERPD+10500-1.8*T;    4000 N 91Din !
$
 FUNCTION GHSERPD   298.15  -10204.027+176.076315*T-32.211*T*LN(T)
       +0.007120975*T**2-1.919875E-06*T**3+168687*T**(-1);
       900.00  Y  +917.062+49.659892*T-13.5708*T*LN(T)
       -0.00717522*T**2+1.91115E-07*T**3-1112465*T**(-1);
      1828.00  Y  -67161.018+370.102147*T-54.2067086*T*LN(T)
       +0.002091396*T**2-6.2811E-08*T**3+18683526*T**(-1);
      4000.00  N !
 FUNCTION GLIQPD    298.15  +11506.758-5.112162*T+GHSERPD;
       600.00  Y  +23405.778-116.918419*T+10.8922031*T*LN(T)
       -0.027266568*T**2+2.430675E-06*T**3-1853674*T**(-1);
      1828.00  Y  -12373.637+251.416903*T-41.17*T*LN(T);
      4000.00  N !
$ ------------------------------------------------------------------------------
$ Binary system
$
$ W. Huang, S.M. Opalka, D. Wang, T.B. Flanagan,
$ Calphad, 31, 315-29(2007).
$
$ Checked against paper. Checked at 6000 K.
$
$ Cu3Pd ordering is not included.
$ B2_BCC is modelled as a separate phase, not add-on.
$
$ Inverse miscibility gap with minimum at 5360K and x(Pd)=0.61.
$
 PAR  L(LIQUID,CU,PD;0),,               -65124+27.6654*T;,,           N 07Hua !
 PAR  L(LIQUID,CU,PD;1),,               -15893;,,                     N 07Hua !
$
 PAR  L(FCC_A1,CU,PD:VA;0),,            -43314.6+14.954*T;,,          N 07Hua !
 PAR  L(FCC_A1,CU,PD:VA;1),,            -4332.6-9.4584*T;,,           N 07Hua !
$
 PAR  G(B2_BCC,CU:PD:VA),,              +0.5*GHSERCU+0.5*GHSERPD
             -13830+2.4*T;,,                                          N 07Hua !
 PAR  G(B2_BCC,PD:CU:VA),,              +0.5*GHSERPD+0.5*GHSERCU
             -13830+2.4*T;,,                                          N 07Hua !
 PAR  L(B2_BCC,CU,PD:CU:VA;0),,         -15600+2.7*T;,,               N 07Hua !
 PAR  L(B2_BCC,CU:CU,PD:VA;0),,         -15600+2.7*T;,,               N 07Hua !
 PAR  L(B2_BCC,CU,PD:PD:VA;0),,         +15600-2.7*T;,,               N 07Hua !
 PAR  L(B2_BCC,PD:CU,PD:VA;0),,         +15600-2.7*T;,,               N 07Hua !
$
$ metastable
$
 PAR  L(BCC_A2,CU,PD:VA;0),,            -43314.6+14.954*T;,,          N Same !
 PAR  L(BCC_A2,CU,PD:VA;1),,            -4332.6-9.4584*T;,,           N Same !
$
 PAR  L(HCP_A3,CU,PD:VA;0),,            -43314.6+14.954*T;,,          N Same !
 PAR  L(HCP_A3,CU,PD:VA;1),,            -4332.6-9.4584*T;,,           N Same !
$ ------------------------------------------------------------------------------
$
$
 LIST-OF-REFERENCE
 NUMBER  SOURCE
  Null   'Unknown source'
  Same   'Same or similar interaction as in the corresponding stable phase'
  COST   'COST 507 database'
  91Din  'A.T. Dinsdale, Calphad, 15, 317-425(1991).'
  06Vre  'J. Vrestal, J. Pinkas, A. Watson, A. Scott, J. Houserova, A. Kroupa,
          Calphad, 30, 14-17(2006), SGTE unary database V.5.0, 2009; Pd'
  07Hua  'W. Huang, S.M. Opalka, D. Wang, T.B. Flanagan,
          Calphad, 31, 315-29(2007); Cu-Pd'
!
