$
$ Database for Ce-Sn from H.Q. Dong et al. 2013.
$
$ H.Q. Dong, X.M. Tao, T. Laurila, V. Vuorinen, M. Paulasto-Krockel,
$ Calphad, 42, 38-50(2013).
$
$ Dataset created 2018.03.29 by Bengt Hallstedt.
$ 2020.12.25: Modified for use with GES6.
$
$ There is an inverse stability range of the bcc phase above 4221 K.
$
$ ------------------------------------------------------------------------------
 TEMP-LIM 298.15 6000.00 !
$
$ELEMENT NAME  REF. STATE               ATOMIC MASS H298-H0    S298    !
$
 ELEMENT VA   VACUUM                      0.0          0.0      0.0    ! 
 ELEMENT CE   FCC_A1                    140.12      7280.16    69.454  ! 
 ELEMENT SN   BCT_A5                    118.69      6323.      51.18   ! 
$ ------------------------------------------------------------------------------
$ Phase definitions
$
 PHASE LIQUID:L % 1 1 !
 CONST LIQUID:L : CE SN : !
$
$ Fcc (cF4) and MeX (cF8)
$
 PHASE FCC_A1 %A 2 1 1 !
 CONST FCC_A1 : CE% SN : VA : !
$
$ Bcc (cI2, Im-3m)
$
 PHASE BCC_A2 %B 2 1 3 !
 CONST BCC_A2 : CE SN : VA : !
$
$ Hcp (hP2, P6_3/mmc) and Me2X (NiAs-type, hP4, P6_3/mmc, B8_1), zeta
$
 PHASE HCP_A3 %A 2 1 0.5 !
 CONST HCP_A3 : CE SN : VA : !
$
$ Prototype alpha-La (SB A3', hP4, P6_3/mmc), Au10Sn, beta
$
 PHASE DHCP %A 1 1 !
 CONST DHCP : CE SN : !
$
$ Prototype C (cF8, Fd-3m)
$
 PHASE DIAMOND_A4 % 1 1 !
 CONST DIAMOND_A4 : SN : !
$
$ Prototype beta-Sn (tI4, I4_1/amd)
$
 PHASE BCT_A5 % 1 1 !
 CONST BCT_A5 : SN : !
$
$ Prototype AuCu3 (cP4, Pm-3m)
$
 PHASE CE3SN_L12 % 2 3 1 !
 CONST CE3SN_L12 : CE : SN : !
$
$ Prototype Si3W5 (tI32, I4/mcm), LT, D8_m
$ Prototype Mn5Si3 (hP16, P6_3/mcm), HT, D8_8
$
 PHASE CE5SN3 % 2 5 3 !
 CONST CE5SN3 : CE : SN : !
$
$ Prototype Ge4Sm5 (oP36, Pnma)
$
 PHASE CE5SN4 % 2 5 4 !
 CONST CE5SN4 : CE : SN : !
$
$ Prototype Ge10Ho11 (tI84, I4/mmm)
$
 PHASE CE11SN10 % 2 11 10 !
 CONST CE11SN10 : CE : SN : !
$
$ Prototype Pd5Pu3 (oC32, Cmcm)
$
 PHASE CE3SN5 % 2 3 5 !
 CONST CE3SN5 : CE : SN : !
$
$ Prototype Ce3Sn7 (oC20, Cmmm)
$
 PHASE CE3SN7 % 2 3 7 !
 CONST CE3SN7 : CE : SN : !
$
$ Prototype Ce2Sn5 (oC28, Cmmm)
$
 PHASE CE2SN5 % 2 2 5 !
 CONST CE2SN5 : CE : SN : !
$
$ Prototype AuCu3 (cP4, Pm-3m)
$
 PHASE CESN3_L12 % 2 1 3 !
 CONST CESN3_L12 : CE : SN : !
$ ------------------------------------------------------------------------------
$ Defaults
$
 DEFINE-SYSTEM-DEFAULT ELEMENT 2 !
 DEFAULT-COM DEFINE_SYSTEM_ELEMENT VA !
 TYPE-DEF % SEQ * !
 TYPE-DEF A GES AMEND_PHASE_DESCRIPTION @ MAGNETIC -3 0.28 !
 TYPE-DEF B GES AMEND_PHASE_DESCRIPTION @ MAGNETIC -1 0.4 !
 FUNCTION ZERO      298.15  0;                                         6000 N !
 FUNCTION UN_ASS    298.15  0;                                         6000 N !
 FUNCTION R         298.15  +8.31451;                                  6000 N !
$ ------------------------------------------------------------------------------
$ Element data
$ ------------------------------------------------------------------------------
$ Ce
$
$ HCP_A3 and DHCP added in unary 3.0
$ HCP_A3 and DHCP revised in unary 4.4
$
 PAR  G(FCC_A1,CE:VA),,                 +GHSERCE;                4000 N 91Din !
 PAR  G(BCC_A2,CE:VA),,                 +GBCCCE;                 4000 N 91Din !
 PAR  G(HCP_A3,CE:VA),,                 +GHSERCE+300;            4000 N Frank !
$PAR  G(HCP_A3,CE:VA),,                 +GHSERCE+50000;          4000 N 96SGUN !
 PAR  G(DHCP,CE),,                      +GHSERCE
             -122.539+0.433*T;                                   4000 N 99Gsc !
$PAR  G(DHCP,CE),,                      +GHSERCE-190+0.56886*T;  4000 N 96SGUN !
 PAR  G(LIQUID,CE),,                    +GLIQCE;                 4000 N 91Din !
$
 FUNCTION GHSERCE   298.15  -7160.519+84.23022*T-22.3664*T*LN(T)
       -0.0067103*T**2-3.20773E-07*T**3-18117*T**(-1);
      1000.00  Y  -79678.506+659.4604*T-101.32248*T*LN(T)
       +0.026046487*T**2-1.930297E-06*T**3+11531707*T**(-1);
      2000.00  Y  -14198.639+190.370192*T-37.6978*T*LN(T);
      4000.00  N !
 FUNCTION GBCCCE    298.15  -1354.69-5.21501*T-7.7305867*T*LN(T)
       -0.029098402*T**2+4.784299E-06*T**3-196303*T**(-1);
      1000.00  Y  -12101.106+187.449688*T-37.6142*T*LN(T);
      1072.00  Y  -11950.375+186.333811*T-37.4627992*T*LN(T)
       -5.7145E-05*T**2+2.348E-09*T**3-25897*T**(-1);
      4000.00  N !
 FUNCTION GLIQCE    298.15  +4117.865-11.423898*T-7.5383948*T*LN(T)
       -0.02936407*T**2+4.827734E-06*T**3-198834*T**(-1);
      1000.00  Y  -6730.605+183.023193*T-37.6978*T*LN(T);
      4000.00  N !
$ ------------------------------------------------------------------------------
$ Sn
$
$ FCC_A1 revised in unary 3.0
$ HCP_A3 revised in unary 4.1
$ TETRAGONAL_A6 added in unary 4.1
$ CBCC_A12 and CUB_A13 added in unary 4.4
$ FCC_A1 modified in unary 5.0
$ DHCP and TET_ALPHA1_A6 added in unary 5.0
$
$ The DHCP phase is labelled D0_24 in 03Liu and alpha-prime in 92Ans. The
$ phase is present between the fcc and hcp phases in the Au-Sn and Au-In
$ systems.
$
 PAR  G(BCT_A5,SN)              100.00  +GHSERSN;                3000 N 91Din !
 PAR  G(DIAMOND_A4,SN)          100.00  +GDIASN;                 3000 N 91Din !
 PAR  G(FCC_A1,SN:VA)           100.00  +GHSERSN+5510-8.46*T;    3000 N 89Fec !
$PAR  G(FCC_A1,SN:VA)           100.00  +GHSERSN+4150-5.2*T;     3000 N 91Din !
 PAR  G(BCC_A2,SN:VA)           100.00  +GHSERSN+4400-6*T;       3000 N 91Din !
 PAR  G(HCP_A3,SN:VA)           100.00  +GHSERSN+3900-7.646*T;   3000 N Ansar !
$PAR  G(HCP_A3,SN:VA)           100.00  +GHSERSN+3900-4.4*T;     3000 N 91Din !
 PAR  G(DHCP,SN)                100.00  +GHSERSN+3803.52-3.46*T; 3000 N 03Liu !
$PAR  G(RHOMBOHEDRAL_A7,SN)     100.00  +GHSERSN+2035;           3000 N 91Din !
$PAR  G(TETRAGONAL_A6,SN)       100.00  +GHSERSN+5387-8.26212*T; 3000 N 99Ans !
$PAR  G(CBCC_A12,SN:VA)         100.00  +GHSERSN+2000;           3000 N 01Mie !
$PAR  G(CUB_A13,SN:VA)          100.00  +GHSERSN+2000;           3000 N 01Mie !
$PAR  G(TET_ALPHA1_A6,SN)       100.00  +GHSERSN+5510-8.46*T;    3000 N 99Ans !
 PAR  G(LIQUID,SN)              100.00  +GLIQSN;                 3000 N 91Din !
$
 FUNCTION GHSERSN   100.00  -7958.517+122.765451*T-25.858*T*LN(T)
       +5.1185E-04*T**2-3.192767E-06*T**3+18440*T**(-1);
       250.00  Y  -5855.135+65.443315*T-15.961*T*LN(T)
       -0.0188702*T**2+3.121167E-06*T**3-61960*T**(-1);
       505.08  Y  +2524.724+4.005269*T-8.2590486*T*LN(T)
       -0.016814429*T**2+2.623131E-06*T**3-1081244*T**(-1)-1.2307E+25*T**(-9);
       800.00  Y  -8256.959+138.99688*T-28.4512*T*LN(T)-1.2307E+25*T**(-9);
      3000.00  N !
 FUNCTION GDIASN    100.00  -9579.608+114.007785*T-22.972*T*LN(T)
       -0.00813975*T**2+2.7288E-06*T**3+25615*T**(-1);
       298.15  Y  -9063.001+104.84654*T-21.5750771*T*LN(T)
       -0.008575282*T**2+1.784447E-06*T**3-2544*T**(-1);
       800.00  Y  -10909.351+147.396535*T-28.4512*T*LN(T);
      3000.00  N !
 FUNCTION GLIQSN    100.00  +7103.092-14.087767*T+GHSERSN+1.47031E-18*T**7;
       505.08  Y  +6971.586-13.814383*T+GHSERSN+1.2307E+25*T**(-9);
       800.00  Y  -1285.372+125.182498*T-28.4512*T*LN(T);
      3000.00  N !
 FUNCTION GBCCSN    298.15  +GHSERSN+4400-6*T;                         3000 N !
$ ------------------------------------------------------------------------------
$ Binary system
$
$ H.Q. Dong, X.M. Tao, T. Laurila, V. Vuorinen, M. Paulasto-Krockel,
$ Calphad, 42, 38-50(2013).
$
$ Checked against paper and author's tdb. Checked at 6000 K.
$
$ There is an inverse stability range of the bcc phase above 4221 K.
$
 PAR  L(LIQUID,CE,SN;0),,               -209129.135+20*T;,,           N 13Don !
 PAR  L(LIQUID,CE,SN;1),,               +27189.0474;,,                N 13Don !
 PAR  L(LIQUID,CE,SN;2),,               +10000;,,                     N 13Don !
$
 PAR  L(FCC_A1,CE,SN:VA;0),,            +UN_ASS;,,                    N !
 PAR  L(BCC_A2,CE,SN:VA;0),,            -124000-20.058*T;,,           N 13Don !
$
 PAR  G(CE3SN_L12,CE:SN),,              +3*GHSERCE+GHSERSN
             -214868.016+35.1012*T;,,                                 N 13Don !
 PAR  G(CE5SN3,CE:SN),,                 +5*GHSERCE+3*GHSERSN
             -562882.7992+51.7536*T;,,                                N 13Don !
 PAR  G(CE5SN4,CE:SN),,                 +5*GHSERCE+4*GHSERSN
             -661169.2563+51.3378*T;,,                                N 13Don !
 PAR  G(CE11SN10,CE:SN),,               +11*GHSERCE+10*GHSERSN
             -1516316.4303+102.9882*T;,,                              N 13Don !
 PAR  G(CE3SN5,CE:SN),,                 +3*GHSERCE+5*GHSERSN
             -523038.268+23.9832*T;,,                                 N 13Don !
 PAR  G(CE3SN7,CE:SN),,                 +3*GHSERCE+7*GHSERSN
             -621860.33+38.709*T;,,                                   N 13Don !
 PAR  G(CE2SN5,CE:SN),,                 +2*GHSERCE+5*GHSERSN
             -429079.819+26.9969*T;,,                                 N 13Don !
 PAR  G(CESN3_L12,CE:SN),,              +GHSERCE+3*GHSERSN
             -230481.696+12.49*T;,,                                   N 13Don !
$ ------------------------------------------------------------------------------
$
$
 LIST-OF-REFERENCE
 NUMBER  SOURCE
  Null   'Unknown source'
  Same   'Same or similar interaction as in the corresponding stable phase'
  COST   'COST 507 database'
  Ansar  'Himo Ansara, unpublished, SGTE unary database V.4.1, 1999; Sn'
  Frank  'Peter Franke, unpublished, SGTE unary database V.4.4, 2001; Ce'
  88Che1 'P.-Y. Chevalier, Thermochim. Acta, 130, 1-13(1988); Au, Sn'
  89Fec  'H.J. Fecht, M.X. Zhang, Y.A. Chang, J.H. Perepezko,
          Metall. Trans. A, 20A, 795-803(1989),
          SGTE unary database V.3.0, 1996; Sn'
  91Din  'A.T. Dinsdale, Calphad, 15, 317-425(1991).'
  96SGUN 'SGTE unary database V.3.0, 1996.'
  99Ans  'I. Ansara, S.G. Fries, H.L. Lukas, unpublished, 1999,
          SGTE unary database V.5.0, 2009; In, Sn'
  99Gsc  'K.A. Gschneidner, Jr., V.K. Pecharsky, J. Phase Equilib.,
          20, 612-14(1999), SGTE unary database V.4.4, 2001; Ce'
  01Mie  'J. Miettinen, Calphad, 25, 43-58(2001),
          SGTE unary database V.4.4, 2001; Sn, Zn'
  03Liu  'H.S. Liu, C.L. Liu, K. Ishida, Z.P. Jin, J. Electron. Mater.,
          32, 1290-96(2003),
          SGTE unary database V.5.0, 2009; Sn'
  13Don  'H.Q. Dong, X.M. Tao, T. Laurila, V. Vuorinen, M. Paulasto-Krockel,
          Calphad, 42, 38-50(2013); Ce-Sn'
!
