$
$ Database for Ti-Zn from S.-M. Liang et al. 2019.
$
$ S.-M. Liang, H.K. Singh, H. Zhang, R. Schmid-Fetzer,
$ Calphad, 64, 213-24(2019).
$
$ Dataset created 2024.08.08 by Bengt Hallstedt.
$
$ Using "LET" function to decrease liquid interaction at high temperature.
$
$ The gas phase is stable above about 1273 K at 1 bar, but not included here.
$
$ ------------------------------------------------------------------------------
 TEMP-LIM 298.15 6000.00 !
$
$ELEMENT NAME  REF. STATE               ATOMIC MASS H298-H0    S298    !
$
 ELEMENT VA   VACUUM                      0.0          0.0      0.0    ! 
 ELEMENT TI   HCP_A3                     47.88      4824.      30.72   ! 
 ELEMENT ZN   HCP_A3                     65.38      5657.0     41.63   ! 
$ ------------------------------------------------------------------------------
$ Phase definitions
$
 PHASE LIQUID:L % 1 1 !
 CONST LIQUID:L : TI ZN : !
$
$ Fcc (cF4, Fm-3m) and MeX (cF8, Fm-3m)
$
 PHASE FCC_A1 %A 2 1 1 !
 CONST FCC_A1 : TI ZN : VA : !
$
$ Bcc (cI2, Im-3m)
$
 PHASE BCC_A2 %B 2 1 3 !
 CONST BCC_A2 : TI% ZN : VA : !
$
$ Hcp (hP2, P6_3/mmc) and Me2X (NiAs-type, hP4, P6_3/mmc, B8_1)
$
 PHASE HCP_A3 %A 2 1 0.5 !
 CONST HCP_A3 : TI ZN : VA : !
$
$ Prototype CuZr2 (tI6, I4/mmm)
$
 PHASE TI2ZN % 2 2 1 !
 CONST TI2ZN : TI : ZN : !
$
$ Prototype CsCl (cP2, Pm-3m)
$
 PHASE TIZN_B2 % 2 1 1 !
 CONST TIZN_B2 : TI : ZN : !
$
$ Prototype MgZn2 (hP12, P6_3/mmc)
$
 PHASE TIZN2_C14 % 2 1 2 !
 CONST TIZN2_C14 : TI : ZN : !
$
$ Prototype AuCu3 (cP4, Pm-3m)
$
 PHASE TIZN3_L12 % 2 1 3 !
 CONST TIZN3_L12 : TI : ZN : !
$
$ Prototype Ti3Zn22 (tP100, P4_2/mbc)
$
 PHASE TI3ZN22 % 2 3 22 !
 CONST TI3ZN22 : TI : ZN : !
$
$ Prototype TiZn16 (oC68, Cmcm)
$
 PHASE TIZN16 % 2 1 16 !
 CONST TIZN16 : TI : ZN : !
$ ------------------------------------------------------------------------------
$ Defaults
$
 DEFINE-SYSTEM-DEFAULT ELEMENT 2 !
 DEFAULT-COM DEFINE_SYSTEM_ELEMENT VA !
 TYPE-DEF % SEQ * !
 TYPE-DEF A GES AMEND_PHASE_DESCRIPTION @ MAGNETIC -3 0.28 !
 TYPE-DEF B GES AMEND_PHASE_DESCRIPTION @ MAGNETIC -1 0.4 !
 FUNCTION ZERO      298.15  0;                                         6000 N !
 FUNCTION UN_ASS    298.15  0;                                         6000 N !
 FUNCTION R         298.15  +8.31451;                                  6000 N !
$ ------------------------------------------------------------------------------
$ Element data
$ ------------------------------------------------------------------------------
$ Ti
$
$ BCT_A5 added in unary 3.0
$
 PAR  G(HCP_A3,TI:VA),,                 +GHSERTI;                4000 N 91Din !
 PAR  G(BCC_A2,TI:VA),,                 +GBCCTI;                 4000 N 91Din !
 PAR  G(FCC_A1,TI:VA),,                 +GHSERTI+6000-0.1*T;     4000 N 91Din !
$PAR  G(CBCC_A12,TI:VA),,               +GHSERTI+4602.2;         4000 N 91Din !
$PAR  G(CUB_A13,TI:VA),,                +GHSERTI+7531.2;         4000 N 91Din !
$PAR  G(DIAMOND_A4,TI),,                +GHSERTI+25000;          4000 N 91Din !
$PAR  G(BCT_A5,TI),,                    +GHSERTI+4602.2;         3000 N SGCOST !
 PAR  G(LIQUID,TI),,                    +GLIQTI;                 4000 N 91Din !
$
 FUNCTION GHSERTI   298.15  -8059.921+133.615208*T-23.9933*T*LN(T)
       -0.004777975*T**2+1.06716E-07*T**3+72636*T**(-1);
       900.00  Y  -7811.815+132.988068*T-23.9887*T*LN(T)
       -0.0042033*T**2-9.0876E-08*T**3+42680*T**(-1);
      1155.00  Y  +908.837+66.976538*T-14.9466*T*LN(T)
       -0.0081465*T**2+2.02715E-07*T**3-1477660*T**(-1);
      1941.00  Y  -124526.786+638.806871*T-87.2182461*T*LN(T)
       +0.008204849*T**2-3.04747E-07*T**3+36699805*T**(-1);
      4000.00  N !
 FUNCTION GBCCTI    298.15  -1272.064+134.71418*T-25.5768*T*LN(T)
       -6.63845E-04*T**2-2.78803E-07*T**3+7208*T**(-1);
      1155.00  Y  +6667.385+105.366379*T-22.3771*T*LN(T)
       +0.00121707*T**2-8.4534E-07*T**3-2002750*T**(-1);
      1941.00  Y  +26483.26-182.426471*T+19.0900905*T*LN(T)
       -0.02200832*T**2+1.228863E-06*T**3+1400501*T**(-1);
      4000.00  N !
 FUNCTION GLIQTI    298.15  +12194.415-6.980938*T+GHSERTI;
      1300.00  Y  +369519.198-2554.0225*T+342.059267*T*LN(T)
       -0.163409355*T**2+1.2457117E-05*T**3-67034516*T**(-1);
      1941.00  Y  -19887.066+298.7367*T-46.29*T*LN(T);
      4000.00  N !
 FUNCTION GFCCTI    298.15  +GHSERTI+6000-0.1*T;                       4000 N !
$ ------------------------------------------------------------------------------
$ Zn
$
$ BCT_A5 and DIAMOND_A4 added in unary 3.0
$ HCP_A3 revised in unary 4.1 (due to introduction of HCP_ZN)
$ RHOMBOHEDRAL_A7 and TETRAGONAL_A6 added in unary 4.1
$ TETRAGONAL_A6 revised in unary 4.4
$ CBCC_A12 and CUB_A13 added in unary 4.4
$ HCP_A3 and LIQUID modified in unary 5.0 (melting T and coefficients adjusted)
$ RHOMBO_A10 added in unary 5.0
$
$ Pure Zn restored as HCP_A3
$
 PAR  G(HCP_A3,ZN:VA),,                 +GHSERZN;                1700 N 91Din !
$PAR  G(HCP_A3,ZN:VA),,                 +GHSERZN
$            +2969.82-1.56968*T;                                 1700 N 93Kow !
 PAR  G(FCC_A1,ZN:VA),,                 +GHSERZN
             +2969.82-1.56968*T;                                 1700 N 91Din !
 PAR  G(BCC_A2,ZN:VA),,                 +GHSERZN
             +2886.96-2.5104*T;                                  1700 N 91Din !
$PAR  G(DIAMOND_A4,ZN),,                +GHSERZN+30*T;           1700 N SGCOST !
$PAR  G(BCT_A5,ZN),,                    +GHSERZN
$            +2886.96-2.5104*T;                                  1700 N SGCOST !
$PAR  G(TETRAGONAL_A6,ZN),,             +GHSERZN+4184;           1700 N 96Lee !
$PAR  G(TETRAGONAL_A6,ZN),,             +GHSERZN
$            +2886.96-2.5104*T;                                  1700 N 99SGUN !
$PAR  G(RHOMBOHEDRAL_A7,ZN),,           +GHSERZN+2300+11.5*T;    1700 N 99SGUN !
$PAR  G(RHOMBO_A10,ZN),,                +GLIQZN-2000+10*T;       1700 N 98Han !
$PAR  G(CBCC_A12,ZN:VA),,               +GHSERZN+2000;           1700 N 01Mie !
$PAR  G(CUB_A13,ZN:VA),,                +GHSERZN+2000;           1700 N 01Mie !
 PAR  G(LIQUID,ZN),,                    +GLIQZN;                 1700 N 91Din !
$
 FUNCTION GHSERZN   298.15  -7285.787+118.470069*T-23.701314*T*LN(T)
       -0.001712034*T**2-1.264963E-06*T**3;
       692.677 Y  -11070.546+172.345644*T-31.38*T*LN(T)+4.7047E+26*T**(-9);
      1700.00  N !
 FUNCTION GLIQZN    298.15  +7157.222-10.29305*T+GHSERZN-3.58949E-19*T**7;
       692.677 Y  -3620.385+161.60854*T-31.38*T*LN(T);
      1700.00  N !
 FUNCTION GFCCZN    298.15  +GHSERZN+2969.82-1.56968*T;                6000 N !
 FUNCTION GBCCZN    298.15  +GHSERZN+2886.96-2.5104*T;                 6000 N !
$ ------------------------------------------------------------------------------
$ Binary system
$
$ S.-M. Liang, H.K. Singh, H. Zhang, R. Schmid-Fetzer,
$ Calphad, 64, 213-24(2019).
$
$ Checked against paper and author's tdb. Checked at 6000 K.
$
$ Using "LET" function to decrease liquid interaction at high temperature.
$
$ The gas phase is stable above about 1273 K at 1 bar, but not included here.
$
 PAR  L(LIQUID,TI,ZN;0),,               -56042.25*LET
             +37.1981*T*LET;,,                                        N 19Lia !
 PAR  L(LIQUID,TI,ZN;1),,               +17562.27*LET
             -4.9525*T*LET;,,                                         N 19Lia !
 PAR  L(LIQUID,TI,ZN;2),,               -17406.08*LET
             +2.4544*T*LET;,,                                         N 19Lia !
$
 PAR  L(BCC_A2,TI,ZN:VA;0),,            -50700+32.5*T;,,              N 13Luo !
 PAR  L(HCP_A3,TI,ZN:VA;0),,            +ZERO;,,                      N 13Luo !
$
 PAR  G(TI2ZN,TI:ZN),,                  +3*GTI2ZN;,,                  N 19Lia !
 PAR  G(TIZN_B2,TI:ZN),,                +2*GTIZN;,,                   N 19Lia !
 PAR  G(TIZN2_C14,TI:ZN),,              +3*GTIZN2;,,                  N 19Lia !
 PAR  G(TIZN3_L12,TI:ZN),,              +4*GTIZN3;,,                  N 19Lia !
 PAR  G(TI3ZN22,TI:ZN),,                +25*GTI3ZN22;,,               N 19Lia !
 PAR  G(TIZN16,TI:ZN),,                 +17*GTIZN16;,,                N 19Lia !
$
$ Metastable
$
 PAR  L(FCC_A1,TI,ZN:VA;0),,            +ZERO;,,                      N Same !
$
 FUNCTION EXP1      298.15  +EXP(-1.25E-07*T**2);                      6000 N !	  
 FUNCTION EXP2      298.15  +EXP(1.25E-04*T);                          6000 N !
 FUNCTION LET       298.15  +0.96923*EXP1*EXP2;                        6000 N !	
 FUNCTION GTI2ZN    298.15  -24020.5+141.5*T-25.64201*T*LN(T)
       +0.00025727*T**2-3.0303E-07*T**3+81816.46*T**(-1);
      1800.00  Y  -30074.22+181.20452*T-30.55624*T*LN(T);
      6000.00  N !
 FUNCTION GTIZN     298.15  -28405.8+136.172*T-25.01348*T*LN(T)
       -0.000505*T**2-1.0965E-07*T**3+74132.86*T**(-1);
      1800.00  Y  -32435.161+166.43047*T-28.91731*T*LN(T);
      6000.00  N !
 FUNCTION GTIZN2    298.15  -29000+152.45*T-27.93021*T*LN(T)
       +0.00263*T**2-1.1144E-06*T**3+117367.14*T**(-1);
      1800.00  Y  -46213.308+254.0388*T-40.05292*T*LN(T);
      6000.00  N !
 FUNCTION GTIZN3    298.15  -27574.996+134.59184*T-25.36637*T*LN(T)
       -0.00052*T**2-2.7974E-07*T**3+61577.2*T**(-1);
      1800.00  Y  -35648.72353+191.7624473*T-32.63850*T*LN(T);
      6000.00  N !
 FUNCTION GTI3ZN22  298.15  -18610.867+134.15418*T-25.80738*T*LN(T)
       +0.00010193*T**2-6.6974E-07*T**3+59794.34*T**(-1);
      1050.00  Y  -21371.936+164.78281*T-29.91519*T*LN(T);
      6000.00  N !
 FUNCTION GTIZN16   298.15  -15539.44+154.54489*T-29.02668*T*LN(T)
       +0.00479*T**2-2.8451E-06*T**3+94373.94*T**(-1);
       850.00  Y  -18623.415+186.82204*T-32.95573*T*LN(T);
      6000.00  N !
$ ------------------------------------------------------------------------------
$
$
 LIST-OF-REFERENCE
 NUMBER  SOURCE
  Null   'Unknown source'
  Same   'Same or similar interaction as in the corresponding stable phase'
  COST   'COST 507 database, 1998'
  SGCOST 'COST 507 database, SGTE unary database V.3.0, 1996; Al, B, Nd, Ti, Zn'
  91Din  'A.T. Dinsdale, Calphad, 15, 317-425(1991).'
  93Kow  'M. Kowalski, P.J. Spencer, J. Phase Equilib., 14, 432-38 (1993),
          SGTE unary database V.4.1, 1999; Zn'
  96Lee  'B.-J. Lee, Calphad, 20, 471-80(1996)
          SGTE unary database V.4.4, 2001; Zn'
  98Han  'S.C. Hansen, Calphad, 22, 359-73(1998),
          SGTE unary database V.5.0, 2009; Zn'
  99SGUN 'SGTE unary database V.4.1, 1999.'
  01Mie  'J. Miettinen, Calphad, 25, 43-58(2001),
          SGTE unary database V.4.4, 2001; Sn, Zn'
  13Luo  'Q. Luo, Q. Li, J.-Y. Zhang, S.-L. Chen, K.-C. Chou,
          Intermetallics, 33, 73-80(2013); Ti-Zn'
  19Lia  'S.-M. Liang, H.K. Singh, H. Zhang, R. Schmid-Fetzer,
          Calphad, 64, 213-24(2019); Ti-Zn'
!
